power_scalef,grainradius_scalef,thermal_expansion,midplane_hoop_stress_clad,fis_gas_released,midplane_hoop_strain_clad,max_hoop_stress,ave_temp_interior,avg_clad_temp,max_stress,centerline_temp,midplane_vonmises_stress,max_vonmises_stress,rod_input_power,rod_total_power,midplane_hoop_strain_fuel
1.20792696258,0.857815377194,9.87703668211e-06,10223047.1685,2.69115193454e-05,0.0,11568861.0382,688.424491081,657.542553276,65244907.9618,1891.17193898,56184072.3661,66960624.1622,5014.10482167,5002.23425041,0.0
1.15386221722,0.928954101973,9.91727901697e-06,-5352212.77281,2.15061385096e-05,0.0,5469036.18037,685.076372972,654.189088961,65971970.6165,1825.96293974,46821010.5415,68351161.9707,4789.68206368,4778.80327229,0.0
1.07019899726,1.02943881226,9.49207440555e-06,-35620479.1353,1.40826583311e-05,0.0,5824759.81013,680.211113264,648.802663461,67004606.9083,1720.84095577,34731912.347,70353475.5933,4442.39603763,4433.87545885,0.0
1.06661328792,0.876952431134,1.01218681283e-05,-34618342.8767,1.61049837949e-05,0.0,5795984.04757,679.607029932,648.572120794,66910058.2246,1716.02279719,34732146.1402,69964108.68,4427.51175816,4419.04644194,0.0
1.06072931404,0.895284542082,1.01742250462e-05,-37868579.8741,1.55050849603e-05,0.0,5809651.0627,679.248708249,648.188137751,66952897.241,1708.47295201,34638965.8636,69931711.5903,4403.08738258,4394.71367006,0.0
0.988006091316,0.967258826328,9.83319355928e-06,-95360028.7418,1.35647020877e-05,0.0,5993951.88488,679.980149364,643.574552498,67378377.8903,1613.51967409,70229194.1906,70472820.4443,4101.21328505,4094.0503952,0.0
1.05429586912,1.04930191512,9.78092420138e-06,-45060571.8996,1.37800383605e-05,0.0,5813543.58339,679.243386052,647.773723398,66952957.9565,1698.07636352,35867072.4193,70504724.9541,4376.38215272,4367.43619622,0.0
1.08478528678,1.09900368714,9.56551748947e-06,-28835373.6382,1.42111115482e-05,0.0,5774128.82055,681.081195906,649.833143877,66867322.6063,1739.13547174,35715126.6837,69440290.1141,4502.94372542,4494.00198442,0.0
1.1350438834,1.06501281011,9.78975206543e-06,-10983811.169,1.85880816746e-05,0.0,5611524.76477,683.882575086,653.012532557,66408100.3286,1804.45888421,43883353.688,67717169.647,4711.56715999,4701.88574542,0.0
1.13024929982,0.738598087477,9.40711643945e-06,-13448527.9395,2.31131001239e-05,0.0,5653642.15254,683.933576238,652.689294037,66553490.8753,1800.3753516,42455049.048,68605424.8914,4691.66484355,4682.5794917,0.0
1.10716958752,1.12341439178,1.01354548951e-05,-20373265.4076,1.61232200774e-05,0.0,5706930.76554,681.967991591,651.259180652,66690119.8152,1769.52260193,38297401.3428,68825114.6364,4595.8609578,4586.95217585,0.0
1.21124467665,1.01382636926,1.00994236262e-05,11273484.7188,2.44638140991e-05,0.0,12566833.7158,688.40109502,657.757416429,65186041.5807,1894.2620808,56952858.6875,66450110.7395,5027.87665277,5015.8317685,0.0
1.03375671467,0.976919003364,1.02506531388e-05,-55744950.8193,1.39678504564e-05,0.0,5842070.42046,677.962865466,646.469441989,67016008.5558,1671.17713837,40206087.1393,70866114.953,4291.1241226,4282.60224728,0.0
1.09479734471,0.685285067735,1.02814442995e-05,-23756769.5281,2.13322356615e-05,0.0,5709111.5343,681.329817892,650.46042411,66682102.7168,1754.17760826,36798012.8953,68863069.3657,4544.50377789,4535.88882242,0.0
1.12035094524,1.05315833445,1.0154177369e-05,-14134319.6049,1.77513729333e-05,0.0,5623983.58988,682.712205169,652.026825935,66432510.6807,1784.65847773,41860455.0387,68451175.3456,4650.57677369,4640.86359407,0.0
1.01132509254,1.10795320203,9.28771318845e-06,-89578349.4092,1.24462885117e-05,0.0,5992161.94832,678.600237988,645.077297815,67410385.3379,1643.39902027,65236863.9552,71261486.3778,4198.01045913,4190.94138029,0.0
1.19368142417,1.15551996781,9.70177732831e-06,5771234.45575,2.00782538457e-05,0.0,7372536.54009,687.494178309,656.693672568,65600163.0991,1873.99302081,53231096.3118,66876988.7208,4954.97159173,4943.28376525,0.0
1.1336805974,0.815525025898,1.03077877913e-05,-11075357.9914,2.33335925313e-05,0.0,5602788.9943,683.555530588,652.933399091,66389631.8144,1804.3370354,43626807.9119,67717617.6222,4705.90815981,4696.79407863,0.0
1.15302758489,0.863283183515,1.03654117169e-05,-5421281.48841,2.45766901272e-05,0.0,5533947.5226,684.771889682,654.211697394,66164552.8014,1828.80652767,46724339.8756,68397492.7105,4786.21750488,4776.76971173,0.0
1.13296136395,0.930850025184,9.68442653332e-06,-11691143.9924,2.02962323568e-05,0.0,5611519.99814,683.882777712,652.871103507,66418730.1903,1801.9650439,43435422.055,67532403.8092,4702.92262176,4693.27576662,0.0
1.1530923897,1.03934926213,9.43738356391e-06,-5883341.37335,1.9928122835e-05,0.0,5563986.67973,685.17917877,654.158179767,66295635.7944,1827.33958142,47124950.9028,68966215.736,4786.48650964,4776.49352478,0.0
1.09191129138,0.853469633887,1.01456980204e-05,-24970171.4778,1.82316284594e-05,0.0,5731243.64714,681.134689959,650.237229732,66752356.2146,1749.8966352,36464216.4502,69065121.5429,4532.52377052,4523.85530784,0.0
0.974758078863,0.853567290167,1.00527032753e-05,-94429156.6203,1.5053178401e-05,0.0,5974532.77234,682.337448354,642.71193046,67308220.4796,1612.97246257,69409727.7447,69643255.3741,4046.22078536,4038.71359228,0.0
1.11921797417,0.863058623456,9.92646355882e-06,-15064465.4421,2.01704073037e-05,0.0,5651454.50268,682.84473276,651.951264548,66516750.2712,1784.60253707,41274046.6681,69162214.0469,4645.87381078,4636.57961168,0.0
1.08649870109,1.0872638412,1.01855907568e-05,-26732991.5159,1.50221038439e-05,0.0,5761519.068,680.739791622,649.937857021,66837980.6374,1742.62636204,36019509.0527,69254244.8961,4510.05610822,4501.47224813,0.0
1.0246214049,1.09231794732,9.91256416485e-06,-67015873.1769,1.26692539789e-05,0.0,5932671.39985,677.863736672,645.906905507,67283657.6783,1661.43268933,47343509.9815,70994745.6705,4253.20345174,4245.94565955,0.0
1.13004269249,1.08542733447,9.82906425085e-06,-12242010.1071,1.78708765557e-05,0.0,5630035.56232,683.516981333,652.676644574,66458858.2466,1798.06095689,42999362.8657,67597785.4851,4690.80721653,4681.23505491,0.0
1.0593616001,0.9117687409,9.94216559537e-06,-39463553.9632,1.51648139519e-05,0.0,5823040.40765,679.34494031,648.099397677,66987338.5629,1706.59462537,34791842.8687,69808984.5126,4397.41000202,4389.05759217,0.0
1.16428874845,0.859237617549,9.52484552544e-06,-1433227.33405,2.27235347692e-05,0.0,5442292.7388,686.01533967,654.886058153,65883112.2103,1838.8316629,49447240.1877,68014524.4139,4832.96259482,4821.90989801,0.0
1.11967718433,0.65473446276,1.0155668658e-05,-14169088.3884,2.39016124664e-05,0.0,5588579.49766,682.89723369,651.970001287,66322118.6435,1784.26918847,41756743.7076,68436448.9939,4647.77999215,4638.07814604,0.0
1.00965290633,0.906597868488,1.01691036449e-05,-83927686.7384,1.44973989472e-05,0.0,5871624.43792,677.690020946,644.9322282,67043869.5579,1637.85969815,60302039.8503,70683723.6736,4191.06921418,4182.60339783,0.0
0.982455419537,0.884831708398,9.60097199175e-06,-94980546.6049,1.47730600003e-05,0.0,6011833.34349,682.180977995,643.219793022,67432325.2727,1619.31956393,69895123.0523,70134225.7333,4078.1724465,4071.16608916,0.0
1.24614440397,0.835428881237,9.52436977035e-06,18514632.0087,3.06216816626e-05,0.0,20075727.9205,691.07460511,659.976018905,64787815.53,1936.17035384,62817497.1712,67126650.3377,5172.74542088,5160.28750103,0.0
1.09027985685,1.1698462121,9.71457253444e-06,-26504568.8334,1.40159849348e-05,0.0,5773655.43166,681.255616394,650.179228237,66879051.1899,1747.33144881,36204274.6181,69434614.517,4525.75168578,4517.01101867,0.0
1.29072463696,0.895280829735,9.73387538362e-06,26576215.7193,3.38186951583e-05,0.0,28117011.176,693.439115662,662.570415523,64119214.0376,1985.80605182,68284167.8281,69227901.2721,5357.79796802,5344.61183663,0.0
1.06310205089,0.852216768828,9.9336847571e-06,-37736161.9623,1.60021886171e-05,0.0,5810445.01287,679.579147704,648.343111217,66955581.5948,1711.61799496,34672025.4717,70043421.6165,4412.93661324,4404.52589174,0.0
1.15236603037,1.13446104235,1.02247934209e-05,-6005663.80821,1.97336677569e-05,0.0,5569845.35135,684.599900233,654.12308153,66312006.8362,1827.75084905,46521338.3892,68610930.0951,4783.47139207,4774.03254631,0.0
1.07704179316,0.78302377851,9.9373584066e-06,-31019855.3639,1.78256256794e-05,0.0,5781103.78466,680.302835265,649.191486434,66891051.7735,1730.48221311,35273809.7997,69405904.6763,4470.80048341,4462.36362426,0.0
1.06384029848,1.04153923895,9.46148069045e-06,-38717755.7039,1.36330133109e-05,0.0,5841774.82697,679.894523036,648.394571383,67045268.5792,1712.43838984,34806000.0459,70131240.2022,4416.00107899,4407.58005666,0.0
1.16291984299,0.975065824553,1.00638810258e-05,-601701.201937,2.12058953992e-05,0.0,5442626.94172,685.493167069,654.791063698,65864563.8583,1836.75281724,49556050.7284,67686771.8465,4827.28026825,4816.38222777,0.0
1.05309799961,0.815934576433,9.73571515663e-06,-42633222.0902,1.55638274248e-05,0.0,5834102.2326,679.222244779,647.704348617,67006944.9784,1697.79506634,35278211.5288,70684845.9283,4371.40979638,4362.97198192,0.0
1.1891500472,0.913120720742,9.72957077035e-06,5387357.18119,2.3950086799e-05,0.0,7058088.88953,687.284556291,656.412187526,65706301.9828,1870.3016188,53152126.7272,67010864.4629,4936.16184593,4925.20084341,0.0
1.06322736937,0.903664650271,1.02513264779e-05,-36795928.7313,1.56988835116e-05,0.0,5804557.38228,679.327017356,648.351128986,66936774.8976,1712.06274694,34622041.9793,70053787.1695,4413.45681025,4405.13749419,0.0
1.17673726209,0.817056249251,1.01104474924e-05,1766359.16996,2.71190046644e-05,0.0,5420851.20729,686.420069603,655.653866674,65824794.7773,1856.90428707,50830263.5723,66890566.7965,4884.63637494,4874.34870832,0.0
1.13546444868,1.22725774769,9.70959822748e-06,-11182377.6291,1.63700838407e-05,0.0,5634169.85918,683.875955207,653.043791996,66483478.0904,1805.17699592,43760081.6494,67770371.7422,4713.31292647,4703.72736732,0.0
1.0189701005,1.18704622961,9.98622039254e-06,-73276801.3495,1.1813028988e-05,0.0,5948506.90111,677.664691784,645.553725543,67319512.151,1653.87104787,51908067.5379,70948996.3334,4229.74488718,4222.56756261,0.0
1.12644548149,0.955187812522,9.76251068538e-06,-13268721.1667,1.94491515369e-05,0.0,5583264.29104,683.44987543,652.408401535,66316126.4484,1791.57557676,42282812.2016,68012724.8783,4675.87519366,4665.56515213,0.0
1.20482467228,0.72624794171,1.02298387544e-05,9513524.5211,3.06868609992e-05,0.0,10864736.7393,688.196677633,657.342592309,65123123.7021,1887.38902764,55515675.7357,66672919.7341,5001.22721463,4989.33395976,0.0
0.941091886579,0.86543064939,1.0023870703e-05,-93142701.1067,1.41908746741e-05,0.0,6106974.16315,687.019566393,640.558243294,67671049.4656,1607.65910236,68276979.1461,68492097.8141,3906.47242119,3900.35924012,0.0
1.0107476431,0.864554811863,1.01598062682e-05,-78145577.3939,1.42410407414e-05,0.0,5888584.16807,677.498012019,645.011703266,67078871.5088,1639.74661503,55714675.2712,70676613.4824,4195.61346651,4187.43913664,0.0
0.976784241023,1.10865245338,9.97920038001e-06,-94709057.6278,1.25695664506e-05,0.0,6023154.53747,681.85958255,642.852708525,67462970.5475,1614.18991745,69655884.1028,69891284.6189,4054.63138449,4047.70875402,0.0
1.08870954211,1.0168042331,1.02365822372e-05,-25803186.691,1.60952282167e-05,0.0,5748253.58054,680.83040518,650.050709015,66801165.0045,1745.57157369,36216982.7374,69169783.0324,4519.2333093,4510.61493324,0.0
1.03718200468,0.862654124462,9.83832435529e-06,-56294288.1713,1.50816140623e-05,0.0,5892642.37675,678.419759646,646.713974969,67180023.5548,1678.31468689,40635884.868,71082876.3472,4305.34250143,4297.9059359,0.0
0.978160147035,1.02153358587,1.00490841927e-05,-94666276.5246,1.34352198878e-05,0.0,5963325.14584,681.407441036,642.927699053,67271606.4548,1610.47357074,69618482.8067,69855955.227,4060.34277034,4052.46491984,0.0
1.04899006232,1.08112087347,9.58064471522e-06,-47234930.137,1.30290991078e-05,0.0,5853179.81959,679.098645391,647.447887066,67060515.447,1691.73206089,36610346.3065,70921872.4203,4354.35774869,4345.8236939,0.0
1.01669053905,0.885022818901,9.88288223002e-06,-76917623.0071,1.43300889007e-05,0.0,5943950.54562,677.845931634,645.410026405,67295411.0762,1650.95735755,54730298.2677,71263247.5357,4220.2824276,4213.13745284,0.0
1.18468545372,0.920646365543,9.94743684778e-06,4309179.45931,2.37857730478e-05,0.0,5995854.2798,686.924571372,656.105004788,65596700.871,1863.44033857,52218044.7664,66893737.3625,4917.62931839,4906.21893255,0.0
1.17500376918,0.902221780514,1.00184203534e-05,2211641.56826,2.33745008969e-05,0.0,5395189.82976,686.29603383,655.530178261,65737444.3428,1852.14109511,51040424.5103,66961581.1229,4877.44064587,4866.40283777,0.0
1.14519520986,0.862600400854,1.02159955528e-05,-7568596.95212,2.29854306434e-05,0.0,5516798.02107,684.211248103,653.51494508,66124160.6356,1816.70532401,45582306.6876,68452237.509,4753.70531613,4743.54446878,0.0
1.01569593094,0.888092509482,9.67241381357e-06,-80109173.9883,1.43363185599e-05,0.0,5954911.39129,678.055924107,645.337330285,67321004.4865,1649.53945134,57289177.6494,70873495.19,4216.15380933,4209.02292975,0.0
1.157299737,1.01484668282,1.00467878956e-05,-2020458.49393,2.01425015438e-05,0.0,5506894.13616,685.090910095,654.458654405,66067280.6726,1831.13022202,48979707.2942,68079430.7945,4803.95120829,4793.65942232,0.0
1.1207867988,0.965122536183,1.02191477218e-05,-14493849.1562,1.90199353857e-05,0.0,5617342.16547,682.742714807,652.055597999,66402605.0908,1785.66636713,41636701.627,68396576.7078,4652.38600182,4642.76465637,0.0
1.09737320174,0.873437453459,1.00064557448e-05,-23594796.5244,1.83420388397e-05,0.0,5722951.29006,681.583181123,650.63039623,66732946.7455,1757.02036129,36934016.3432,69024639.9537,4555.19616042,4546.44198055,0.0
1.18290549718,1.14543758568,1.02068976282e-05,5011249.56105,2.00088643574e-05,0.0,6611706.09728,686.429028005,656.007412504,65780939.2015,1861.93334158,52704702.8698,67069094.0075,4910.24071879,4899.48951978,0.0
1.10610352794,1.02474624879,1.01261111043e-05,-20672250.7581,1.73568231619e-05,0.0,5702998.31292,681.961616151,651.195649814,66675728.9314,1768.24227365,38120594.4479,68754820.9698,4591.43574448,4582.54384007,0.0
1.23118122787,0.889250790229,1.00997453045e-05,15630538.0639,2.88149124544e-05,0.0,17119789.1882,689.603684355,659.001000518,65106005.6223,1919.59894623,60590126.1549,66725266.3426,5110.63327689,5099.00294412,0.0
1.18109503854,0.971718142351,1.02168256654e-05,4319354.09684,2.28444579578e-05,0.0,6082827.81647,686.452162724,655.887511229,65688339.3041,1859.58616162,52219760.3095,66984758.6412,4902.72550498,4891.78828304,0.0
1.19099418296,0.948061092013,9.73962502911e-06,5336643.4892,2.35220949976e-05,0.0,6980584.30374,687.445437095,656.514161458,65543985.172,1871.03315326,52946109.0791,66842338.6582,4943.81685347,4932.17874848,0.0
1.0059409242,0.782401268912,1.03900975942e-05,-86208574.8301,1.5486512128e-05,0.0,5867572.03283,677.560080689,644.69797958,67031125.3622,1633.19562426,62322204.0971,70590462.2445,4175.66077635,4167.33886342,0.0
1.00127457724,1.01840348271,1.01016531319e-05,-95846465.0364,1.34300974316e-05,0.0,5901478.20641,678.156102922,644.402878608,67122147.025,1626.59205142,70657171.2661,70657171.2661,4156.29077012,4147.96418072,0.0
1.11969758285,1.13279275014,9.75305004356e-06,-17045543.5756,1.65316636562e-05,0.0,5684090.29119,682.889778409,651.986437659,66624971.6593,1785.64513991,40307932.4123,69432940.2312,4647.86466641,4638.65279315,0.0
1.13536324395,0.882252822483,9.99372073798e-06,-9778446.97147,2.14957997724e-05,0.0,5585119.06995,683.839873328,653.033898074,66334815.7275,1804.77256728,44676577.735,67864329.3652,4712.89282564,4703.23496636,0.0
1.00614909527,1.08876724839,9.57907130078e-06,-93133355.436,1.23674263496e-05,0.0,5966605.41178,678.412074691,644.733987112,67313039.4568,1634.95171583,68272367.7163,71069084.8841,4176.52489447,4169.01094676,0.0
1.15536312533,1.01510390049,1.04874898318e-05,-3062024.26898,2.05244149584e-05,0.0,5452125.80816,684.780977028,654.316339476,65896114.7027,1827.39664582,47760693.8854,67786577.6758,4795.91233324,4785.13413714,0.0
1.19012282175,0.960499033075,9.95844014936e-06,5721661.37526,2.34539351676e-05,0.0,7275266.07152,687.250853178,656.462089735,65508014.8726,1869.56958987,53052820.1831,66664381.2596,4940.19983308,4928.58606107,0.0
1.13524242563,0.92226869087,1.00526076948e-05,-12025973.4392,2.11897445244e-05,0.0,5527638.73042,683.913560015,653.004472008,66154640.5393,1803.17824244,43171396.557,67483939.7117,4712.39130879,4701.91333197,0.0
1.02386701389,0.795009534963,1.00578017531e-05,-66238620.0321,1.53183691785e-05,0.0,5907890.43258,677.792428274,645.853724363,67205087.5314,1660.20744324,46793554.9499,70882834.127,4250.07197466,4242.73528213,0.0
1.02642326029,0.976020808538,1.00028349963e-05,-63537251.2139,1.38852854562e-05,0.0,5911666.18216,677.8644479,646.018180475,67221859.4765,1663.5091237,44949318.0741,70854269.191,4260.68295346,4253.30938885,0.0
1.03161277985,0.754594930788,1.00595031736e-05,-59927540.4379,1.59404447457e-05,0.0,5842733.21845,678.153175709,646.33688108,67013522.2748,1668.69238649,42625718.2476,70980495.878,4282.22464916,4273.82413727,0.0
0.926705274496,0.747463582779,1.0536705631e-05,-92139389.797,1.48328339896e-05,0.0,6045227.30086,687.893249833,639.609118381,67448857.6209,1597.11469746,67394226.4354,67600156.9034,3846.75359443,3839.67320785,0.0
1.16742495022,1.08523342254,1.01640066732e-05,807397.67331,1.98686559555e-05,0.0,5461827.11704,685.594475242,655.081834452,65933349.6655,1843.11672737,50312587.8752,67577545.9221,4845.98096836,4835.39378783,0.0
1.06594442253,0.988584266179,1.00930697502e-05,-35815392.1193,1.47809695669e-05,0.0,5805706.33092,679.560383636,648.527773888,66938566.3715,1715.26672737,34653586.6685,70071029.5894,4424.73529792,4416.28015438,0.0
1.2535457055,0.904840844242,9.81824670877e-06,20090306.2811,3.06038713355e-05,0.0,21796453.6683,691.357007116,660.415902917,64620907.8068,1943.83956163,64114738.1217,65000228.8595,5203.46822353,5190.73362193,0.0
1.02300782672,0.912976184266,1.00723806683e-05,-68213585.2029,1.44733214419e-05,0.0,5863774.06101,677.842391477,645.788474734,67062355.8956,1656.69376747,48155233.7817,70822605.317,4246.50548871,4238.15707949,0.0
1.15285922638,0.660321664995,9.8397605124e-06,-7286591.80209,2.82684804524e-05,0.0,5422963.47546,685.374261743,654.120187177,65845106.5432,1825.61568137,45648625.2175,68133581.6964,4785.5186487,4774.60040555,0.0
1.07635904817,1.06781272872,1.03907770635e-05,-31727343.7614,1.49773411113e-05,0.0,5710378.91859,680.107661244,649.254981766,66658039.4635,1726.51187487,34881314.7467,68936291.5405,4467.96640895,4458.32460933,0.0
1.1007667438,1.015667166,1.04034070583e-05,-20019224.5466,1.69768164591e-05,0.0,5644477.73455,681.505254541,650.838939763,66459564.2666,1758.38023552,38557833.7614,68461595.8344,4569.28275351,4559.4213031,0.0
1.06753795802,0.982335964986,9.9238446569e-06,-35763767.0122,1.48467065925e-05,0.0,5808134.69236,679.774464347,648.630901675,66956422.6339,1717.35890143,34696524.2062,70130510.9038,4431.35006374,4422.86997377,0.0
1.03648774548,0.959721934415,1.0395052132e-05,-52658671.5328,1.44436125375e-05,0.0,5821043.5756,677.947816529,646.625470989,66959494.0223,1674.42289493,38591617.584,70784570.1796,4302.46063149,4293.80798243,0.0
1.230139811,0.994201871083,9.86022380053e-06,15355287.558,2.60369321644e-05,0.0,16772811.5148,689.718682732,659.025538841,65159448.6456,1918.02292674,60389612.661,66790028.5166,5106.31035546,5094.60514027,0.0
1.08609194673,0.831183262418,1.02379412042e-05,-26637324.2615,1.81261650088e-05,0.0,5742554.63756,680.787822163,649.910807177,66779798.6598,1742.30116981,35992328.0314,69173933.8769,4508.36767088,4499.79015491,0.0
1.17472323524,1.11900936451,9.42485293118e-06,1313821.27638,1.88372511892e-05,0.0,5463518.65558,686.472121875,655.541625378,65956043.6563,1852.12862182,50951144.7565,67817618.1719,4876.27614948,4865.3632273,0.0
1.07822362486,0.865710758431,9.89924469591e-06,-30655039.9603,1.68511128063e-05,0.0,5785147.94721,680.367487115,649.269874379,66904524.9511,1731.97177955,35380783.2837,69335501.5872,4475.70626679,4467.2510939,0.0
1.12799934664,1.02721452318,1.0196744559e-05,-11668469.0352,1.91942517931e-05,0.0,5649451.84762,683.12651824,652.559918209,66515752.6672,1796.69715576,43303915.1943,67765295.0349,4682.3252879,4673.32215903,0.0
1.01119710214,0.764229957499,1.03450298253e-05,-74814619.0852,1.47590426659e-05,0.0,5897899.64878,677.270153534,645.037404139,67118401.0059,1641.5639558,53077101.7249,70604207.5474,4197.47917098,4189.71885906,0.0
1.22461066707,1.06050869246,1.01415867878e-05,14149580.8881,2.45833253296e-05,0.0,15520193.335,689.178257333,658.662590651,65188591.1819,1911.08031721,59385588.533,66657386.0573,5083.35887901,5071.64804465,0.0
1.12020457762,1.11461488535,1.05008218953e-05,-13971954.5907,1.72336985555e-05,0.0,5619410.9686,682.454644796,652.016982877,66413604.5256,1784.73684276,41834955.0172,68023846.5194,4649.9692017,4640.35763253,0.0
1.11674961425,0.866358408794,9.98907805762e-06,-15610980.5991,1.9920749024e-05,0.0,5657113.95325,682.645503852,651.792659051,66532019.1464,1781.40454012,40968943.111,69334937.973,4635.62764875,4626.37444588,0.0
1.02607849306,0.812970788682,9.91494900577e-06,-65121250.3609,1.51568238236e-05,0.0,5915265.00276,677.987949187,646.004352656,67233839.0558,1663.52708711,46035322.0845,70902760.2505,4259.25182469,4251.9732234,0.0
1.1172954969,1.04386354972,9.99277432372e-06,-15380997.7476,1.75590898367e-05,0.0,5619130.89519,682.650807759,651.809919929,66405518.1319,1779.88053434,41069352.0249,69115397.6924,4637.89360763,4627.84077302,0.0
1.09957666148,0.937225973039,9.81771751947e-06,-23222446.1321,1.75369251638e-05,0.0,5732415.64222,681.821025255,650.780478268,66760338.4966,1760.00337728,37153948.0882,69218696.493,4564.3427218,4555.55375232,0.0
1.26277140344,0.876062029629,9.97450269015e-06,21966984.0646,3.2875236539e-05,0.0,23895183.9183,691.917303559,661.02296847,64460132.1025,1954.40959709,65542641.7282,66416660.0457,5241.76409568,5228.99772911,0.0
1.02048273189,1.0973950387,1.01396729378e-05,-70059045.0781,1.27884778806e-05,0.0,5878219.49163,677.647416379,645.625614653,67100842.8924,1653.20988772,49500674.2402,70978596.0183,4236.02382008,4227.71587636,0.0
1.135438529,0.983668129667,9.64531569606e-06,-11186250.0125,1.96672209208e-05,0.0,5616939.72665,684.033452324,653.040655258,66428861.8182,1805.40533114,43659559.0042,67695188.8779,4713.20533388,4703.62181628,0.0
1.08590114796,0.899203180236,1.00669751986e-05,-27254631.3654,1.71251220884e-05,0.0,5755127.43357,680.874980658,649.904972284,66815158.135,1742.00752715,35925883.9315,69270389.193,4507.57566518,4499.00112443,0.0
1.12409935503,0.762220228522,9.56140540714e-06,-14376230.1766,2.16851873447e-05,0.0,5615515.36992,683.497875145,652.265005843,66413486.9622,1790.12935573,41748121.65,68751760.4167,4666.13642273,4656.33562733,0.0
1.22059206727,0.996205621845,9.92662040306e-06,13445630.3918,2.54514010518e-05,0.0,14624373.1326,689.044773103,658.409694723,65333680.0007,1907.49144373,58806080.9731,66610925.1943,5066.67767124,5055.35009665,0.0
0.99829950033,0.727414798103,9.96833694903e-06,-95489741.0302,1.58183615808e-05,0.0,5897742.07052,678.807172662,644.216284689,67103431.9083,1622.77710048,70343714.6272,70679670.6841,4143.94122587,4135.66049618,0.0
1.17407353265,0.82385329378,9.99347875866e-06,2251476.6686,2.4789854206e-05,0.0,5389529.10037,686.305663191,655.473371853,65717195.5494,1851.00098361,51109710.5771,66961491.8403,4873.57923403,4862.55961911,0.0
1.17003073937,0.811657576412,1.01540350139e-05,1283887.44669,2.499796079e-05,0.0,5420223.12874,685.94939159,655.239329916,65808057.963,1846.87091498,50471514.8089,67424339.0266,4856.79759912,4846.16359711,0.0
1.13965861517,0.778821386558,1.0144751563e-05,-9476682.30048,2.39105110893e-05,0.0,5551053.77269,684.077980693,653.279557376,66236481.2147,1810.66008186,44613791.7047,67995305.5094,4730.72291157,4720.96439006,0.0
1.09499769801,0.939186711264,1.0583121085e-05,-22791574.3904,1.76165613698e-05,0.0,5693912.98319,681.060976532,650.491534881,66617356.546,1753.1853031,37080733.0379,68536867.197,4545.33544444,4536.32477389,0.0
1.15438991253,1.02151932986,1.01375343396e-05,-5659709.24625,2.16296176385e-05,0.0,5560068.74333,684.710049056,654.160626951,66282513.5689,1830.47808291,46751269.5113,68564884.9613,4791.87252691,4782.40199287,0.0
0.969303143148,1.00724345947,1.00091263664e-05,-94247481.4932,1.37753316157e-05,0.0,5997663.26486,683.132005004,642.361570084,67369207.592,1611.91085984,69249731.725,69480148.2197,4023.57734721,4016.15090696,0.0
1.05782492206,0.966804651031,1.01267685352e-05,-39460699.1198,1.46029245698e-05,0.0,5822768.48935,679.09911958,647.997400422,66987180.1771,1704.54130293,34788435.3124,69741493.6945,4391.03125147,4382.70274947,0.0
1.18300485252,0.812923989867,1.03513767616e-05,5313788.93959,2.63188613124e-05,0.0,6866647.99924,686.613488166,656.012755385,65558843.6284,1861.89508825,52696418.5272,66806326.3193,4910.65314281,4899.68471379,0.0
1.01507448122,1.25703394224,1.01696848157e-05,-78828701.699,1.14433147892e-05,0.0,5880227.72032,677.520423271,645.280136946,67088349.3434,1644.85876369,56239481.3695,70682057.2321,4213.57417154,4205.01929435,0.0
1.15381225922,0.907254108345,9.93116848504e-06,-5787479.35961,2.28423216732e-05,0.0,5514984.04452,685.050695762,654.205195333,66133662.0283,1828.08142447,46623356.9669,68547872.988,4789.47468802,4779.37395132,0.0
1.29044523815,0.887478672878,9.67454532143e-06,26420959.8352,3.38432137499e-05,0.0,28055281.9892,693.596041398,662.655847279,64126423.0344,1985.77276217,68270612.3821,69151244.6842,5356.63818356,5343.48779516,0.0
1.12112851798,0.967572838624,1.07099970794e-05,-13261878.365,1.95529685175e-05,0.0,5593350.9874,682.455659542,652.079300188,66339272.4389,1786.00804425,42215460.1587,67283478.9684,4653.80447813,4644.17841257,0.0
1.12817481365,1.01615648578,1.00256881776e-05,-12308328.5339,1.88599381132e-05,0.0,5602283.68905,683.223959795,652.467836921,66377297.5531,1794.78568149,42987709.4776,67299286.7458,4683.05365146,4673.20940536,0.0
1.11737188872,1.03983040355,9.67952563125e-06,-17880123.9475,1.7492829723e-05,0.0,5687834.85337,682.878719247,651.872287145,66647002.4344,1782.74881799,39887445.5538,69258743.5789,4638.21071008,4629.03731651,0.0
1.20341399339,0.642798516627,9.9549357437e-06,9522610.927,3.285016309e-05,0.0,10883936.0423,688.402455918,657.290613685,65119540.0205,1886.04100981,55583811.5791,66621735.5471,4995.37148656,4983.50401441,0.0
1.12150541435,0.973759406784,1.02128764635e-05,-14218327.1797,1.95964141442e-05,0.0,5659513.55192,682.739331771,652.120551176,66561551.9953,1788.41421054,41857349.8522,68612407.4768,4655.36897497,4646.44752405,0.0
1.0160596791,0.713372562867,9.96552968716e-06,-76843279.5327,1.56863288614e-05,0.0,5934106.40724,677.796495669,645.363919431,67262457.8342,1650.21746075,54663924.4827,70792617.2449,4217.66372794,4210.52769485,0.0
1.10634259043,0.672521720091,1.01722571505e-05,-18424906.192,2.24350751364e-05,0.0,5592763.95988,682.180182471,651.168927702,66318304.0378,1765.46809717,39492997.377,68714921.1523,4592.42809287,4582.37525037,0.0
1.10519712601,0.93082556406,1.02243059671e-05,-18744182.6762,1.8353940206e-05,0.0,5622669.35384,681.908391794,651.100160397,66409198.2034,1763.64702408,39341820.2595,68740450.7013,4587.67327007,4577.63895551,0.0
1.23754873794,0.794189087422,9.71323846483e-06,16932464.665,3.08401467725e-05,0.0,18402051.5172,690.393467513,659.44927906,64958155.7721,1926.84574096,61651410.0085,66860115.5307,5137.06481119,5125.10680766,0.0
1.08630616731,1.0018089531,1.0110420599e-05,-27011803.9459,1.60286775132e-05,0.0,5759213.42425,680.822340482,649.928582577,66828719.8803,1742.45281957,35963498.0163,69272440.2513,4509.2569005,4500.67604359,0.0
1.17325969418,1.04814690491,1.01788626615e-05,2196852.8334,2.08494110711e-05,0.0,5419167.00291,685.96934115,655.419150742,65798303.8263,1849.77850927,51046432.7479,67051876.3433,4870.20099054,4859.30095467,0.0
1.08911647392,0.775368418678,9.83658292884e-06,-26831371.7177,1.88372852931e-05,0.0,5746713.11769,681.277878764,650.108882773,66790548.3454,1746.33153448,36090663.4952,69310107.4776,4520.92248324,4512.29774793,0.0
1.13049642945,0.989030604006,9.66613271095e-06,-12278933.3498,1.92407110144e-05,0.0,5625908.7573,683.704435076,652.706885104,66459069.1079,1798.76180686,42976767.0243,67443626.6897,4692.69067865,4683.08547895,0.0
0.982980571219,0.747240502718,9.63300144872e-06,-94972271.5239,1.58682260071e-05,0.0,6002645.51787,682.067811413,643.253261222,67406307.4195,1619.19326547,69887910.2603,70127153.2656,4080.35235113,4073.33845813,0.0
0.925567576752,0.874145360482,1.03231363458e-05,-92162418.4165,1.4031875927e-05,0.0,6062113.02407,688.603889329,639.53759707,67499156.02,1599.01808977,67414399.1673,67619898.1663,3842.0310111,3834.96788198,0.0
1.14323613184,0.763827795644,9.9238390699e-06,-9177411.68698,2.48438844547e-05,0.0,5583638.11396,684.381965089,653.514025386,66338588.0877,1816.74233974,44841651.2425,68352503.4261,4745.57318327,4736.28220068,0.0
1.21160812086,0.823102514112,1.00199460465e-05,11187049.0514,2.82724743632e-05,0.0,12479798.3152,688.620949405,657.781261344,65149979.4475,1895.45660082,56885050.9203,66316816.3,5029.38530969,5017.44607017,0.0
1.09833404717,0.733997006192,1.02235168614e-05,-22610640.1643,2.06555657283e-05,0.0,5699335.56616,681.583320381,650.714014972,66651616.2632,1758.40212537,37188698.6276,68521902.9329,4559.1846298,4550.41457562,0.0
1.0973210979,1.19203018907,9.74009627338e-06,-24064241.1378,1.42996274682e-05,0.0,5754069.51815,681.60517379,650.603876915,66816519.5621,1756.52338351,36873684.8876,69252078.1901,4554.97987738,4546.1277575,0.0
1.06195761487,0.97834769925,9.89005127779e-06,-38473877.9246,1.45923940855e-05,0.0,5822716.06016,679.500805827,648.269274567,66990509.6859,1709.99618311,34742534.0754,70007150.4034,4408.18605933,4399.79319661,0.0
1.13469701061,1.12166575963,9.8667999938e-06,-12072645.3439,1.80905117185e-05,0.0,5557672.39145,683.870841157,652.971595236,66241579.0329,1802.09583771,43157838.1223,67536052.9889,4710.12729104,4699.63412101,0.0
1.10910283433,0.695294944469,9.85797092179e-06,-17999187.0277,2.15265697907e-05,0.0,5646698.76646,682.488911356,651.366707314,66491368.0547,1770.90542716,39649786.8014,68853866.7134,4603.8858653,4594.36154653,0.0
0.987645591975,1.17164190599,1.05363033921e-05,-94986698.9247,1.1956743411e-05,0.0,5929772.71808,678.642500088,643.532041238,67195629.3721,1608.80168302,69900672.4999,70145108.4623,4099.71685229,4091.68799142,0.0
1.05950955228,0.890532746096,9.52490548252e-06,-43488727.632,1.56058628129e-05,0.0,5795875.76909,679.875959797,648.16856866,66903632.6021,1705.06594487,35468847.056,70329254.9014,4398.02415151,4388.99167646,0.0
1.11694326804,0.990998214001,9.8208674634e-06,-17631452.2705,1.82893611461e-05,0.0,5678671.08774,682.770710414,651.832115662,66605232.3633,1782.19283264,39964575.5885,69262278.3924,4636.43150563,4627.26401408,0.0
0.988457627582,0.883019459275,9.71732366761e-06,-95202295.5142,1.48026032866e-05,0.0,5992847.25369,680.987184407,643.604214059,67385046.8173,1619.38804306,70090209.8764,70332406.8534,4103.08761209,4095.99492168,0.0
1.16914774282,0.868107715215,9.72801566747e-06,-955713.114631,2.49672882054e-05,0.0,5492753.81423,686.15139516,655.214001686,66064811.4984,1848.40617208,49478894.0669,67880924.1132,4853.13228045,4843.18981978,0.0
1.08229333652,0.885813688687,9.85441649605e-06,-29232211.9848,1.68633291124e-05,0.0,5773138.89674,680.827056579,649.676224106,66861450.0815,1737.29392963,35749724.8183,69343553.5103,4492.59963989,4484.08127781,0.0
1.08342285141,0.695682995376,1.03623739839e-05,-27314355.6674,2.00296901792e-05,0.0,5740358.01923,680.611664747,649.746557357,66762162.9891,1739.26045703,35833437.8254,69122169.2219,4497.2882562,4488.84942611,0.0
1.12411477843,1.1895820014,1.02163247087e-05,-13303696.6166,1.6351150482e-05,0.0,5620877.71104,682.861804538,652.273170211,66412758.317,1789.53078813,42389665.1589,67691132.997,4666.20044526,4656.42435729,0.0
1.13334225562,0.911804812046,9.88170326063e-06,-11200430.3583,2.08170540355e-05,0.0,5599195.14566,683.798444798,652.900073515,66369200.0218,1802.40797413,43688771.8727,67592178.0381,4704.50370308,4694.85053074,0.0
1.07390441296,0.999065892003,9.90627740015e-06,-32531903.6144,1.50892016608e-05,0.0,5804451.81782,680.06176175,648.990650307,66955612.9232,1726.19392168,35010620.2263,69781397.5234,4457.7772182,4449.38889693,0.0
1.00806323201,1.07368921312,1.00923121732e-05,-87017065.8332,1.29235336134e-05,0.0,5889434.57712,677.773534579,644.833191411,67094891.7216,1635.59454084,63012358.9931,70757803.0002,4184.47047607,4176.03070255,0.0
1.2209346924,1.2363637366,1.01604217739e-05,13066339.3936,2.13749747649e-05,0.0,14254771.6621,688.861375946,658.411900508,65181670.9438,1905.52444172,58465499.3467,66524754.2405,5068.09990815,5056.0075306,0.0
1.09448173849,1.16485485903,1.03381687983e-05,-23804426.7867,1.49619236839e-05,0.0,5742955.51884,681.056631157,650.440501037,66787362.3806,1753.34555145,36808068.8339,68947992.9004,4543.19369647,4534.58364806,0.0
0.977523857714,1.02164815921,9.94495252487e-06,-94861987.1208,1.33788945741e-05,0.0,6030118.53351,681.628265035,642.904124549,67483813.1219,1613.82529441,69790629.1574,70028124.5678,4057.70153337,4051.02109013,0.0
1.20453639392,0.964324816753,9.82773027304e-06,9567940.64392,2.43441338749e-05,0.0,10947767.9644,688.142064739,657.388901612,65504949.7275,1888.36043444,55788807.359,66946685.1451,5000.03057116,4988.7693854,0.0
1.07251505692,0.729271561463,1.00265801763e-05,-32281916.5552,1.82434645224e-05,0.0,5774285.35789,680.011348942,648.89551756,66853323.3064,1723.90067587,35082424.7711,69589927.8969,4452.01000127,4443.45357125,0.0
1.10226653687,0.950617774869,9.98445631761e-06,-21776037.8848,1.75766766725e-05,0.0,5720299.71836,681.873311255,650.969814581,66715997.7297,1763.5206731,37640269.3623,68542719.8655,4575.50839455,4566.67691343,0.0
1.07741656575,1.02837792739,1.03445645161e-05,-29696527.1063,1.53267546543e-05,0.0,5779820.78296,680.135910561,649.360761497,66886983.8879,1731.13413752,35406344.3706,69226928.5458,4472.35616443,4464.00899288,0.0
1.06303971653,0.920741070889,1.0280740076e-05,-36763747.6645,1.55239571616e-05,0.0,5804864.13618,679.289462531,648.339975134,66937855.3225,1711.81297632,34615594.9904,70048011.0411,4412.67786332,4404.36145024,0.0
0.974599978934,1.17977222472,1.02154623603e-05,-94685779.854,1.20782591471e-05,0.0,6035289.05732,681.396563932,642.715321404,67505194.5358,1611.61422162,69635644.6072,69869799.1214,4045.56451255,4039.00584171,0.0
1.10773631359,0.745466875909,9.91548856005e-06,-18221747.8128,2.06620420611e-05,0.0,5627656.08638,682.365665369,651.270438541,66428082.0424,1767.89328844,39572592.7101,68818783.822,4598.21343771,4588.32578372,0.0
1.24046022173,0.940055998857,1.00745647008e-05,17796079.4313,2.86632346116e-05,0.0,19338550.5066,690.307763011,659.638122004,64917088.1812,1929.42809709,62335032.5731,67042544.9603,5149.1503804,5137.14273536,0.0
1.11626048564,0.734646101995,9.4534947578e-06,-16637104.7087,2.11215286665e-05,0.0,5640826.41526,683.140234994,651.799957736,66485093.1443,1779.94768503,40430885.719,69268624.2346,4633.59727589,4623.85475613,0.0
1.11513371735,0.617950001556,9.83115745183e-06,-16195272.5169,2.388565975e-05,0.0,5645194.68875,682.832205222,651.713911269,66503384.0198,1779.72243435,40681296.1014,69233392.3173,4628.92006072,4619.69201346,0.0
1.08928841502,1.1678917682,1.03136440537e-05,-25601745.4913,1.4542968274e-05,0.0,5758488.43989,680.737933231,650.077798494,66825743.5213,1746.57614788,36317338.6085,69181746.1037,4521.63621075,4513.10599046,0.0
1.11764930392,0.919264401238,1.03736986461e-05,-14777084.4419,1.95289508168e-05,0.0,5617757.47542,682.468758737,651.850108366,66401301.7935,1781.72813552,41283529.7986,68654374.3639,4639.36226057,4629.7932814,0.0
1.03348159539,0.985070380565,9.77992469952e-06,-59243714.3618,1.37171758355e-05,0.0,5847089.76945,678.329190553,646.447121711,67018080.0577,1669.63074621,42291064.3816,71059243.1062,4289.98210246,4281.17670981,0.0
1.0892641279,1.03366489454,1.03732985434e-05,-25396457.7388,1.61402081675e-05,0.0,5746754.94241,680.744980931,650.071097504,66791990.0392,1746.63034012,36321802.1992,69109846.7731,4521.53539491,4513.00630379,0.0
1.09718144286,0.787343513397,1.04872113874e-05,-20827223.8751,1.96551057902e-05,0.0,5632063.97657,681.362702192,650.616819588,66415935.5101,1753.98597665,38114044.434,68190646.5184,4554.40016931,4544.60056378,0.0
1.03852417439,0.78907755397,9.77951509286e-06,-55690497.9274,1.58451647628e-05,0.0,5887549.11964,678.533831178,646.783633786,67166620.9928,1680.13082478,40297981.616,71132547.5383,4310.91384789,4303.45791769,0.0
1.01862663778,0.787136196254,9.9558879158e-06,-73913689.4342,1.51554404973e-05,0.0,5931715.34729,677.830058844,645.532087652,67263996.3727,1653.60964105,52386754.5816,70850071.3504,4228.31917342,4221.14672702,0.0
1.14921734933,0.884944059271,1.00179091737e-05,-7346922.65128,2.33630146833e-05,0.0,5568962.71421,684.642489274,653.903765088,66302942.5447,1824.13638037,45841281.453,68621223.3509,4770.40121707,4761.01460037,0.0
1.0439379725,1.06921814874,1.003699491e-05,-49577304.8421,1.34270472526e-05,0.0,5834910.43602,678.537978641,647.111631668,67008477.7726,1684.80430567,37282943.7156,71028274.4927,4333.38652385,4324.78906594,0.0
1.07313436029,1.01289361002,1.00691750087e-05,-31880390.4979,1.49490313923e-05,0.0,5790164.26426,679.882836644,648.923883593,66904665.5952,1724.49272203,35139899.9969,69584321.0504,4454.58072956,4446.01456096,0.0
1.04085577187,0.894406502737,1.00880175735e-05,-51797148.4591,1.49746572187e-05,0.0,5829134.69597,678.426526073,646.913275474,66985138.5869,1680.85073129,38304171.1857,70803012.1769,4320.59230903,4312.04461749,0.0
1.00785245845,0.895563653407,9.96229781069e-06,-88426316.8348,1.46318768719e-05,0.0,5883230.59772,678.068526899,644.828106665,67073708.7352,1635.406889,64214688.9165,70807593.7055,4183.59555503,4175.15923207,0.0
1.18628543282,0.975037652381,9.8129959464e-06,5381026.20888,2.25772691974e-05,0.0,7021488.6342,687.008432295,656.222533708,65692494.0755,1865.71598481,53224499.5092,67020328.8183,4924.27083164,4913.15427366,0.0
1.0219274565,0.915932390168,1.04340996799e-05,-66922541.2616,1.44150665539e-05,0.0,5855117.41473,677.462700287,645.721115554,67041457.2696,1655.48441931,47220919.3551,70739413.7228,4242.02087193,4233.77521326,0.0
0.999648692323,0.825566816848,9.74597936301e-06,-95877650.34,1.48594313634e-05,0.0,5984506.95434,678.815028956,644.327578101,67378944.2913,1627.82355583,70685175.9939,70919045.8414,4149.54172183,4142.63665539,0.0
1.20171173564,0.807775059509,9.78920510021e-06,9188424.32296,2.73848986805e-05,0.0,10634757.9014,688.126033286,657.226839283,65472523.5803,1885.13586124,55503589.7607,66819952.5862,4988.30541464,4977.09707183,0.0
0.998309331598,1.09785081695,1.00874255078e-05,-95521894.2617,1.2615989501e-05,0.0,5915061.07661,678.395779574,644.216021773,67158662.414,1622.5792328,70372043.1267,70785519.3664,4143.98203546,4135.70114603,0.0
1.20223364911,1.0917916045,9.78678214811e-06,8197368.57741,2.16558242935e-05,0.0,9650262.63895,687.9885646,657.259009429,65536154.6396,1885.1517693,54848153.0277,66795618.7063,4990.47187746,4979.03251559,0.0
1.16164726424,0.910528093512,9.43902341514e-06,-3429108.93336,2.31079733698e-05,0.0,5541086.12536,685.82140024,654.75876752,66236602.5386,1839.03849582,48462819.5073,68633616.5636,4821.99779386,4812.18141418,0.0
1.01405798711,0.881956883586,9.63460006472e-06,-82443452.1581,1.43748489944e-05,0.0,5960537.77391,678.139601884,645.245555937,67322934.5717,1647.33573593,59192048.181,70982516.6892,4209.35470449,4202.24701127,0.0
1.01950284047,0.924832684606,9.973170109e-06,-72716886.2841,1.40378058963e-05,0.0,5934955.04136,677.768295631,645.589776563,67278776.7858,1654.71786779,51478410.1277,70933499.2323,4231.95629079,4224.771397,0.0
1.17501745193,1.09872219241,1.01218234491e-05,2495728.04975,2.00749330789e-05,0.0,5421232.15558,686.083106643,655.531575338,65806245.7327,1851.92246611,51239794.9736,67052037.3591,4877.49744296,4866.56620788,0.0
1.23251671768,0.845209083237,1.02737970998e-05,16083120.4586,3.03472548646e-05,0.0,17647367.7345,689.727508899,659.14587708,65034765.3373,1921.02916718,60986846.6789,66704875.1879,5116.17689509,5104.55133942,0.0
1.03009528747,0.98785374591,9.59066547476e-06,-63418882.6783,1.37486137257e-05,0.0,5925856.97075,678.351011526,646.248546737,67270172.5695,1668.72892313,44928239.3879,71062648.2566,4275.92553829,4268.58944069,0.0
1.11159328189,1.21128235152,9.75615610037e-06,-19444535.3281,1.50349218364e-05,0.0,5715093.46097,682.446210868,651.535300745,66721544.7743,1775.10887167,38930938.9528,69023882.4791,4614.22371313,4605.14317132,0.0
0.980238727281,0.980086201852,1.0267889905e-05,-94694218.3768,1.37169700656e-05,0.0,5947484.27641,680.542639461,643.059613738,67229173.4821,1608.85918517,69643033.2344,69880971.1029,4068.97095694,4061.06257626,0.0
1.14366736531,0.83656214739,1.03714430716e-05,-7039718.34895,2.40204383571e-05,0.0,5560022.74803,684.058724893,653.527777601,66246316.9249,1816.41227193,46026022.8129,68461151.7695,4747.3632334,4737.98710009,0.0
1.09456544495,0.911484325252,1.04572459663e-05,-21408426.0984,1.77844760186e-05,0.0,5652997.07127,681.138477879,650.447429831,66491249.6047,1750.2116963,37949987.5782,68135258.8713,4543.54116199,4533.78653139,0.0
0.982580349382,0.888707038053,9.8173644816e-06,-94972352.5227,1.44096085067e-05,0.0,6003012.8874,681.352667965,643.2254405,67402155.6898,1615.66030067,69887752.7144,70127684.9313,4078.69103028,4071.60034191,0.0
1.13444100526,0.89057586035,9.8715540978e-06,-12035966.6432,2.15316398954e-05,0.0,5534005.64445,683.996920548,652.954929951,66168020.5411,1802.05720282,43131030.4727,67453872.0812,4709.06461283,4698.57734107,0.0
1.13831621609,0.955224806397,1.03185791346e-05,-9892171.06678,2.15718365506e-05,0.0,5598023.18859,683.737553996,653.204365993,66382635.5312,1810.12189769,44298476.7747,67994883.8804,4725.15061299,4715.96304967,0.0
1.13697213794,1.03467285617,1.03472558909e-05,-9802407.35635,1.96661724916e-05,0.0,5557918.25546,683.550196237,653.023029403,66242763.9656,1806.05308399,44332092.3475,67953620.938,4719.57134459,4709.57663265,0.0
1.15682522513,0.748354284329,1.00067408171e-05,-4961493.47424,2.70144061266e-05,0.0,5525786.33077,685.303462775,654.454116178,66176244.8915,1833.85759566,47138784.5215,68464302.9548,4801.98150951,4792.47070293,0.0
1.11655722978,0.957232679889,1.02134180534e-05,-15542541.1122,1.86500273432e-05,0.0,5583823.36072,682.512171463,651.749613213,66303314.5984,1778.12011759,40894974.1269,68837519.7651,4634.82906082,4624.51689476,0.0
1.10361415145,0.836550530062,1.00893372783e-05,-21457692.2387,1.94710300467e-05,0.0,5697738.53377,681.940991116,651.051208936,66654219.8891,1765.18266703,37758507.4904,68600102.3446,4581.10234267,4572.24979853,0.0
1.07193097868,1.04139638541,9.79827423729e-06,-33755422.9532,1.44116178726e-05,0.0,5816651.98595,680.056850234,648.906790846,66987407.9951,1723.58276662,34837933.6048,70009752.7155,4449.5854925,4441.2276429,0.0
1.0584185282,1.12691495304,1.00554874485e-05,-39505351.355,1.29899081228e-05,0.0,5833976.16349,679.123470097,648.036129325,67021468.7533,1705.20810697,34806583.6483,69801315.9089,4393.49531056,4385.15757648,0.0
1.16032138436,0.938855569992,1.05992957201e-05,-1175064.09747,2.22540274598e-05,0.0,5434280.71702,685.032858303,654.62767398,65796558.0499,1834.05844259,48745062.1484,67400984.9974,4816.49406648,4805.83268941,0.0
1.03668687502,1.1198016791,9.99273727076e-06,-55489287.7722,1.27129652041e-05,0.0,5900733.97993,678.16821266,646.668480333,67207048.4323,1677.53514826,39981077.7386,71082413.2439,4303.28721821,4295.85635227,0.0
1.01680168926,0.566246845171,1.03111255774e-05,-74208330.4097,1.79027631085e-05,0.0,5902367.26977,677.544332199,645.409161702,67175951.1534,1651.21045483,52591728.9856,70640946.4178,4220.74381212,4213.59754072,0.0
1.17943379199,0.909271706267,1.03868142531e-05,3778042.14953,2.41160164229e-05,0.0,5702128.45776,686.315896363,655.779304869,65623116.2146,1857.48954234,51743345.4157,66886634.8193,4895.82967055,4884.81836689,0.0
1.0378482903,0.812587023962,1.02219971967e-05,-53082345.9323,1.53848007951e-05,0.0,5833591.25022,678.197558487,646.717533667,66996199.7486,1677.24870871,38856868.1456,70926627.9986,4308.10825304,4299.69658951,0.0
1.15155829405,1.0410212774,9.82121638388e-06,-6648443.65186,2.02817352483e-05,0.0,5543050.54046,684.884934737,654.053157052,66216417.9188,1825.17144481,46185845.6274,68787344.1066,4780.1184786,4770.05594618,0.0
1.14156369466,0.850217660219,9.47810645083e-06,-9698193.14608,2.20080317152e-05,0.0,5586313.99184,684.592313977,653.434433602,66352165.9213,1813.23397318,44693915.9359,68043105.9208,4738.63089653,4728.85536912,0.0
1.1960617721,0.978377282482,1.02673182018e-05,7871725.71422,2.38157360394e-05,0.0,9299900.12089,687.398359679,656.866459653,65478566.2727,1877.27032425,54331908.8985,66556445.9791,4964.85241599,4953.56091994,0.0
1.1596827274,1.16357111145,9.87702432586e-06,-3156055.79503,1.78753801414e-05,0.0,5484508.98735,685.333976505,654.600586829,66019529.7761,1833.00141775,48097928.6491,68133969.9739,4813.84300144,4802.97488748,0.0
1.18819312371,1.09761710594,1.03700267783e-05,6069445.45695,2.12598142049e-05,0.0,7556904.02844,686.796266142,656.360741969,65498519.0947,1866.73599997,53034842.2794,66628689.6793,4932.18965652,4920.70647473,0.0
1.04773615222,1.00275829152,9.69837972675e-06,-48864533.3332,1.40117262612e-05,0.0,5829157.22868,679.025890506,647.364798078,66991004.4743,1689.37879879,37158721.5334,70854856.5781,4349.15276787,4340.3165729,0.0
0.992761983814,1.02649436815,9.66690812562e-06,-95414962.9694,1.36440141017e-05,0.0,5991327.7077,680.457429726,643.880837272,67387411.098,1620.75681154,70277459.1885,70522256.1419,4120.95499481,4113.80275487,0.0
1.13886963737,1.12778094195,9.97605457955e-06,-8947986.62961,1.81522884842e-05,0.0,5594433.09815,683.921410481,653.240655532,66366254.417,1808.93840372,45225221.8275,68176952.0373,4727.44786472,4717.70768445,0.0
1.19402618611,1.04899130878,9.9684104934e-06,6266618.57177,2.21855734662e-05,0.0,7864598.70034,687.470260741,656.742373961,65481880.248,1874.2300003,53409444.5419,66650577.7957,4956.40269854,4944.69520304,0.0
1.09121333735,1.00901972345,9.96439252624e-06,-25792900.9916,1.62139382151e-05,0.0,5752373.03487,681.164111663,650.20734742,66813264.4939,1748.87068651,36310116.7565,69271672.1641,4529.62656334,4520.96902923,0.0
0.984483531179,0.967601844011,9.77622722823e-06,-95074627.2672,1.38349555561e-05,0.0,6003533.37762,681.149882851,643.348059328,67406946.2101,1616.35764672,69977748.4151,70218876.2254,4086.59113792,4079.47264738,0.0
1.1060536428,0.992233515342,9.93204264501e-06,-20906086.8322,1.75441818716e-05,0.0,5712148.89127,682.115650183,651.203921549,66698439.7047,1768.39546056,38031134.0507,68739297.0025,4591.22867126,4582.33744219,0.0
1.2777736039,0.948159984837,9.89584117213e-06,24393096.0815,3.16153457265e-05,0.0,26118350.4056,692.758094923,661.957936041,64327137.2972,1971.25778567,67170904.1326,68114984.7243,5304.03822979,5291.14523123,0.0
1.03245212522,1.02661962713,1.00649091299e-05,-58195532.8564,1.34568694813e-05,0.0,5903066.89847,677.973904809,646.399632144,67210424.9466,1671.94834558,41695562.8738,70990958.1145,4285.70877179,4278.33884893,0.0
1.17891636463,0.79577598639,9.61940873764e-06,2550950.1015,2.53381753454e-05,0.0,5378644.60921,686.870549267,655.776929642,65696074.3974,1857.22571059,51400235.7998,66921927.9833,4893.68182958,4882.48169984,0.0
1.10052155729,0.706838889436,1.01530325683e-05,-22146377.4975,2.1275516732e-05,0.0,5693087.25308,681.784605815,650.856658501,66635089.0767,1761.28405781,37416678.8861,68405099.9,4568.26498431,4559.46123891,0.0
1.07342491557,1.10509174206,1.0416373938e-05,-30752126.228,1.42482489937e-05,0.0,5781459.36875,679.80464581,649.081488339,66875786.1509,1725.1279205,35228843.6352,69235390.7581,4455.78682453,4447.30937006,0.0
1.10777223233,1.05583239921,9.8832248598e-06,-20756044.7968,1.69787887454e-05,0.0,5725272.43402,682.215295957,651.314820654,66751282.1166,1771.23693455,38166425.1467,68832904.9136,4598.3625364,4589.64416927,0.0
0.974543125122,0.944244928699,9.62139751169e-06,-94663252.3355,1.41808401385e-05,0.0,6034111.25075,683.229913113,642.711070865,67485460.9781,1617.33977726,69615557.9614,69850169.9922,4045.32851238,4038.43527613,0.0
1.13687694378,1.03091235342,1.04250201136e-05,-10069102.199,2.03396381085e-05,0.0,5604207.81019,683.551049302,653.116473413,66401973.2551,1808.16779338,44144236.8076,67967164.9715,4719.17619363,4710.0114709,0.0
1.2936373518,1.08280284916,1.01438910033e-05,27095803.1721,3.11704386571e-05,0.0,28545567.9991,693.570971275,662.910744201,63984339.8834,1987.60974081,68378768.8495,69509861.7552,5369.88864732,5356.38920406,0.0
1.04421358786,1.10527989284,1.02582452373e-05,-48167989.3301,1.30493901717e-05,0.0,5826421.43689,678.361163958,647.134902975,66982686.5143,1684.96819954,36808969.8553,70647483.0961,4334.53060321,4325.84027889,0.0
0.906720062371,0.923429572045,9.91190369269e-06,-91448008.5557,1.36568341663e-05,0.0,6126758.62064,692.049768278,638.326367719,67668748.1995,1597.48729955,66785496.9878,67668748.1995,3763.7949789,3757.04641799,0.0
1.18226877927,1.12502584369,9.83894155213e-06,3749053.61663,1.98090818834e-05,0.0,5698171.67255,686.684392823,655.971174121,65741219.3105,1860.39940141,52066262.6826,67055611.857,4907.59770275,4896.3385163,0.0
1.05268212136,1.07867185202,9.26021026169e-06,-48094501.0726,1.32553609397e-05,0.0,5839633.69731,679.563809109,647.676900618,67029300.8659,1695.78293986,36885398.27,70683933.2881,4369.68348577,4360.76424114,0.0
1.04487611404,0.989508875227,1.01445541452e-05,-48579136.3244,1.42737663245e-05,0.0,5823370.7152,678.53901195,647.181638276,66975841.9339,1686.12509472,37023874.4201,70845543.585,4337.28074938,4328.66795429,0.0
1.07043579814,1.1420566186,1.03491489e-05,-32429937.5202,1.36664636847e-05,0.0,5798180.56172,679.488221955,648.758019915,66933346.8056,1721.17900852,34978247.7576,69535681.6392,4443.37899808,4434.94809741,0.0
1.227905046,1.27033749213,9.82449306668e-06,14429754.3432,2.07371305499e-05,0.0,15851241.6941,689.426173983,658.874584874,65265494.227,1914.81921184,59665981.9791,66808502.5308,5097.03384595,5085.19955233,0.0
1.07893447192,0.948993901466,9.84856457041e-06,-30562935.4314,1.59123390155e-05,0.0,5790618.35056,680.411258709,649.317110177,66921931.6221,1732.84304197,35408494.2115,69365236.4768,4478.65699294,4470.19079686,0.0
1.15644488712,0.935398342772,1.05749170035e-05,-1887064.33831,2.19697902276e-05,0.0,5434316.45678,684.820860154,654.378001734,65823681.6073,1828.53733401,48439663.2484,67595040.8613,4800.40272644,4789.59036411,0.0
1.1379357944,0.846095914793,9.7952851464e-06,-9920104.5287,2.26164957723e-05,0.0,5615237.43489,684.109886601,653.209344454,66441006.1915,1809.64639418,44696053.8431,67994555.0837,4723.57148255,4714.36619974,0.0
1.06571968919,1.03101263298,9.58381431676e-06,-36620926.8632,1.36947285128e-05,0.0,5796844.49443,680.049436196,648.58072415,66900562.4539,1713.12327625,34626893.1165,70195847.4155,4423.80242983,4414.63554168,0.0
1.06800491552,1.10789267987,1.00100696699e-05,-35248420.126,1.3583053715e-05,0.0,5811558.39938,679.686968586,648.66160881,66959007.0115,1717.87457541,34708292.1906,70059491.298,4433.28840432,4424.80099856,0.0
1.1649729695,0.974421548657,9.61655604341e-06,-852097.149196,2.09018583818e-05,0.0,5448835.32647,685.905056611,654.924708543,65905341.3896,1839.30923597,49710106.8038,67957289.8231,4835.80279639,4824.73932313,0.0
0.981980529266,0.966091492166,9.6489819745e-06,-94964891.0717,1.40941040388e-05,0.0,6015547.9161,682.084547031,643.188926364,67442227.7932,1618.6873044,69881141.3444,70119806.9429,4076.20117698,4069.20163113,0.0
1.11513000096,0.983955902936,1.0043604182e-05,-16008486.4193,1.83266626646e-05,0.0,5668760.00041,682.463126944,651.694351827,66566433.5236,1779.18173636,40778051.0651,69373679.1027,4628.90463399,4619.67675422,0.0
1.2660880469,0.847192973671,9.83052934648e-06,22519297.2278,3.38961532277e-05,0.0,24393546.8173,692.272396015,661.229930012,64346684.7349,1957.97348379,65817781.6666,66743787.6312,5255.53148268,5242.46956527,0.0
1.11332338874,1.02990733551,1.02016471056e-05,-16288356.5577,1.76364143237e-05,0.0,5618915.80723,682.28147949,651.562530595,66403989.783,1774.57912562,40640752.9953,69272929.4894,4621.40538666,4611.4214407,0.0
1.09723949939,0.94978118932,9.81130754409e-06,-23977032.3181,1.71834165311e-05,0.0,5740403.57754,681.654635642,650.602969062,66780735.4351,1756.94229657,36839110.9574,69182470.2693,4554.64116197,4545.88897342,0.0
1.19107080375,0.980821739579,9.98586161549e-06,5710703.92719,2.32130949093e-05,0.0,7267532.39246,687.293315526,656.526913334,65501330.9694,1870.80226235,52990202.474,66723260.291,4944.13490637,4932.50200577,0.0
1.12192674265,0.90362744152,1.01589983181e-05,-14176082.485,2.05302595305e-05,0.0,5655703.10553,682.833850615,652.148932182,66549472.9641,1789.03814599,41840288.4418,68601757.6281,4657.11790874,4648.19080054,0.0
1.11641017308,1.23315185685,1.00956776874e-05,-15492849.524,1.52604204987e-05,0.0,5632995.27425,682.433301366,651.752207213,66448805.6608,1778.51961123,41056376.6073,69189457.2956,4634.21862846,4624.18024288,0.0
1.0532775912,0.976024864614,1.03447611529e-05,-43138399.8995,1.46055807513e-05,0.0,5801669.35178,678.767174235,647.696997735,66917044.3514,1697.65327486,35323204.9494,70348246.9277,4372.15528107,4363.49574552,0.0
1.11565522581,1.05093061993,9.75862090404e-06,-16357755.0424,1.69811618008e-05,0.0,5644185.25009,682.718618005,651.734767224,66492836.8593,1778.12266856,40647692.1711,69353940.7785,4631.08484234,4621.15740011,0.0
1.01306618649,1.25554889818,9.66997329418e-06,-83473435.5697,1.13061547098e-05,0.0,5979363.40567,677.981113105,645.18274078,67380071.8997,1645.81302731,60051584.5418,71253481.7554,4205.23774012,4198.14407091,0.0
1.01821687156,1.20263900754,9.93828590002e-06,-74640649.361,1.16939995684e-05,0.0,5952850.06973,677.713210224,645.506672951,67327124.6393,1652.84571885,52950302.8289,71856610.0502,4226.61823385,4219.45160544,0.0
1.12607754764,0.732003257592,9.65306963339e-06,-13422162.0888,2.26235524143e-05,0.0,5621191.2773,683.554104494,652.40016903,66436816.6943,1793.37377477,42257324.2747,68460237.3718,4674.34790025,4664.81632486,0.0
1.01448775577,1.01783795869,1.00226619414e-05,-78396842.1765,1.32740784813e-05,0.0,5944013.14938,677.655379321,645.272858533,67276737.882,1647.57965702,55902293.5101,70927236.4598,4211.1386742,4203.93659782,0.0
1.11123414359,0.957063586906,1.0222640209e-05,-17044024.7852,1.86262619977e-05,0.0,5603691.63505,682.218139884,651.442894889,66345759.7592,1771.42585148,40161091.7116,69066803.7443,4612.73293004,4602.59298463,0.0
1.08158159662,0.997493893561,9.93078923231e-06,-29235576.518,1.56261823056e-05,0.0,5779170.42033,680.688180902,649.63176192,66880493.8331,1736.27893937,35645525.7385,69344507.5167,4489.64520757,4481.13791039,0.0
0.958200974527,0.796476990153,9.68798360559e-06,-93924560.0993,1.50918367318e-05,0.0,6050492.9433,685.48265244,641.65479873,67502344.6073,1612.70075205,68965255.9124,69190356.804,3977.49224526,3970.59348531,0.0
1.07856721414,0.914844063695,1.0003002951e-05,-30125948.1732,1.63662265668e-05,0.0,5778850.482,680.480562371,649.423190453,66875928.8124,1732.38649714,35455259.8016,69313316.3546,4477.1325059,4468.67200566,0.0
1.13877629245,0.960483185577,9.83771652932e-06,-8939274.32912,2.04658982755e-05,0.0,5557985.3253,684.140519619,653.236955967,66244652.0959,1807.9653655,45241834.1667,68070417.6209,4727.06038996,4716.91181205,0.0
1.14294595692,0.664257493599,9.73047036723e-06,-7991977.31893,2.59460358469e-05,0.0,5525161.04585,684.491846983,653.381847065,66152749.0617,1814.0200617,45831898.2176,68267161.2396,4744.36866717,4734.25177363,0.0
1.16351788511,0.849775716971,1.00015788447e-05,-654791.614458,2.34214972735e-05,0.0,5426077.21921,685.667203809,654.828673709,65830673.5823,1837.75798448,49535811.0799,67688709.4534,4829.76274109,4818.82640712,0.0
1.15596863314,0.935063077003,9.88541677761e-06,-5474908.09272,2.28185625159e-05,0.0,5550553.4729,685.149470682,654.35419143,66242997.695,1832.44213831,46948905.1337,68602948.009,4798.42579616,4788.83436944,0.0
1.1219859025,1.07486028709,1.01990435249e-05,-13614378.2288,1.7624814152e-05,0.0,5618245.28638,682.777571521,652.132822966,66419179.5675,1786.73566071,42174262.7626,68059422.8664,4657.36348128,4647.62369596,0.0
1.07228130296,1.12848251219,1.02640270647e-05,-31939139.6472,1.38548098961e-05,0.0,5796264.73484,679.648670136,648.86827117,66929575.644,1723.6261636,35096567.9709,69492802.1749,4451.03968859,4442.58081457,0.0
1.17186566467,0.713894803455,1.05183976401e-05,2508024.76389,2.79772614857e-05,0.0,5325399.26795,685.989110067,655.309598808,65466669.6056,1847.33733177,50940900.0465,66779866.9923,4864.41437405,4853.13600008,0.0
1.08829968393,1.07038608379,9.79015869565e-06,-27313439.7001,1.51137908632e-05,0.0,5772222.30402,681.136179061,650.061264894,66866364.5887,1745.00928644,36051776.2569,69402481.1729,4517.53198799,4508.91390685,0.0
1.19572065341,1.00645864146,9.97137841444e-06,7333102.91013,2.29019349908e-05,0.0,8766797.42061,687.551684324,656.866869506,65554225.051,1877.11133061,54101008.2164,66625983.8472,4963.4364323,4952.13072447,0.0
1.09550768689,1.12895356702,1.01467388133e-05,-23845393.6832,1.51614340299e-05,0.0,5741082.56589,681.254983334,650.501276297,66773741.4667,1754.35621593,36834760.6042,69021591.9327,4547.45240828,4538.72754386,0.0
1.09627419384,1.16578087186,1.04812251534e-05,-22322665.5826,1.49629898154e-05,0.0,5711186.98279,681.09166111,650.572913891,66671560.3785,1754.39174722,37376467.4081,68380398.2074,4550.63417863,4541.6023173,0.0
1.17769121318,1.08195822415,1.00851962035e-05,1842944.32867,2.1901507942e-05,0.0,5450705.05439,686.310897037,655.712787125,65918259.0968,1857.71379859,50881844.8982,66998311.4575,4888.59622591,4878.29238376,0.0
1.13330541044,0.772027511671,1.00572516606e-05,-10604677.1253,2.35880414307e-05,0.0,5604685.77005,683.706513292,652.910449134,66401625.3911,1803.3889894,44152817.732,67746452.7033,4704.35075874,4695.14060901,0.0
1.06931195011,0.790148924945,1.054810786e-05,-33022209.8055,1.77454620023e-05,0.0,5780104.03422,679.586948776,648.815220888,66883629.3949,1720.92439546,34752176.7998,69441382.6618,4438.71390491,4430.58559974,0.0
1.07905639697,0.908640879944,1.04718254306e-05,-28461423.58,1.69237118759e-05,0.0,5750470.80878,680.207477984,649.47297371,66790425.6356,1732.6718932,35532923.6347,69123230.9381,4479.16310382,4470.59915664,0.0
1.2601207364,0.964156917003,9.67167343092e-06,21119407.5095,2.94260803005e-05,0.0,22985354.1932,691.790057794,660.836457709,64588370.5654,1951.46043831,64928385.2767,65761485.6019,5230.7611768,5217.92955917,0.0
1.01939960574,0.873464504532,1.06722774437e-05,-67229989.0165,1.45954541105e-05,0.0,5850100.91726,677.169772689,645.553194948,67022361.994,1652.16405773,47427027.7376,70580079.6809,4231.52776343,4223.32224213,0.0
1.23786891628,0.928971548888,1.01365655909e-05,17455515.247,2.89621290469e-05,0.0,19039952.5412,690.085820563,659.493287043,65026995.8962,1927.15884658,62106326.5215,66979058.9984,5138.39387148,5126.75927966,0.0
1.13686325734,0.942673389383,1.06744138019e-05,-9428549.4086,2.20073619196e-05,0.0,5584656.96682,683.405781238,653.088521227,66307053.5932,1808.11737258,44349363.7926,67983904.7121,4719.11938122,4709.95487558,0.0
1.12267071366,0.94491161304,1.02735225373e-05,-13774569.2563,1.95081012338e-05,0.0,5606691.13129,682.840866159,652.180164621,66374749.0294,1788.07387157,41952030.4086,67927933.0921,4660.2061324,4650.55412419,0.0
1.08177464193,0.839229107455,1.00378101049e-05,-28804936.4701,1.75351004003e-05,0.0,5763751.04599,680.697218076,649.651922187,66835073.2567,1736.65397278,35682439.577,69274866.2642,4490.44653865,4481.93624092,0.0
1.09942465769,1.06584054396,1.03594644887e-05,-20114834.6312,1.6189329918e-05,0.0,5654966.87112,681.40740234,650.762866611,66489204.0675,1756.33462878,38484307.6573,68994216.5762,4563.71175407,4553.87340931,0.0
1.14073752611,0.891811186007,9.47918919405e-06,-9996350.17546,2.15609059284e-05,0.0,5526931.34352,684.606462511,653.356331595,66154033.1563,1809.74792334,44500637.8507,67893514.7562,4735.20147088,4724.5277858,0.0
1.22043079374,0.827878053961,9.87250870432e-06,12819448.2286,2.86099094912e-05,0.0,14070699.9047,689.290518738,658.386256455,65108230.2299,1906.47424984,58259606.8093,66330184.2984,5066.00822481,5054.06331804,0.0
1.13467241817,0.834480684861,1.04476155279e-05,-10556191.0464,2.32824180065e-05,0.0,5594368.04923,683.520816393,652.998634674,66368011.4819,1805.54368122,43881556.6233,67810283.0589,4710.02520782,4700.89542491,0.0
1.07719207801,0.894146525829,1.01642985565e-05,-31230219.5326,1.68593651349e-05,0.0,5781227.19312,680.298097176,649.337794059,66895052.734,1731.19574965,35107760.8928,69238400.0059,4471.42431582,4463.17809375,0.0
1.08636148339,0.770277289062,1.00914453704e-05,-26972270.0708,1.88783519943e-05,0.0,5743635.81001,680.93897513,649.93243519,66781036.5236,1742.71934346,35955852.2128,69227878.8046,4509.48651755,4500.90479785,0.0
1.10577077258,0.817574209301,1.04026652312e-05,-17703552.2584,1.9776169199e-05,0.0,5648432.53481,681.816755059,651.1420625,66494815.7317,1766.2391724,39698484.7646,68821762.1064,4590.05447698,4580.6844113,0.0
1.07702029923,1.1397468048,9.91389002363e-06,-30329953.2286,1.33726121852e-05,0.0,5772202.63221,680.207845323,649.179508936,66846100.7801,1728.27674886,35353638.565,69499863.9153,4470.7112621,4461.53942233,0.0
1.10645358308,0.891431841354,9.87467823554e-06,-18743893.4619,1.83871007378e-05,0.0,5648699.90862,682.232536773,651.197851455,66489127.1976,1766.06330967,39274394.4096,68788937.0734,4592.88882337,4583.02231073,0.0
1.06772514729,0.923506058043,9.62104175005e-06,-35047656.3036,1.50444525778e-05,0.0,5794387.81774,680.041759791,648.631854719,66891223.2389,1716.28332843,34631350.3752,70393703.7805,4432.1270864,4423.10861694,0.0
1.08161610309,0.818304270647,9.7736930775e-06,-29676679.9796,1.76017109384e-05,0.0,5773606.37457,680.863712493,649.624189807,66871874.4664,1736.45471919,35620552.1041,69353192.586,4489.78844393,4481.28061043,0.0
1.02713282889,1.15955357193,1.04541914173e-05,-61173302.3661,1.2053106186e-05,0.0,5839093.4402,677.464627956,646.039634981,66999678.3643,1660.93079803,43366847.0278,70553972.4766,4263.62837272,4254.78964,0.0
1.13339756461,0.782869763966,1.02093779002e-05,-10866884.8451,2.30838670723e-05,0.0,5553135.37466,683.584098748,652.814909492,66219128.211,1801.83818373,43713596.5654,67605573.3549,4704.7332907,4694.79932977,0.0
1.25826089275,0.871213786726,9.99552182343e-06,21139961.1784,3.25042231033e-05,0.0,23037993.258,691.620106856,660.721520852,64486839.5494,1949.00416918,64909389.1096,65739848.2039,5223.04096581,5210.2438885,0.0
1.22294156848,1.01006360727,1.00281805248e-05,13417844.5682,2.53380120714e-05,0.0,14699629.4134,689.225721032,658.542000132,65084958.8573,1908.4001766,58746239.3663,66472757.7726,5076.43045076,5064.30025991,0.0
1.02261510461,1.03729430536,1.00052453385e-05,-68626613.2643,1.31255144744e-05,0.0,5930967.61401,677.749029836,645.784910354,67275091.3187,1658.79795284,48471108.7824,70918890.7209,4244.87529924,4237.64611808,0.0
1.13381644663,0.883645030103,9.81693701468e-06,-11172130.4733,2.12141549202e-05,0.0,5598129.7483,683.884286437,652.931375413,66365667.3217,1803.06875466,43672732.4343,67599913.4489,4706.47206996,4696.81103071,0.0
1.21492520772,0.801486646474,9.82528796844e-06,11957694.6276,2.86615491121e-05,0.0,13236519.4203,688.910166289,658.018299249,65256623.3864,1900.71570864,57568924.3835,66312012.0418,5043.15453725,5031.61899532,0.0
1.15739604425,1.22657507177,1.00096331104e-05,-3557167.9695,1.8458482991e-05,0.0,5554996.75969,685.057082284,654.483268082,66251434.674,1832.98450368,48086612.4311,68530258.7338,4804.35097968,4794.61813193,0.0
1.02656063824,0.746643031375,1.00915475018e-05,-63836751.5565,1.57704053451e-05,0.0,5853694.1602,677.953542219,646.010189741,67038061.0535,1661.95686172,45125455.7104,70842666.1751,4261.25320933,4252.93335825,0.0
1.10147357127,0.967212371436,1.01940972082e-05,-21858584.34,1.77589368872e-05,0.0,5709557.10577,681.679818512,650.918359818,66688098.4439,1762.27025436,37591104.3589,68533817.0886,4572.21679434,4563.39803862,0.0
1.15631479219,0.845410330903,9.68306667192e-06,-2816050.99994,2.23663238183e-05,0.0,5508662.68508,685.177388621,654.268954164,66091127.0547,1830.06441263,48753429.1006,68458965.9589,4799.86270238,4789.47063584,0.0
1.12902701482,1.15511856096,1.03707373087e-05,-13141392.1397,1.76921775887e-05,0.0,5544338.75782,683.183129184,652.591608011,66194799.8553,1794.30939432,42369211.702,67202391.3288,4686.59113852,4676.02853554,0.0
1.21037735482,0.917899894101,1.01672922875e-05,11061449.4687,2.62405365094e-05,0.0,12317250.7463,688.368264685,657.701767257,65199275.69,1893.67622471,56775730.8087,66307113.1381,5024.27639986,5012.38751073,0.0
1.2408403132,1.02441468706,9.78941922534e-06,17353530.8292,2.63359520072e-05,0.0,18905857.3978,690.39335278,659.596669919,64853288.7115,1928.77120693,61928237.2946,66918813.505,5150.72814009,5138.13981151,0.0
1.02739011462,1.01558491229,9.70371146345e-06,-65661725.8452,1.34328852811e-05,0.0,5929823.64466,678.16885693,646.086374824,67277685.3549,1665.13235029,46415052.9458,71091013.881,4264.69636579,4257.39901114,0.0
1.09012728747,0.732175824214,9.90946349466e-06,-26263406.0663,1.96340579179e-05,0.0,5737343.22557,681.287371201,650.155276551,66764672.3809,1747.69351837,36187645.9447,69258287.5636,4525.11837029,4516.47783035,0.0
1.03692898873,1.01617511239,1.05763441143e-05,-51421825.8623,1.39387622792e-05,0.0,5816721.90285,677.783195613,646.649875875,66950799.7501,1674.98395129,38128548.2093,70595859.2187,4304.29223222,4295.63237126,0.0
1.23282575887,1.02926101267,9.88989016099e-06,15944499.2874,2.564894195e-05,0.0,17389059.8951,689.830321525,659.198607588,65171048.4692,1921.35522381,60905803.8746,66864821.3003,5117.45972507,5105.82080864,0.0
1.07044652394,0.985914577068,1.0048166465e-05,-33978269.4806,1.50337876713e-05,0.0,5795961.20959,679.827766273,648.803084269,66916302.1996,1721.16756661,34802675.9825,69789212.9005,4443.42352087,4434.8978206,0.0
1.14751293671,0.807355318925,1.00381064132e-05,-7298048.85314,2.40043961321e-05,0.0,5510935.20207,684.520366034,653.681679992,66106113.805,1819.79657051,45767975.5171,68530069.4539,4763.32620028,4753.12719464,0.0
1.0666069359,0.885180657582,1.002696084e-05,-34965598.518,1.59663649124e-05,0.0,5800271.36134,679.672605015,648.570916329,66921785.4869,1716.00336751,34700010.9746,70061319.5158,4427.48539092,4419.02017414,0.0
1.09401450653,0.756379758982,1.03614966891e-05,-23790875.0131,2.0119955768e-05,0.0,5714113.33492,681.189137895,650.408774262,66697580.5008,1753.06822778,36779120.0408,68850048.5925,4541.25421661,4532.65143064,0.0
1.1564458805,0.892127676783,1.01573090899e-05,-1967512.02004,2.22046690305e-05,0.0,5491644.9494,685.041841569,654.402489446,66021922.8624,1830.14335358,48928920.3472,68091526.8469,4800.40684996,4790.12967276,0.0
1.14209446401,1.05983002366,9.98313348196e-06,-7496369.7611,1.94472173496e-05,0.0,5535507.82179,684.122520845,653.38569361,66166737.0238,1811.32729068,46181688.1906,68504804.7572,4740.83412011,4730.46910551,0.0
1.04718685518,1.04305043978,1.04078386037e-05,-45984712.4906,1.38035293931e-05,0.0,5809355.64678,678.396410291,647.314258604,66938669.8349,1688.98795013,36154387.3838,70287006.4037,4346.87263585,4338.13378319,0.0
1.05709154642,0.940917246505,1.02429104954e-05,-39699776.0301,1.49704964424e-05,0.0,5821557.49239,678.980849139,647.947898328,66978015.2521,1703.86393118,34817012.0594,69652630.7156,4387.98700919,4379.76384955,0.0
1.18139605117,1.18701455802,9.86450408361e-06,3701379.80333,1.89369496491e-05,0.0,5735052.3402,686.551167288,655.934266437,65883336.3902,1860.57702594,52057797.6278,67167667.8793,4903.97500841,4893.21084514,0.0
1.10675481957,0.801379835936,1.00614564754e-05,-20362259.9986,2.01993122681e-05,0.0,5688776.16715,682.154638906,651.237470505,66631288.7672,1769.44353637,38246038.8126,68711696.2627,4594.13925604,4585.23692777,0.0
1.03784587329,0.991850297154,1.02954758126e-05,-53180205.7308,1.38536417344e-05,0.0,5885854.5396,677.986494884,646.739610458,67169109.4942,1679.55971988,39010012.0733,70807233.119,4308.09822003,4300.7427147,0.0
1.09027217474,0.85834325026,9.89105712986e-06,-25516400.2867,1.7486394251e-05,0.0,5707106.67776,681.288613135,650.14787774,66656280.3355,1745.77955693,36353600.5287,69194706.1776,4525.71979735,4516.30879882,0.0
1.08092002495,0.738111211624,9.80560193543e-06,-29843640.217,1.86597070685e-05,0.0,5772657.53819,680.652779694,649.450571125,66869139.0628,1735.61701772,35557292.4683,69337067.3525,4486.89902357,4478.40200606,0.0
1.22046792469,0.932307260965,9.95222108647e-06,12889843.3463,2.64890226735e-05,0.0,14120749.8645,689.166132921,658.383097067,65098103.6591,1905.74098893,58291121.3595,66387606.6603,5066.16235539,5054.07843792,0.0
0.985216320899,0.864441808826,1.02666317275e-05,-94881801.1443,1.45958207113e-05,0.0,5929703.07308,679.836779432,643.378860683,67183651.5628,1609.78620641,69808369.5149,70049648.5083,4089.63294805,4081.64287268,0.0
1.10108453554,1.01486896633,9.52071242758e-06,-23424319.7862,1.64528359074e-05,0.0,5740979.6768,682.071253765,650.871002466,66790974.8681,1761.59458236,37149425.5329,69376680.5736,4570.60190703,4561.68934683,0.0
1.09960378056,0.886262754749,1.01377795434e-05,-22525839.3414,1.84899373104e-05,0.0,5711568.84826,681.645373452,650.796871503,66689909.9406,1759.90368182,37274907.0258,68506264.3332,4564.4552931,4555.66600834,0.0
1.16057935156,0.829380917802,9.82384272445e-06,-2871204.13989,2.32673621507e-05,0.0,5445708.97345,685.643348371,654.656294025,65900573.0728,1834.60787008,48212734.623,67754304.8494,4817.56488833,4806.68075444,0.0
1.16787051553,0.915473893044,1.01356318859e-05,1054968.09281,2.25349738242e-05,0.0,5412312.18496,685.778513076,655.096802546,65773093.8275,1842.78373319,50357074.9443,67426752.4048,4847.83050996,4836.82211574,0.0
1.21498090696,1.027583676,9.87949217476e-06,11922231.4273,2.40137971715e-05,0.0,13199228.7234,688.700984759,658.024198239,65348688.6908,1900.30127591,57560672.1534,66418137.6651,5043.38574479,5031.8489873,0.0
1.18360416121,0.848886899541,1.05040679222e-05,5486496.59252,2.58259910525e-05,0.0,6986136.95749,686.572927986,656.065530009,65500818.447,1862.25000625,52644727.1259,66629509.7366,4913.14087318,4902.05920362,0.0
1.04276208382,1.04670140152,9.80607815429e-06,-51004927.7938,1.34070630282e-05,0.0,5837140.04676,678.771821622,647.098579694,67011220.4241,1682.76115233,38013422.0643,71019151.7021,4328.50540994,4319.75103449,0.0
0.97260605153,0.804090728813,9.67325683903e-06,-94549962.4737,1.51874270108e-05,0.0,6030660.35078,683.415520548,642.586095884,67472412.2258,1616.49328872,69515857.913,69749153.5343,4037.2877199,4030.4222624,0.0
1.03018974474,0.619728047911,9.81748783855e-06,-60991660.3271,1.72190976895e-05,0.0,5896902.91036,678.28431983,646.269719674,67183429.0982,1669.13307038,43266442.586,71021267.7501,4276.31763042,4268.98017845,0.0
1.11326623591,0.821313135655,1.01339206081e-05,-16250209.0653,2.02226354696e-05,0.0,5637057.40062,682.389707679,651.572951366,66466585.3836,1776.00388731,40587087.211,69264514.0079,4621.16814526,4611.67334436,0.0
1.15319758442,1.01386494756,9.88432508069e-06,-7282843.66894,2.13719471649e-05,0.0,5468985.33731,685.080280408,654.14724334,65989090.4172,1825.40381234,45655699.2544,68352758.7243,4786.92317293,4775.99881443,0.0
1.07956910748,0.86861747028,9.66588137682e-06,-30056702.7495,1.63389989081e-05,0.0,5752571.29245,680.772081395,649.435093815,66787205.6383,1731.83941746,35438508.3282,69461742.7007,4481.29136515,4472.07728999,0.0
1.14913801543,1.03883085104,1.00385063013e-05,-7406114.41685,2.07660330038e-05,0.0,5582132.249,684.543316856,653.899127902,66342947.5497,1823.860233,45870726.6301,68665032.279,4770.07190205,4760.68655741,0.0
1.11525741469,0.913656423798,9.58420970456e-06,-16711813.2548,1.85807457985e-05,0.0,5655371.27514,682.889932006,651.736063304,66517809.9395,1778.40947162,40403200.3653,69272378.1391,4629.43352838,4619.70796917,0.0
1.19289479921,0.863239041896,9.55380718951e-06,6162892.21056,2.49468795696e-05,0.0,7773688.97341,687.703096026,656.644621158,65576426.0963,1873.88362901,53653075.5143,66872318.8479,4951.70631152,4940.24993879,0.0
1.20042320469,1.14336340978,1.00868399122e-05,8194354.46161,2.1038892242e-05,0.0,9598331.52901,687.664504189,657.138973395,65516606.5588,1882.61419794,54761848.28,66736137.9174,4982.95672267,4971.5773766,0.0
1.01993723801,0.836168205852,1.01176261414e-05,-70648418.9592,1.50325921199e-05,0.0,5865113.65085,677.76955551,645.596820571,67058511.8096,1652.64687214,49917707.0442,70911804.8587,4233.75947498,4225.46010311,0.0
1.21653360572,1.05552630412,9.89122465858e-06,11914744.7447,2.36263170186e-05,0.0,13171793.5715,688.814093497,658.124524629,65291113.0394,1901.69171369,57571600.9691,66346275.9682,5049.83099734,5038.04119077,0.0
1.14881157412,1.05788405652,1.02714796236e-05,-6937894.96693,2.0688928337e-05,0.0,5573320.86621,684.391431871,653.899687962,66319112.1851,1823.30322527,46018354.864,68683551.2749,4768.71684417,4759.33505536,0.0
1.0802761285,0.982193895727,9.72058451035e-06,-30473913.5553,1.55710476534e-05,0.0,5794420.30744,680.567368554,649.40584968,66933504.5067,1734.57254075,35460752.6888,69405441.3618,4484.2262094,4475.73919204,0.0
1.10496924821,0.920525087705,9.591873076e-06,-21927421.1291,1.7945077049e-05,0.0,5719695.45447,682.325632987,651.146593494,66721402.6792,1766.74214886,37675240.3769,68627801.1733,4586.72734932,4577.75288149,0.0
0.986685050249,0.843954631003,1.01020572051e-05,-95202469.22,1.45262657132e-05,0.0,5983202.99465,679.6769405,643.488209044,67350749.5249,1612.10528349,70090483.1134,70332228.5672,4095.72964358,4088.66912953,0.0
0.986042341064,1.00953861073,9.84666884018e-06,-95064082.0232,1.35252536729e-05,0.0,5947123.41145,680.623861418,643.433426701,67236779.298,1612.66970177,69968723.1751,70211614.5512,4093.06175776,4084.97921015,0.0
1.01331128848,0.873135884214,9.7965093975e-06,-81801894.5045,1.43973503083e-05,0.0,5955670.82801,677.939561958,645.198164709,67309623.4996,1646.36795121,58665159.4173,70892392.7186,4206.25515848,4199.15802464,0.0
1.09279420388,1.03750974293,9.99346241423e-06,-25195175.5471,1.59776873548e-05,0.0,5748866.15403,681.205732331,650.29390121,66805280.015,1750.90766475,36477046.3732,69196980.0153,4536.18874031,4527.50644489,0.0
1.07702231738,1.01611014342,1.01351020383e-05,-31448284.2837,1.54164183755e-05,0.0,5790775.95162,680.258655875,649.324694981,66923791.8689,1730.88653645,35101924.4741,69258558.9725,4470.71963944,4462.47599752,0.0
1.0771144211,0.809227472749,9.56530623345e-06,-32326203.6241,1.72475575819e-05,0.0,5797540.6056,680.55677608,649.191086109,66934612.7159,1730.53684266,35068307.1286,69842940.7898,4471.10196199,4462.66397786,0.0
1.21783914072,1.19076930017,9.58640584779e-06,11795009.8762,2.11649817064e-05,0.0,13111162.49,688.996215313,658.197482478,65302849.8765,1902.47465261,57543483.3721,66407516.8123,5055.25027313,5043.09917242,0.0
1.17851551523,0.970226621733,1.00552229458e-05,3054186.64482,2.24786391702e-05,0.0,5387681.33385,686.43942885,655.741105695,65698460.9818,1856.29833996,51496565.0717,66957770.5615,4892.01790372,4880.91716464,0.0
1.17313945709,0.989657663541,1.0235028305e-05,2301984.65667,2.19642996547e-05,0.0,5409214.35996,685.968740535,655.409374781,65769597.8689,1849.66808304,51060043.5682,67015119.5862,4869.70188638,4858.80398338,0.0
1.14003777102,0.776453067571,9.90288216793e-06,-9039029.6563,2.41733664262e-05,0.0,5588540.80602,684.203020991,653.324399186,66357097.6084,1812.03570487,45169792.9686,68103248.4261,4732.2967875,4722.95258013,0.0
1.05142705061,0.958192609853,1.00638623721e-05,-44080110.8097,1.46613490911e-05,0.0,5810364.10634,678.872006384,647.586558888,66941195.3278,1694.56474723,35586831.5055,70485737.7222,4364.47368708,4355.72294091,0.0
1.07700428641,0.930074904325,9.73429598725e-06,-31810765.4645,1.59174172758e-05,0.0,5798956.19913,680.383238625,649.187715268,66941795.9347,1730.31517008,35170314.6775,69723417.2397,4470.64479289,4462.20851468,0.0
1.10727252947,1.28871935223,9.83063011969e-06,-20593367.3087,1.40142831388e-05,0.0,5728654.5125,682.129132004,651.276996184,66757596.2984,1769.42519642,38312200.0089,68848629.8844,4596.28826983,4587.27684256,0.0
1.15391295173,0.926656374636,1.00672444901e-05,-5945217.27365,2.31476747145e-05,0.0,5553360.69372,684.907688965,654.223600565,66259638.9473,1830.01577189,46652687.0924,68590945.6066,4789.89266263,4780.4289415,0.0
1.05982126348,0.905336874726,9.77728527672e-06,-42202700.9276,1.55682646986e-05,0.0,5789415.10994,679.559698704,648.094441971,66888891.2214,1705.54567148,35138048.4611,69620750.2104,4399.31806471,4390.28040642,0.0
1.13785201861,1.0293351067,9.82158618081e-06,-10194280.5909,1.94097484835e-05,0.0,5596839.64616,684.052876098,653.190753544,66369512.1039,1808.0821942,44358103.0792,67920864.4738,4723.22372925,4713.49563531,0.0
1.00583655214,0.980630087793,1.04564724957e-05,-85734614.8787,1.39497841637e-05,0.0,5875715.1005,677.385221317,644.688109576,67057043.4019,1632.95351008,61918456.7972,70578010.315,4175.22752793,4166.90730721,0.0
1.16611377319,1.03986659239,9.87344097239e-06,-141531.780089,2.01659462543e-05,0.0,5446209.63825,685.759711984,654.992363708,65892366.8866,1840.69908717,49954483.6588,67781479.131,4840.53827251,4829.55725625,0.0
1.17423715589,0.84854959693,1.00712720955e-05,2189241.73003,2.45308490566e-05,0.0,5362579.27791,686.287217625,655.47144011,65617881.147,1850.37375033,50987036.4429,66930797.5135,4874.2584341,4862.923462,0.0
1.1478426778,0.907023744327,9.56114462848e-06,-7252563.38234,2.1693458766e-05,0.0,5535607.15754,684.840534873,653.760387708,66184637.3078,1819.79406322,46239544.2879,68635900.5579,4764.69495555,4754.40039691,0.0
1.15516790483,0.959284486414,1.02447677848e-05,-5142113.71881,2.29107387079e-05,0.0,5541186.66757,684.925022533,654.346030801,66227414.5854,1831.47495106,46902688.5427,68445089.1995,4795.10197295,4785.61805195,0.0
1.0666477714,0.836967257912,9.72576635699e-06,-36928401.1026,1.62904048519e-05,0.0,5808500.47888,679.933383497,648.572563691,66952551.3915,1716.28815803,34678653.2634,70224748.5733,4427.65489908,4419.18874848,0.0
1.04366876255,0.985047195196,9.51477882802e-06,-52407016.7964,1.38700639019e-05,0.0,5891146.40296,678.872708,647.097122521,67177456.9882,1686.39113725,38684124.6251,71060020.4308,4332.26903335,4324.55349719,0.0
1.1126094695,1.00228953424,9.94884605607e-06,-18776504.9557,1.80412451817e-05,0.0,5692276.31846,682.450780912,651.586494598,66656469.9847,1776.77304743,39198255.777,69047586.555,4618.44190789,4609.44464534,0.0
0.998403727849,0.796069796823,9.71305184306e-06,-95839468.7932,1.50969861235e-05,0.0,5987558.13769,679.015995801,644.250166728,67385561.3668,1626.14911881,70651200.6902,70927742.5185,4144.3738743,4137.48619228,0.0
1.09494871232,0.956802555436,9.78633489475e-06,-24848687.4031,1.68917834598e-05,0.0,5748398.89927,681.509228239,650.431810519,66802885.8925,1753.94715736,36628481.3842,69267405.214,4545.13210484,4536.41590626,0.0
1.21633490487,0.879960499799,1.0391687521e-05,12703317.6916,2.78806504773e-05,0.0,13919811.8624,688.68643473,658.118427072,65070029.3584,1900.68745644,58065079.477,66320712.2561,5049.00619012,5037.11909495,0.0
1.12868162712,1.06139484341,9.9714235152e-06,-12310061.4374,1.81685223353e-05,0.0,5607586.43537,683.263391575,652.501066823,66392633.1437,1795.39649798,43042787.2741,67336336.0435,4685.15743418,4675.30461409,0.0
1.00244855641,1.04840279119,9.92290302625e-06,-95953899.2062,1.31749842281e-05,0.0,5907679.86189,678.396737755,644.481221023,67140021.4911,1628.08148401,70751166.9147,70751166.9147,4161.16395766,4152.81570504,0.0
1.01212555456,1.04589815377,9.92597261175e-06,-82016808.0125,1.28962180627e-05,0.0,5961628.2953,677.721643918,645.117585309,67327608.6556,1644.72224303,58835689.3202,70874867.4841,4201.33317698,4194.25279733,0.0
1.16643170257,0.808965133963,9.86073784911e-06,26755.528419,2.42976086176e-05,0.0,5416420.379,685.95466646,655.011656175,65800424.535,1841.45203767,50029364.4758,67693108.2163,4841.85799737,4830.87127784,0.0
1.08702661075,1.08909995515,1.00850501714e-05,-26867291.1247,1.49734309396e-05,0.0,5764722.36677,680.84146811,649.973449837,66846790.4639,1743.32596637,36022835.8745,69286148.7327,4512.24746122,4503.65536448,0.0
1.1050821423,1.20187490467,9.92203719683e-06,-21298910.1327,1.48605848075e-05,0.0,5729808.53637,681.980516483,651.14863673,66751626.1426,1766.95804707,37932297.8691,68740831.3288,4587.19597269,4578.32011255,0.0
1.05536472128,1.24379526734,1.00777450822e-05,-43098657.7379,1.24453496504e-05,0.0,5799158.30867,678.945440035,647.808616778,66910763.4337,1698.64348108,35321687.6507,69659528.8563,4380.81895803,4371.67943534,0.0
1.14321272593,1.08352588444,1.002406115e-05,-8722473.18338,1.90497735707e-05,0.0,5554048.57201,684.180143132,653.466746018,66230685.8179,1814.04624119,45098007.5689,68326144.7305,4745.47602534,4735.34914621,0.0
1.11555166864,1.19341671081,9.87477318985e-06,-16297672.5272,1.5494163584e-05,0.0,5691442.00314,682.514051571,651.734965538,66648133.0386,1779.58874267,40699577.229,69415710.8499,4630.65497652,4621.4211923,0.0
1.00602209685,1.10788202281,9.60281089062e-06,-93969051.6523,1.23527357196e-05,0.0,5930623.70214,678.531089089,644.716723794,67201825.5445,1633.23170312,69013758.6512,70971157.462,4175.99772402,4167.80778473,0.0
1.12305969649,0.939962508505,9.76285505177e-06,-14114064.7105,1.92624505414e-05,0.0,5647395.40325,683.166085854,652.202675371,66517318.6751,1789.29631672,41772182.0176,68832045.1847,4661.82080013,4652.36366811,0.0
1.22074188646,0.824095451778,9.91514041327e-06,13073221.6108,2.87752135346e-05,0.0,14346166.3584,689.277949284,658.407750154,65112200.3591,1906.78530624,58445597.6347,66374700.4052,5067.2995707,5055.40710513,0.0
1.12005902613,0.813679675385,1.00173517158e-05,-14512462.4083,2.09748293865e-05,0.0,5586544.8819,682.948979841,651.988265106,66310480.0618,1783.68599304,41491134.7036,68367411.0246,4649.36501747,4639.26333007,0.0
1.0763675157,0.743889607366,1.04506336992e-05,-31378482.7245,1.89380572427e-05,0.0,5680013.18865,680.240894675,649.258912748,66564771.2623,1726.8339536,34865512.792,68837880.3268,4468.00155767,4458.35961184,0.0
1.01880391477,0.920904934492,9.75685836413e-06,-75588982.0812,1.40907061499e-05,0.0,5945261.04542,677.995515888,645.543092232,67303417.3151,1653.748994,53694758.7478,70912161.3263,4229.05505021,4221.88008614,0.0
1.10562132734,0.789158448081,1.04637444185e-05,-17912637.7548,2.02235278992e-05,0.0,5645055.1441,681.800586127,651.134486831,66465699.1736,1766.34530817,39609593.3219,68744977.091,4589.43412979,4580.06613748,0.0
1.20382358353,1.04518162137,1.02630493849e-05,10071871.8653,2.32164133075e-05,0.0,11407185.891,687.751905819,657.290048972,65405108.0783,1886.15518639,55982349.4585,66992275.0696,4997.07169523,4985.61948692,0.0
1.11391593204,0.811330210569,1.02540493563e-05,-15772440.3325,2.0511894117e-05,0.0,5620610.09732,682.346264006,651.598656652,66414808.236,1776.44252886,40797232.1202,69253764.9095,4623.8650339,4614.26091102,0.0
1.13428643718,0.89143722865,9.91976050356e-06,-10042592.4358,2.12308605245e-05,0.0,5591607.61327,683.819253926,652.96200254,66349212.5643,1803.38360071,44424389.0083,67766868.9072,4708.42300073,4698.75738425,0.0
1.13451903305,0.896125824785,1.02218648274e-05,-11041674.3238,2.20154764463e-05,0.0,5610926.09727,683.621851659,652.987218126,66413932.2898,1805.3377317,43671592.2568,67768707.6538,4709.38850619,4700.26115228,0.0
1.01399374705,1.0361181186,9.90336774737e-06,-79998583.6183,1.30130630224e-05,0.0,5957261.95526,677.749079856,645.224745736,67317241.2046,1647.22886165,57194611.2347,70794343.0051,4209.088044,4201.98125949,0.0
1.04092728156,0.759450672247,9.89153735966e-06,-51622657.047,1.61481093849e-05,0.0,5822323.92221,678.652429327,646.924477271,66963434.6797,1680.54848468,38295928.0667,70816562.4364,4320.88914576,4312.1648742,0.0
1.05153888697,1.0006120764,9.99443036886e-06,-43104294.3767,1.40676736423e-05,0.0,5834313.35691,678.884103779,647.602053565,67009457.7444,1695.51913943,35389688.5483,70591070.7843,4364.93791981,4356.52478059,0.0
1.0479210468,1.18112272244,9.48864708335e-06,-49644959.7022,1.22947270201e-05,0.0,5848400.24334,679.127930561,647.38048626,67050749.6825,1689.46102454,37483394.8468,71231541.9425,4349.92026527,4341.07964282,0.0
1.06652863513,1.03299302938,9.9292073168e-06,-35533110.0045,1.40272649386e-05,0.0,5781150.29151,679.716935364,648.548627285,66859770.9945,1714.1582405,34614507.4249,70175346.4378,4427.16036442,4417.97954927,0.0
1.06829113529,0.96827628037,9.89316890735e-06,-35535068.0374,1.50195143783e-05,0.0,5806450.32642,679.843922089,648.679553056,66952573.1863,1718.34991993,34697085.6885,70111939.2134,4434.47650259,4425.98461136,0.0
1.05874195482,0.92604698308,1.04188062552e-05,-38193235.5453,1.52706880952e-05,0.0,5810136.13564,678.944822652,648.057660162,66948693.2866,1706.0824793,34650304.2263,69810154.605,4394.83785446,4386.58926854,0.0
1.14759704127,0.976799765321,9.86769613272e-06,-7021300.26718,2.01735390247e-05,0.0,5544882.24847,684.570585678,653.755749983,66196620.2043,1819.65803357,46169211.1341,68695576.1606,4763.67531831,4753.51416033,0.0
1.03080543898,0.849686038512,9.7181278187e-06,-61243866.1352,1.49877414245e-05,0.0,5912386.36806,678.311918693,646.310240563,67230322.5403,1669.77378342,43435387.0726,71130271.0749,4278.87337721,4271.5270945,0.0
1.10444824091,1.03527344389,9.96474136521e-06,-21326918.6597,1.68240952458e-05,0.0,5718981.53784,681.984619934,651.108152279,66716540.133,1766.24671433,37851689.9896,68678457.8827,4584.56464802,4575.69881022,0.0
1.02928249391,1.0381293725,9.456466393e-06,-65802789.6093,1.32415860636e-05,0.0,5936027.35781,678.454862105,646.209446528,67296850.7909,1667.57153314,46530813.2039,71212853.3895,4272.55163222,4265.22718447,0.0
1.08904650287,1.05616562943,1.00745730445e-05,-26168102.9699,1.55097713189e-05,0.0,5757321.07751,680.958377635,650.084411952,66826701.1991,1745.99389799,36153327.1228,69269916.4189,4520.63203341,4512.00839169,0.0
1.11053810072,1.01380161491,9.66727617581e-06,-20128251.6606,1.73665813499e-05,0.0,5705641.15925,682.542302011,651.478159431,66690027.6627,1773.82963509,38565798.9862,68921393.946,4609.84365609,4600.78013871,0.0
1.22152124875,0.759675212152,1.03132668852e-05,13593323.2409,3.13189847428e-05,0.0,14841257.9794,689.187515328,658.454769886,64970355.6105,1907.45521437,58831104.2748,66350173.6639,5070.53470356,5058.63223849,0.0
0.994891368315,0.85328381389,1.01570587478e-05,-95300417.8131,1.48878155263e-05,0.0,5908191.51577,678.816442413,643.999218991,67135303.566,1618.34609618,70176938.5103,70395111.6623,4129.79406988,4121.64907162,0.0
1.12237451691,0.829297314598,9.75230339186e-06,-14322683.8254,2.07242891221e-05,0.0,5640886.9141,683.180775706,652.156652148,66495202.2515,1788.52807751,41702522.1505,68913097.0907,4658.97661969,4649.53074438,0.0
1.10404207482,0.676822484137,9.61211799724e-06,-22104972.3368,2.156107961e-05,0.0,5699272.745,682.390734493,651.084836283,66657085.4083,1765.7838342,37568040.6572,68550314.0142,4582.87865258,4573.9180585,0.0
1.17734053442,1.33473406477,9.64248616516e-06,2193168.99377,1.6559556657e-05,0.0,5452924.40824,686.394949113,655.687923637,65929299.6653,1854.67625177,51352180.1788,67169218.6115,4887.14055838,4876.07561857,0.0
1.07056723566,0.967409678804,9.98312492957e-06,-33349794.6448,1.52671002626e-05,0.0,5797427.64192,679.868653408,648.805392091,66919403.3083,1721.15772902,34908272.9765,69813310.3767,4443.92459522,4435.39804331,0.0
1.08558409954,0.897079064987,9.7838481826e-06,-28259936.1158,1.69245828081e-05,0.0,5767825.73603,681.072529371,649.89799755,66849620.0376,1741.60596437,35842653.8143,69364171.2877,4506.25959719,4497.68999939,0.0
1.0578065306,0.861575581295,1.03773019272e-05,-38782631.6312,1.5844029312e-05,0.0,5810423.27261,678.949888614,647.998734335,66947108.0884,1704.88097286,34694737.3555,69719150.038,4390.95490852,4382.72073776,0.0
1.29484054326,0.830620067859,9.60535605215e-06,27134286.8411,3.57984193322e-05,0.0,28680839.3324,694.068881858,662.987403004,63997390.621,1990.7155721,68516696.5562,69594775.2427,5374.88309507,5361.5570373,0.0
1.21100725235,0.998336775321,1.02454953532e-05,11235501.3605,2.48140624039e-05,0.0,12487054.5682,688.300703696,657.753042827,65247632.9712,1894.48639007,56925609.2208,66238458.8707,5026.8911045,5015.09981706,0.0
1.10440158223,0.870039880852,1.01111233551e-05,-21160239.8732,1.91225856455e-05,0.0,5697172.39857,681.951100177,651.095803057,66653952.5315,1766.17481758,37875709.5121,68642196.8405,4584.37096784,4575.50598109,0.0
0.934649092116,0.936200089557,1.02733559643e-05,-92631739.9376,1.39357088255e-05,0.0,6076798.02047,687.645891611,640.130425059,67556173.8239,1604.08958898,67827369.4511,68037261.7203,3879.72838137,3873.08998724,0.0
1.03605720468,0.608893055018,1.04866138124e-05,-52288347.8829,1.79502807986e-05,0.0,5794741.15078,678.006891786,646.602701428,66879341.1507,1674.13561927,38370750.515,70604835.8299,4300.67345663,4292.02784221,0.0
1.13223462694,0.995851082212,1.00107712382e-05,-11064791.6393,1.99009383728e-05,0.0,5630496.20231,683.552960725,652.843429271,66478542.466,1801.83621938,43875418.7028,67721545.7803,4699.90593643,4690.71370535,0.0
1.19812225349,1.0678356014,1.03276679016e-05,8051268.91739,2.25621241135e-05,0.0,9434829.86749,687.465148151,656.974438855,65345238.6623,1878.59917864,54403976.1848,66546897.3341,4973.40547424,4961.64360259,0.0
1.00520640494,0.857646459347,9.87820768928e-06,-90984984.3938,1.43774728745e-05,0.0,5971681.80879,677.994944283,644.673502102,67346854.4403,1635.47175108,66414697.881,71091228.0374,4172.61178691,4165.62883555,0.0
0.906883491916,0.824030742192,1.03700423979e-05,-91362022.1202,1.40041370375e-05,0.0,6131947.02106,690.809406693,638.340845597,67691210.8072,1594.79373924,66709888.6051,67691210.8072,3764.47337494,3758.25463595,0.0
1.03124789032,0.763590309372,1.02720102513e-05,-59159651.8188,1.59676741585e-05,0.0,5829800.25055,677.937747748,646.304502084,66973160.5241,1667.81941346,42147482.8765,70886850.0816,4280.70999272,4272.22898006,0.0
1.06421025176,0.91390017256,9.88291986414e-06,-37440082.9311,1.5377266209e-05,0.0,5813543.64792,679.652950568,648.414960478,66966311.9877,1713.03520575,34671688.8217,70112356.0904,4417.53675506,4409.1087254,0.0
1.21617656667,1.0357529827,9.44239599211e-06,11349015.4466,2.34223787153e-05,0.0,12666461.9078,689.034924108,658.077255332,65355779.4407,1901.57637096,57168520.1828,66656240.5673,5048.34892825,5036.4482766,0.0
0.973804670234,0.909217375181,1.05731766287e-05,-94342212.5383,1.39207509642e-05,0.0,5980204.99901,680.828288195,642.652340703,67336495.1662,1607.42460167,69333223.6489,69566693.1166,4042.26318614,4035.08669144,0.0
1.14454694339,0.723165441303,1.00488555676e-05,-8497909.23547,2.60007576371e-05,0.0,5568715.73591,684.379900727,653.561919131,66293402.7996,1818.39889524,45155600.432,68268437.0027,4751.01436201,4741.70251213,0.0
1.11475785789,1.01022446574,1.02036307835e-05,-16086790.968,1.77927062403e-05,0.0,5595558.7416,682.378550726,651.636415837,66335677.5407,1775.75170413,40625507.4758,69174177.4769,4627.3598681,4617.0786255,0.0
1.10547538379,0.94236918765,9.87564603838e-06,-21457113.9986,1.82179740327e-05,0.0,5724226.32517,682.145566412,651.179735887,66743807.2856,1768.34287255,37890364.9929,68670536.2153,4588.82831811,4580.14564748,0.0
1.14321472779,1.02270951696,1.02538030756e-05,-7400976.87706,2.07358708351e-05,0.0,5582052.55048,683.975758475,653.46774485,66330141.6039,1815.62105095,45898774.7012,68469169.3534,4745.48433506,4736.08891525,0.0
1.11360771668,0.785459566894,9.74885283235e-06,-18971794.7572,2.08388250636e-05,0.0,5688400.33488,682.751619448,651.658727358,66639752.8292,1778.7929856,39038728.4767,69039015.0268,4622.58563194,4613.67514927,0.0
0.991739290432,1.13138749731,9.96014833583e-06,-95306222.601,1.23206262471e-05,0.0,5938888.98258,679.415312972,643.799790075,67218474.7099,1613.98848551,70181843.5436,70421715.1171,4116.70979458,4108.53537602,0.0
1.09934713977,0.943620377005,1.0107561321e-05,-22691541.5977,1.77715161939e-05,0.0,5718011.22608,681.623979312,650.781388155,66708387.1072,1759.53520193,37254911.8339,68642780.1247,4563.38997719,4554.603182,0.0
1.23181175527,1.04120484844,9.9728866171e-06,15838832.9398,2.54409183141e-05,0.0,17278193.2531,689.709963669,659.132397165,65174606.1042,1920.02903591,60760331.239,66845403.6024,5113.25059613,5101.62990695,0.0
1.1038713855,1.02419383189,1.02883466865e-05,-19017688.4049,1.70852798971e-05,0.0,5632625.45114,681.738011285,651.019766237,66438843.4442,1761.81784377,39171938.9996,68699222.3948,4582.17012121,4572.1604212,0.0
0.970707377864,1.29752189542,1.01736401556e-05,-94370747.0302,1.13125317688e-05,0.0,6049631.6575,682.615477036,642.463948435,67550493.4898,1614.74403625,69358127.1426,69588471.6514,4029.40632551,4022.89499794,0.0
1.2417709784,0.840836019239,1.05382900385e-05,18633816.1005,3.23155609657e-05,0.0,20382680.5242,690.208820887,659.699734764,64794433.9113,1930.63871038,62998558.5733,65675406.6899,5154.59133134,5142.68296031,0.0
1.04245372576,0.792279277843,1.03076826367e-05,-48769951.0618,1.59486722403e-05,0.0,5808994.67934,678.361279173,647.023007813,66925622.4344,1682.85477313,37010923.3289,70873559.0739,4327.22541563,4318.56359867,0.0
1.15364272372,0.88783409569,9.89657363632e-06,-5858779.04815,2.31287183672e-05,0.0,5515296.30165,685.08542246,654.196832494,66135550.1006,1827.91867915,46552052.0562,68581811.6327,4788.77094616,4778.67308505,0.0
1.19375482453,0.808813219578,9.90361537808e-06,6258344.76281,2.69490661239e-05,0.0,7857175.84324,687.690103681,656.720708118,65383839.3905,1874.41305181,53383166.7579,66585817.4749,4955.27627662,4943.57381152,0.0
1.06911149042,0.910629206712,9.88979672906e-06,-35165922.3123,1.56884080636e-05,0.0,5800872.82862,679.914462991,648.733277713,66936938.8103,1719.47507473,34711566.282,70055033.8226,4437.88179673,4429.3777942,0.0
1.05963546468,0.892055735863,1.0232370161e-05,-38525393.4608,1.55947128232e-05,0.0,5813333.25993,679.150071002,648.118481437,66956737.9954,1707.2874449,34699363.3603,69835905.646,4398.54681389,4390.28299238,0.0
1.05800450387,0.719570516985,9.79424997111e-06,-40701931.8113,1.71191681551e-05,0.0,5819696.31747,679.445670192,647.993497753,66972765.112,1704.89348129,34966464.6054,70036713.9431,4391.77669556,4383.44540105,0.0
0.963827729529,0.711423724009,9.80966043884e-06,-94093998.2463,1.58977934694e-05,0.0,6021552.34358,684.435074932,642.015010366,67425893.3079,1612.90399737,69114555.8906,69341583.7718,4000.84890527,3993.79225039,0.0
1.12952644288,1.07531507907,1.02175976006e-05,-11869922.1446,1.82745023041e-05,0.0,5592467.14219,683.273384528,652.639072651,66334434.0059,1796.5637533,43152564.2154,67403983.1358,4688.66426439,4678.79673109,0.0
1.18105135579,0.897106249536,9.74100960706e-06,3515848.71423,2.3615904234e-05,0.0,5670134.36872,686.787760818,655.913337491,65808632.3043,1860.47041556,52012762.9038,67074597.8832,4902.54417788,4891.73227888,0.0
1.09487471101,1.22822885261,1.00194094315e-05,-24445068.1415,1.39970616006e-05,0.0,5754445.15238,681.249423109,650.442235364,66825193.1366,1753.4805388,36693555.652,69123092.7564,4544.8249254,4536.10993699,0.0
1.17663925862,1.12420761117,9.78315745241e-06,2084612.94251,1.93823070203e-05,0.0,5428422.24688,686.385684757,655.639355653,65855109.5511,1854.03874262,51129628.4889,67078398.6567,4884.22956253,4873.16246358,0.0
1.08014292081,0.832452744647,9.97350581597e-06,-29582940.1564,1.74538144747e-05,0.0,5770502.15556,680.634464404,649.532644244,66851997.6349,1734.52428288,35556869.1206,69299859.1911,4483.67326428,4475.18740984,0.0
1.04974712815,0.82791597896,9.59478768742e-06,-48134500.2202,1.58262011943e-05,0.0,5816623.55394,679.273659925,647.48859827,66954573.9776,1692.1745315,36851921.2892,70587049.809,4357.50032895,4348.6295844,0.0
0.992385792718,1.15738216302,9.72221653981e-06,-95418127.5935,1.24259137782e-05,0.0,5998207.39983,680.287933631,643.85646753,67407497.2863,1619.9724636,70280212.0878,70524818.9882,4119.39342557,4112.24399207,0.0
1.00849543366,1.02832079388,9.57193762119e-06,-92150159.3357,1.33163704206e-05,0.0,5902175.80412,678.551629509,644.86975056,67127598.2774,1635.8366063,67419094.319,70910258.2191,4186.26454512,4177.73724093,0.0
1.27923502451,1.07737494306,9.72547631231e-06,24408449.0896,2.95465438168e-05,0.0,26175185.3053,692.921781812,662.041494959,64284232.9141,1972.69071389,67212959.4865,68200930.3063,5310.10458674,5296.79484588,0.0
1.14989989476,0.912479626797,9.8283227161e-06,-7699666.2431,2.27196496427e-05,0.0,5578495.00518,684.781409104,653.942015979,66328085.792,1825.07690692,45798479.1955,68634985.6626,4773.23446315,4763.83521929,0.0
1.1233727256,0.749502479815,1.00033309183e-05,-14131090.5997,2.28830431913e-05,0.0,5644574.96439,683.099899488,652.242926235,66513529.6841,1791.07686559,41968780.8446,68583537.4298,4663.12018397,4654.17037428,0.0
1.09785566321,1.0331741745,1.0192017047e-05,-22318227.7759,1.61051488408e-05,0.0,5685693.63183,681.46622406,650.661389584,66592379.451,1755.52603484,37308289.5057,68500656.7972,4557.19885798,4547.67950658,0.0
1.12307803339,1.18559094509,9.61630761167e-06,-14511714.8971,1.57816100519e-05,0.0,5650175.67458,683.166985481,652.19288489,66515984.909,1788.14987431,41692164.0329,68937789.6807,4661.8969166,4652.03881078,0.0
1.18602583779,0.905754678266,9.95226689534e-06,4595571.55666,2.42105400444e-05,0.0,6222049.7062,687.033059514,656.189370894,65531961.5519,1864.86789533,52369372.5707,66828311.028,4923.19325267,4911.65343768,0.0
1.03702702476,0.718989488289,1.02181099394e-05,-53801216.521,1.62160544791e-05,0.0,5830194.44557,678.19199353,646.657235618,66983474.7324,1676.23492593,39217466.1769,70964895.2473,4304.69917978,4296.30061647,0.0
1.04353852498,0.793342387753,1.00134467846e-05,-49819300.3175,1.60636362166e-05,0.0,5819374.04699,678.640861948,647.077114344,66959215.9318,1684.45798766,37371091.1489,70950044.5963,4331.72841719,4323.1374155,0.0
1.07278595164,0.888600214725,1.02834384971e-05,-31570753.8405,1.65953168877e-05,0.0,5774114.56398,679.946013154,649.029576052,66862563.8936,1724.46731367,35118280.6708,69367565.6981,4453.13448526,4444.66699111,0.0
1.2150083815,0.864068471642,1.01133190288e-05,12004840.8772,2.76528814726e-05,0.0,13246857.0777,688.755745222,658.030892368,65181019.022,1899.84832301,57537285.6673,66226434.7883,5043.49979161,5031.71724652,0.0
0.983685846285,0.794077164227,1.00067019832e-05,-95116919.4254,1.46558894998e-05,0.0,5991332.25124,680.233435841,643.295694664,67362712.7915,1611.28117921,70015037.6367,70256232.5221,4083.27994793,4076.17975118,0.0
1.19256762474,1.14879701038,9.73188031337e-06,5575585.70132,2.01408046881e-05,0.0,7185024.06489,687.408265111,656.619303837,65606399.9553,1872.6261882,53108016.3462,66892018.0085,4950.3482103,4938.68100215,0.0
1.11809154337,1.1565492803,9.65937917982e-06,-15818097.3029,1.57813947798e-05,0.0,5662458.44077,682.84222967,651.875004662,66546084.9479,1781.76418166,40924677.7696,69540150.4727,4641.19799653,4631.42448581,0.0
0.993181559625,1.24514009544,9.6937346531e-06,-95629771.0109,1.15178511177e-05,0.0,6003788.74302,679.67853138,643.911382924,67416224.4607,1618.19755217,70466555.7366,70708407.5693,4122.696654,4115.54508167,0.0
1.14648412247,0.966028983478,1.02701700375e-05,-7540986.51562,2.20283847621e-05,0.0,5573111.57823,684.243665594,653.717801327,66314258.6846,1820.45608949,45619971.0478,68520291.3866,4759.05559237,4749.71108819,0.0
1.08736444634,0.964739658076,9.93509715621e-06,-27186057.6192,1.64087752155e-05,0.0,5761103.29177,681.025474509,649.999413499,66834007.2406,1743.87782096,36009165.3267,69330180.0973,4513.64981676,4505.05244728,0.0
0.977754580172,1.19722201084,1.01722571376e-05,-94825610.7729,1.2001713618e-05,0.0,6030229.42219,681.081834215,642.918367511,67494505.9393,1612.84284263,69758811.3258,69994253.237,4058.65926229,4052.06003579,0.0
1.16028393137,0.850828112305,1.02872870642e-05,-1224398.39651,2.33597280162e-05,0.0,5433121.9105,685.285154354,654.628091205,65822728.0359,1834.05689219,49012071.8102,67608708.8548,4816.33859912,4805.57631563,0.0
0.976607817431,1.16211319635,9.81079800007e-06,-94881119.8698,1.22086488863e-05,0.0,6045287.89742,682.06048808,642.846223606,67525791.022,1614.81668092,69807343.4635,70044241.0235,4053.89905016,4047.2299839,0.0
1.16072858319,0.774790139335,1.00235554691e-05,-1989963.71769,2.45316503655e-05,0.0,5428715.29955,685.551858692,654.658945344,65821140.5505,1834.64291622,48611834.9023,67622112.6388,4818.18434882,4807.32246206,0.0
1.19563010758,1.01514368501,9.35518392436e-06,6245998.58638,2.21469601352e-05,0.0,7876875.88807,687.828549765,656.834023043,65777328.5531,1878.6953854,53869503.3696,67094718.5275,4963.06057656,4952.08786658,0.0
1.00377912042,0.987620212241,1.01896660694e-05,-91781718.0657,1.35912856996e-05,0.0,5913097.17328,677.839554033,644.568872605,67164859.0,1631.15827937,67095813.2383,70930732.6443,4166.68712886,4158.72915513,0.0
1.15653805328,1.03975591045,1.04378297206e-05,-1738935.59437,2.02405002293e-05,0.0,5437305.11154,684.855836021,654.381512854,65838109.2301,1828.04682733,48710804.6302,67770412.4769,4800.78945917,4789.78973094,0.0
1.10434981603,0.777514818157,1.0561457982e-05,-18512430.1273,2.05939876719e-05,0.0,5602565.76207,681.722664787,651.041064663,66339395.7954,1763.25459039,39351012.8872,68615672.0382,4584.15608634,4574.23267652,0.0
1.22297826354,1.19335058583,1.02885889231e-05,13731638.1873,2.22819026676e-05,0.0,15024898.0636,688.928120769,658.548673541,65159958.5901,1908.23451874,59042951.8631,66604540.6902,5076.58277195,5064.65600529,0.0
1.076613774,1.06306534182,9.9713336204e-06,-31141713.4806,1.45294223554e-05,0.0,5799210.29092,680.137731894,649.162998651,66946765.7806,1729.70496589,35280174.5496,69568276.0437,4469.02377587,4460.59354532,0.0
1.0518970336,1.0900749137,1.03445875381e-05,-42488517.6334,1.33343290732e-05,0.0,5821231.9388,678.604986681,647.608289279,66980342.6791,1695.98770484,35135338.9202,70423639.9717,4366.42458647,4357.93570881,0.0
1.1068434273,0.803379258661,9.74515538654e-06,-20750717.185,1.96543404215e-05,0.0,5699607.10892,682.379442483,651.255807615,66665166.3688,1769.33824834,38172003.9772,68715576.194,4594.50706672,4585.50163835,0.0
1.22954769401,1.11533190417,9.84423928929e-06,15199178.3043,2.35756179177e-05,0.0,16562923.7328,689.581048545,658.986697431,65257718.4172,1917.40013772,60333988.5513,66869091.9385,5103.85247784,5092.27271638,0.0
1.01556335787,0.695970227838,9.84677198147e-06,-78578862.0298,1.58789432777e-05,0.0,5939244.11565,677.935241447,645.341014965,67273895.1762,1649.53561511,56049283.2518,70922210.621,4215.60349852,4208.47449681,0.0
1.13291056734,0.880535436021,9.84083276194e-06,-11348495.0466,2.11960036695e-05,0.0,5599856.60332,683.811268348,652.870548349,66370519.9034,1801.88776234,43565075.1078,67547861.6178,4702.71176503,4693.06575224,0.0
1.20311038122,0.839648936504,1.04444952886e-05,9951604.72599,2.78649631989e-05,0.0,11220555.206,687.825566095,657.229607064,65152257.4229,1884.56886801,55773234.6013,66719006.5919,4994.11119244,4982.25609751,0.0
0.996792749347,1.06692873481,1.04281161076e-05,-95363634.0436,1.30096751482e-05,0.0,5905128.84384,677.953100615,644.11740723,67132530.2114,1620.83974125,70232788.3407,70560630.2045,4137.68670254,4129.51131877,0.0
1.12071738619,0.98248984605,1.0262988409e-05,-14308805.4309,1.88279948249e-05,0.0,5616945.48241,682.701306716,652.051866027,66403550.6409,1785.55096982,41654977.1636,68322385.6767,4652.09787007,4642.47860447,0.0
1.09584333284,1.02838278257,9.76195971312e-06,-24445450.4741,1.60248545822e-05,0.0,5746872.42089,681.557588263,650.496486516,66792365.8383,1754.72390993,36746051.1294,69218299.4301,4548.84567462,4540.01693182,0.0
1.02047326137,1.20706225518,1.02975779068e-05,-71724426.4483,1.18275509113e-05,0.0,5857874.58891,677.4447207,645.614693822,67042923.5766,1651.9379893,50732592.0768,70493158.7833,4235.98450795,4227.25730669,0.0
1.09282210505,1.06402832819,9.46053443378e-06,-26378087.2138,1.51535913708e-05,0.0,5770518.21979,681.606215591,650.334515412,66869446.2216,1750.74413134,36325263.484,69491768.8245,4536.30455806,4527.52371715,0.0
1.11788056552,0.971660246159,9.65746925176e-06,-15837549.2604,1.81866291954e-05,0.0,5647248.66449,682.92877684,651.862341777,66499035.8012,1781.67755103,40905223.2927,69478344.6696,4640.32222747,4630.55131899,0.0
1.01812997049,0.767025948667,9.70416257336e-06,-76856727.4446,1.54011242236e-05,0.0,5941957.60866,678.099497253,645.504723965,67289578.9388,1652.91166692,54685095.3264,70890334.7698,4226.2575075,4219.09211269,0.0
1.17590046976,0.898911367099,9.69533260942e-06,2096477.25369,2.30715320814e-05,0.0,5409624.96624,686.540700949,655.598389593,65794563.2372,1853.41558183,51245881.5067,67032490.4352,4881.16284997,4870.12368753,0.0
1.01178447398,0.849949860961,1.02193224846e-05,-81134431.3161,1.46439347939e-05,0.0,5937800.83661,677.460888297,645.084938789,67260466.1922,1644.23351905,58105707.3267,70791857.3876,4199.91735149,4192.84206239,0.0
1.08668375015,0.987315161871,9.85404630961e-06,-27681735.0659,1.60595181294e-05,0.0,5768178.77069,681.038494947,649.960013425,66853301.1711,1742.97796196,35949613.0508,69364483.5367,4510.82424687,4502.23687525,0.0
1.07154855223,0.89987175985,9.57223560335e-06,-34683248.8062,1.58239171483e-05,0.0,5814376.17626,680.39347146,648.977992742,66974959.6994,1723.19608634,34757868.611,70175143.8877,4447.99804031,4439.64609045,0.0
1.07939885904,0.98571747772,9.59128588734e-06,-31307898.0245,1.5396089488e-05,0.0,5802210.1884,680.603748711,649.348221001,66953729.2057,1733.41368669,35304144.061,69626532.2322,4480.58466387,4472.11126331,0.0
1.06581419941,1.07781496899,9.85368657218e-06,-36855136.7759,1.36979441382e-05,0.0,5821651.47777,679.693537515,648.518011913,66992541.9778,1715.01855294,34680302.2501,70229480.8236,4424.19474175,4415.74163549,0.0
1.23570293253,1.19747888475,9.74381022079e-06,16072216.3374,2.2289991113e-05,0.0,17602441.0713,689.993778249,659.367212891,65148395.0303,1924.08297208,61046908.9393,66927442.5434,5129.40287293,5117.42203751,0.0
1.06790526321,1.24134899313,1.04978522795e-05,-33327418.356,1.27173640809e-05,0.0,5813439.35147,679.226652021,648.621745455,66975717.501,1718.47977124,34771916.0713,69698779.5393,4432.87474758,4424.67228651,0.0
1.11248227739,1.13106368817,9.98337354812e-06,-16773021.3016,1.60110038486e-05,0.0,5643771.64646,682.355939845,651.542205622,66473140.4664,1773.58026334,40393030.5819,69187365.8703,4617.91393345,4607.94351548,0.0
1.14263715819,1.20882839776,1.00935611366e-05,-8762070.914,1.73729181674e-05,0.0,5566812.59003,683.92594564,653.346849358,66271079.7731,1813.14584983,45098723.2851,68345480.399,4743.08684365,4732.96981798,0.0
1.05092845544,0.906947324695,1.00556931367e-05,-43154610.7476,1.49154800717e-05,0.0,5827990.00848,678.840244464,647.563398465,66990239.7469,1694.77237859,35388202.5301,70547194.566,4362.40401853,4354.00208134,0.0
1.11507827171,0.843030474912,1.01759995937e-05,-15592286.1632,2.01320232228e-05,0.0,5631018.47441,682.446080838,651.67565545,66452191.1784,1778.30405513,40847544.1651,69249367.8624,4628.68990587,4619.16500343,0.0
1.03786573903,0.966373315712,9.54681079361e-06,-56234029.1451,1.42247182116e-05,0.0,5844749.11088,678.747357625,646.73393293,67023484.7418,1675.66792815,40494217.9883,71104084.2871,4308.18068271,4299.33384757,0.0
0.984965243894,0.954402620492,1.01442134473e-05,-95137497.9522,1.37181598289e-05,0.0,5990315.01963,679.793363876,643.37748995,67369980.3552,1611.38356517,70033258.0098,70274227.0142,4088.5907274,4081.55513677,0.0
1.13990594398,1.01995691155,1.00610686415e-05,-9440697.61272,1.98048455369e-05,0.0,5557822.05875,684.03319874,653.291053646,66237261.2158,1809.93236573,44624082.4026,68071619.8347,4731.74957346,4721.67925321,0.0
1.06229188333,0.924218687679,1.02958898918e-05,-37040210.6595,1.5450677352e-05,0.0,5806293.14672,679.235638552,648.291112623,66941181.803,1710.81677721,34614721.2769,70011187.4518,4409.5736077,4401.26875949,0.0
1.15714858656,0.9744655247,1.02488446656e-05,-2791430.95775,2.10428859442e-05,0.0,5493112.6958,685.00950467,654.445690471,66046799.7397,1831.26721848,48276031.2199,68034035.7293,4803.32378281,4793.03030394,0.0
1.10954855967,0.869730091452,1.01031828708e-05,-17483393.5743,1.91471231555e-05,0.0,5630730.89917,682.248118516,651.372820972,66435338.9822,1770.25119025,39970572.1813,68960618.7912,4605.73607119,4595.91332282,0.0
1.13362517025,0.748721303606,9.79123628706e-06,-11224205.8159,2.33823205191e-05,0.0,5587003.769,683.966078685,652.919167143,66329274.5036,1802.99239932,43603988.5284,67544280.4612,4705.67808171,4696.02021607,0.0
1.16284879073,1.18507695895,1.00132442132e-05,-826277.693383,1.79509405691e-05,0.0,5466448.94052,685.395668924,654.787983754,65945291.2439,1836.41738666,49488881.0536,67797803.557,4826.98533032,4816.05707409,0.0
1.15882292882,1.14090953152,1.01766826539e-05,-2547234.19417,1.84959741515e-05,0.0,5507263.74384,685.061075401,654.552389126,66091486.7576,1833.19460876,48445503.0598,68032568.9659,4810.27397753,4799.95162805,0.0
1.10161870273,1.01048770103,9.71405194663e-06,-19945713.1653,1.60761248997e-05,0.0,5715761.88386,681.949732093,650.923095054,66684870.4742,1760.90121402,38840297.3951,68598896.6042,4572.81923503,4563.53654103,0.0
1.06504351254,1.24915209662,1.05528811596e-05,-34926777.878,1.26709423836e-05,0.0,5820243.27321,679.06886837,648.474935857,66999204.5968,1714.98487203,34662118.6172,69835697.9846,4420.99562055,4412.93170709,0.0
1.1458275657,1.00660515499,9.61569048574e-06,-7866071.37042,2.03783796319e-05,0.0,5597889.59261,684.573959868,653.651383014,66397080.3527,1818.98677555,45972362.7315,68514477.4546,4756.33022522,4746.78675159,0.0
1.08857208028,0.883314963782,1.02045518809e-05,-25911269.7243,1.76275357071e-05,0.0,5740537.2343,680.905651015,650.044801803,66776418.468,1745.5025499,36180247.0678,69161689.9885,4518.66270524,4510.04647691,0.0
1.12531009799,0.9099720414,9.49932958451e-06,-14097726.1315,1.95648061974e-05,0.0,5622467.1618,683.534394667,652.339643813,66430273.6191,1791.27929811,42188829.1673,68633748.1827,4671.16221676,4661.241194,0.0
1.04699058301,1.04406563671,1.01447521727e-05,-47424875.2058,1.37937868378e-05,0.0,5822150.52055,678.612775399,647.310968198,66977034.5106,1688.88650118,36542731.9131,70353345.9348,4346.05791007,4337.41104856,0.0
1.12032638119,1.23724420002,9.87855001964e-06,-14880858.0547,1.53252014452e-05,0.0,5630533.06516,682.815159117,652.006184019,66442908.894,1783.60911091,41453603.1568,68735401.3,4650.47480832,4640.36937592,0.0
0.994522146569,1.00399070229,1.03155266569e-05,-95278932.0728,1.3647613343e-05,0.0,5911049.4619,678.437594148,643.97372965,67145667.4772,1617.80587753,70158020.1273,70518584.4655,4128.26143041,4120.12236648,0.0
1.1515069814,1.16357294079,1.03357864211e-05,-5989509.98399,1.93614786881e-05,0.0,5572830.09011,684.33322951,653.97647429,66321277.391,1826.57466692,46452412.7115,68597920.995,4779.90547979,4770.48043655,0.0
1.0401458298,0.958350498139,9.85116099998e-06,-52253357.0278,1.42331572622e-05,0.0,5838236.81341,678.566305874,646.871042535,67009947.4775,1679.35967127,38484793.6273,71015666.6175,4317.6453395,4308.9338767,0.0
1.078342831,1.09479654561,1.00168894931e-05,-30228627.1105,1.43049112276e-05,0.0,5790942.8646,680.382119431,649.407728218,66912831.1596,1731.95352044,35457335.8521,69348828.0365,4476.20109148,4467.74407046,0.0
1.08290161107,1.00064847676,1.02993098994e-05,-27770678.8581,1.60362817725e-05,0.0,5765133.80145,680.505343248,649.718596221,66836164.2832,1738.34699506,35793153.7271,69220713.0863,4495.12458755,4486.69379261,0.0
1.06391588129,0.742268684898,1.02277906906e-05,-36552238.3149,1.75127790955e-05,0.0,5794029.07438,679.444723557,648.397329097,66905228.7933,1713.09354933,34607610.5893,70058061.2925,4416.31482323,4407.98485231,0.0
1.09382105912,1.00783342828,1.01665074371e-05,-24307952.5039,1.65785468787e-05,0.0,5736247.03688,681.179761147,650.376621896,66755870.6117,1752.26419909,36665063.526,68996785.0174,4540.45121641,4531.75282174,0.0
1.17669739495,1.16451096985,9.50023231075e-06,1648051.8066,1.85489310781e-05,0.0,5471133.94953,686.522803273,655.670699671,65997000.9011,1855.20117148,51091473.567,67401486.1235,4884.47088644,4873.73372942,0.0
1.08185200121,1.24415553536,9.97853784047e-06,-28283168.6728,1.27057280476e-05,0.0,5758128.79745,680.595064954,649.633600698,66800539.6701,1734.5170185,35794516.6723,69231487.9406,4490.76765702,4481.5156873,0.0
0.990263978013,0.860596839826,1.00903921145e-05,-95353514.3119,1.44746794508e-05,0.0,5976355.44744,679.199693421,643.716816566,67333098.8475,1614.49512552,70223441.9744,70462982.0077,4110.58577273,4103.47391744,0.0
1.04872474291,1.14610492587,9.51228672016e-06,-49099388.5601,1.2608768166e-05,0.0,5840813.29989,679.271784342,647.509331936,67029087.8858,1690.55648288,37244887.193,71010838.0196,4353.25640782,4344.40253307,0.0
1.01521397455,0.921674030941,9.97795587187e-06,-77780376.7198,1.39825125953e-05,0.0,5945642.28936,677.712440324,645.315409588,67294414.3803,1648.97252497,55408723.3584,70887520.448,4214.15320836,4207.02915459,0.0
1.02063787657,0.924568925624,1.03003294628e-05,-71397051.4375,1.43140540002e-05,0.0,5839997.33536,677.560240627,645.626592735,66988508.3146,1652.35771545,50483594.8999,70435146.5837,4236.66782564,4227.93788197,0.0
0.997118643327,0.978208794227,9.84079269322e-06,-95482581.2682,1.41102092758e-05,0.0,5920619.84704,679.282774388,644.143419283,67172503.8647,1621.11593737,70337285.6855,70586643.3768,4139.03948845,4130.86118482,0.0
1.18926608373,0.785755190292,9.96480477815e-06,5920755.21359,2.69240528105e-05,0.0,7455125.47205,687.28704797,656.421644683,65548317.6661,1869.7764232,53261837.9625,66741654.4878,4936.64351356,4925.47391393,0.0
1.03140807655,1.01187904983,9.9719699943e-06,-60776348.6285,1.36503425193e-05,0.0,5860964.96556,678.137629231,646.327924257,67067673.0143,1668.22277191,43183641.3287,70941475.2358,4281.37492576,4272.97888743,0.0
1.02374982997,0.812479892714,9.74846701682e-06,-69656460.3521,1.51308495943e-05,0.0,5927807.80548,678.098731747,645.854369789,67263724.2756,1660.39225731,49224916.7177,70932638.1358,4249.58554421,4242.34018711,0.0
0.993132769011,0.815168124371,1.02889191984e-05,-95195462.1352,1.50531536775e-05,0.0,5905939.29075,678.723947914,643.885304969,67126991.9114,1616.03980684,70084540.1795,70332659.9088,4122.49412416,4114.37737535,0.0
1.10252263429,1.10562365269,1.01090797328e-05,-21791583.8157,1.59619037082e-05,0.0,5720739.802,681.743374865,650.987413197,66723576.4665,1763.52141248,37641875.147,68609633.9715,4576.57145494,4567.73614665,0.0
1.20965163537,0.728486770451,9.89782815912e-06,10712752.4475,3.05045324757e-05,0.0,12039938.5866,688.655749575,657.645168856,65139084.6826,1893.52221266,56535330.7595,66627068.1764,5021.26393842,5009.3613099,0.0
1.08393528948,0.971420694015,1.00142447258e-05,-28123752.794,1.61335659619e-05,0.0,5767638.26748,680.783617418,649.788875496,66850038.59,1739.38017038,35790379.219,69307422.6203,4499.41538663,4490.87147581,0.0
1.15262791844,1.06892200983,9.76828651294e-06,-5382400.49502,1.97627263878e-05,0.0,5553709.82954,684.939003827,654.138511093,66256284.7472,1826.59352968,47290860.6521,68783470.9184,4784.55848944,4774.59962506,0.0
1.00082624697,1.10234691268,9.96017915267e-06,-95786434.7328,1.26265637504e-05,0.0,5913975.69946,678.43217809,644.378259139,67157392.1642,1625.89201379,70604633.3164,70758931.6892,4154.42975117,4146.10792677,0.0
1.20499434088,0.815100769822,9.7308743268e-06,9839544.92641,2.74623335463e-05,0.0,11210752.8444,688.316422697,657.416839064,65488587.7188,1889.43756539,56001664.2638,66974980.1405,5001.93150899,4990.79630711,0.0
1.06245676729,0.721439043733,9.49798900401e-06,-42101759.5956,1.77655866084e-05,0.0,5778628.92523,680.00748506,648.265063734,66855795.1539,1709.13327749,35166003.2661,69700412.7835,4410.25804102,4401.17651135,0.0
1.18567973177,1.2535273152,1.04469861997e-05,5576347.88142,1.88688726932e-05,0.0,7071666.71009,686.48830283,656.19169463,65568322.3294,1863.42405242,52715654.2644,66730531.2952,4921.75656658,4910.3194021,0.0
1.07268425779,1.12920544895,1.01216073138e-05,-31898930.7869,1.37216352356e-05,0.0,5796755.70793,679.771542705,648.893581636,66924627.6861,1723.81220281,35146621.4506,69581381.0022,4452.71235409,4444.15178565,0.0
1.10833807746,0.95516658155,9.83373289943e-06,-18354093.9655,1.76974911063e-05,0.0,5674985.3114,682.316716612,651.324831446,66577212.8969,1769.61962832,39495925.7512,68867794.9514,4600.71135954,4591.19902392,0.0
1.06222993481,1.07482345851,9.94943053293e-06,-38131003.0413,1.36035292944e-05,0.0,5826070.36366,679.431423028,648.286833233,67002335.8883,1710.2988599,34706112.5455,70041808.9166,4409.3164594,4400.91934856,0.0
0.968015766519,0.873890670438,1.01125881982e-05,-94117116.1442,1.4846626074e-05,0.0,6022730.47164,683.457001201,642.286543316,67457896.3756,1614.86205077,69134928.0861,69363472.6484,4018.23344682,4011.46358005,0.0
1.04970366342,0.927051968108,9.7006838135e-06,-45911123.3316,1.45093179625e-05,0.0,5831044.25816,679.074909672,647.479506282,66994309.6442,1692.3486599,36188060.182,70598306.7471,4357.31990686,4348.59694416,0.0
1.09362536193,1.11714844654,1.01819741027e-05,-24367044.3275,1.51816169667e-05,0.0,5744166.19289,681.106444328,650.361668058,66780838.5525,1751.91150466,36663546.6333,69017526.8175,4539.63887737,4530.94355182,0.0
1.18386837612,0.798932876547,1.01444733492e-05,4852721.56591,2.65946805311e-05,0.0,6480094.18436,686.7811151,656.069025364,65664228.8886,1863.92237097,52562409.1961,66917727.5879,4914.23762927,4903.47084338,0.0
1.2027933745,1.17190876952,1.00524933891e-05,9173531.98444,2.08909786247e-05,0.0,10508866.9499,687.812774812,657.254621041,65388998.2562,1884.09194155,55383758.4871,66837432.4656,4992.79529755,4980.93938579,0.0
1.09438070863,0.979703582221,1.01161102774e-05,-24157450.6834,1.69642052607e-05,0.0,5734061.52373,681.261394372,650.417173714,66750170.5066,1752.92168046,36728712.3202,69018475.0577,4542.77432152,4534.06681703,0.0
1.16090192708,0.995288104497,1.03342155078e-05,-734975.467246,2.09971349498e-05,0.0,5445231.04055,685.186561832,654.665149957,65860998.5131,1834.43752832,49219561.3646,67602335.8428,4818.90389931,4808.13219553,0.0
0.973889261842,0.865353713625,1.03327651674e-05,-94390573.8852,1.48086336497e-05,0.0,6014534.32534,681.888319382,642.667322726,67451822.6149,1614.13512624,69375830.8893,69608164.328,4042.61432591,4036.05955995,0.0
1.19138656949,0.873406256928,9.86874499252e-06,5692221.60521,2.52371383239e-05,0.0,7265514.23203,687.473170526,656.547147412,65460465.4353,1871.47030296,53059367.8906,66637915.8059,4945.44564995,4933.78705129,0.0
1.11782889484,1.16496861976,9.95146566476e-06,-15370346.6058,1.6004570808e-05,0.0,5629844.46814,682.645716828,651.84438541,66437578.4142,1780.44304695,41132090.7164,69136080.1977,4640.10774248,4630.04476293,0.0
1.17484763895,0.790466113008,1.01727584783e-05,2645930.94186,2.58540790028e-05,0.0,5379679.76553,686.26333905,655.517976004,65678813.0984,1852.13882709,51317508.2714,66918879.3981,4876.79254928,4865.86432981,0.0
1.26186550147,0.87177014688,9.83824171346e-06,22067764.0355,3.23596543754e-05,0.0,23955696.2159,691.814086519,660.978566986,64692675.7371,1954.7640052,65717122.6077,66541380.8809,5238.0036966,5225.85527523,0.0
1.16214683656,0.997975313693,9.9754214598e-06,-2272304.60894,2.24452116774e-05,0.0,5525871.86685,685.481357323,654.777470933,66172426.4743,1839.52851277,48784004.8582,68266596.5186,4824.07151856,4814.35520591,0.0
1.15648414896,1.02651866001,9.86448952823e-06,-5464527.552,2.12503459118e-05,0.0,5558660.15259,685.139316207,654.386512108,66267690.2104,1832.99716747,47019108.4697,68643332.0703,4800.56570233,4790.96590084,0.0
1.19126591924,0.899796198097,9.80357291752e-06,5609529.69521,2.45793664876e-05,0.0,7212010.21842,687.467319118,656.534376279,65498418.3761,1871.31869139,53074269.6848,66784263.1737,4944.94483077,4933.29728732,0.0
1.12833873494,0.877167722148,1.00692234014e-05,-12145369.3035,2.08958605335e-05,0.0,5587213.81324,683.277237496,652.478598225,66331635.3028,1795.12613815,43083723.6937,67296142.1653,4683.73408874,4673.88706983,0.0
0.986595032145,0.906245701827,1.00325462663e-05,-95024974.422,1.42867410088e-05,0.0,5932932.7497,680.086869954,643.467139987,67197068.536,1611.0847596,69934344.0167,70177076.6619,4095.35597843,4087.26473439,0.0
1.17670195204,0.785375348627,9.81258726524e-06,2577096.515,2.56077669642e-05,0.0,5419248.4786,686.553856413,655.649241241,65811435.7188,1855.59674107,51427903.222,67090066.6321,4884.48980292,4873.85328896,0.0
1.23756803646,1.10104033725,1.01019402299e-05,17102889.7505,2.47694289029e-05,0.0,18669321.9094,689.772539712,659.322661546,65041644.57,1925.83936043,61736685.1423,67016150.6546,5137.14491935,5125.19923737,0.0
1.1557168105,1.031769874,1.00340847323e-05,-5557560.45257,2.1443371302e-05,0.0,5561336.99838,684.851827073,654.245904271,66286299.3035,1832.19636726,46892095.7816,68588828.1069,4797.38048039,4787.88771865,0.0
1.07175172642,0.856412878511,1.05341078887e-05,-31055390.3364,1.68844441344e-05,0.0,5771159.85679,679.708480733,648.970631731,66848723.4845,1723.41915198,35089375.7311,69197902.4272,4448.84141637,4440.48484253,0.0
1.0311940371,0.940754110636,1.00864008362e-05,-59307806.2994,1.42055914397e-05,0.0,5851623.79205,678.029880205,646.306958533,67036339.2596,1667.79203641,42251840.414,71039632.7975,4280.486448,4272.00598601,0.0
1.02484294973,0.908517279338,9.6138835744e-06,-69677634.2555,1.43225278007e-05,0.0,5934658.49365,678.232357181,645.926167283,67285794.4122,1661.77203621,49247461.9361,71012214.1725,4254.12308433,4246.86212983,0.0
1.06124047922,1.19951489438,9.88859811562e-06,-38851775.817,1.2433054603e-05,0.0,5834558.53428,679.502448527,648.306697405,67025529.7516,1708.8913163,34752871.7895,69987019.9879,4405.20922924,4396.82754942,0.0
1.16845798958,0.713550905201,9.73397709066e-06,-1021505.97297,2.84564573962e-05,0.0,5475552.79544,686.219423874,655.171466984,66011343.9397,1847.76951083,49373849.2033,67843473.3582,4850.26911475,4840.33808388,0.0
1.06560400654,1.03382194184,1.01219373114e-05,-35873849.9412,1.42646366267e-05,0.0,5808520.9794,679.500599904,648.50547706,66947048.1953,1714.77757939,34652459.001,70075463.5136,4423.32223115,4414.87241284,0.0
1.07136434755,1.16362532945,9.95816509444e-06,-33155060.5662,1.32485152131e-05,0.0,5808634.00766,679.848478493,648.850367316,66955290.5777,1722.05398933,34967485.9476,69818034.8618,4447.23340668,4438.69505963,0.0
1.07122026346,0.881525091396,1.01937064776e-05,-32225577.4403,1.63889874919e-05,0.0,5781373.39708,679.753768788,648.811124282,66875590.4304,1722.08240713,35041194.9413,69547596.0389,4446.63531362,4438.09775478,0.0
1.12487834786,0.838381962047,1.05416172961e-05,-12621312.189,2.15986493527e-05,0.0,5576725.41417,682.880218174,652.328778015,66290753.2734,1790.9921408,42684449.012,67117033.5353,4669.37002197,4659.68035751,0.0
1.08145588445,0.871078582763,9.79625050392e-06,-28923892.6451,1.65144200902e-05,0.0,5744659.60362,680.671624168,649.473433328,66767734.5462,1734.31554966,35741070.8276,69351159.6568,4489.12337635,4479.87798635,0.0
1.10357308969,1.02558084706,9.89791504673e-06,-21774998.7136,1.68324856201e-05,0.0,5723846.40253,681.983568934,651.055658548,66743442.4125,1765.12926344,37682447.238,68613806.1185,4580.9318953,4572.07988656,0.0
1.10737827874,0.720948872377,9.62830632514e-06,-19717932.8132,2.10555509634e-05,0.0,5617700.72878,682.60922915,651.258060323,66393490.2007,1766.9158257,38987942.0134,68648899.8479,4596.72723505,4586.56016594,0.0
1.03496435654,0.845710073699,1.01375485949e-05,-55474753.9567,1.51463675683e-05,0.0,5836135.5488,678.163533648,646.549104166,66998263.6603,1672.86206925,40119325.4103,70939342.5106,4296.137044,4287.59562473,0.0
1.09507185394,0.829399630223,1.01063066404e-05,-23914036.2347,1.88055751581e-05,0.0,5721340.83154,681.383683983,650.464728086,66723530.5957,1754.01692253,36783301.2452,68977919.1617,4545.6432657,4536.90057993,0.0
1.0031511723,1.16573388384,9.78293263997e-06,-96012244.6338,1.1983411315e-05,0.0,5945158.74438,678.458019197,644.536335805,67252709.1016,1630.26510057,70803046.9561,70837511.6802,4164.08051622,4156.13077549,0.0
0.969596280691,0.852320739116,1.02670773788e-05,-94228821.6497,1.48593606917e-05,0.0,6026971.34084,682.666336031,642.391585907,67481757.3314,1613.7347079,69233359.2938,69463166.5116,4024.79416115,4018.29797267,0.0
1.1876469363,0.840493855164,9.96745378727e-06,5431045.68082,2.5640205279e-05,0.0,7055149.34621,687.107612676,656.315590374,65658992.2527,1868.35314856,53063250.1639,66799867.8706,4929.92243258,4918.99468799,0.0
1.10577634823,0.88782694135,9.96492825609e-06,-20875288.9306,1.88312175538e-05,0.0,5703675.25149,682.124701702,651.185756224,66672344.8602,1768.12170805,38019932.4682,68704990.4481,4590.0776215,4581.19078028,0.0
1.04171912666,0.913430892199,1.01840286907e-05,-49795491.2806,1.47944845021e-05,0.0,5822790.44053,678.359233479,646.952653432,66964569.1538,1681.78916713,37476927.2438,70927836.3969,4324.17609477,4315.52639994,0.0
1.0865007659,0.754297615566,1.02222832903e-05,-26532194.8233,1.92164780853e-05,0.0,5736545.85083,680.851807267,649.933723627,66761442.6607,1742.89827065,36018916.6587,69162106.5664,4510.06467925,4501.48078694,0.0
1.14875072319,1.09999177996,9.99409801719e-06,-7602674.82929,1.97052223922e-05,0.0,5591163.82321,684.505083532,653.866503781,66369032.0473,1823.32742166,45720148.9916,68644813.3749,4768.46425196,4759.08511624,0.0
1.04649438666,1.14864084951,1.02147613317e-05,-47161194.3856,1.27257643002e-05,0.0,5825416.76632,678.485038343,647.276693058,66983071.5237,1687.97130075,36412952.7998,70197416.7136,4343.99819903,4335.27065824,0.0
1.22631787201,0.760010800523,1.02906770123e-05,14827457.5105,3.19252096292e-05,0.0,16294315.59,689.432928342,658.77438016,65046600.1057,1913.99116086,59919383.2249,66584732.8364,5090.44548671,5078.9310931,0.0
0.998520956599,1.15732181567,1.05290289244e-05,-95676543.4539,1.21968675218e-05,0.0,5902254.90698,677.561269723,644.223659975,67128034.6206,1623.10226082,70506928.5375,70506928.5375,4144.86049084,4136.65726555,0.0
1.08423454526,0.998160740117,9.99889350619e-06,-28051993.307,1.58504455408e-05,0.0,5769297.01883,680.799770341,649.808460026,66855713.8993,1739.74884457,35788433.3701,69319799.7469,4500.65759737,4492.10902677,0.0
1.11004168818,0.817575058576,1.04997878954e-05,-16839259.1242,2.06037488479e-05,0.0,5577556.84517,682.054821619,651.356266368,66262442.999,1770.12702318,40106541.8055,68866523.9874,4607.78304764,4597.57049433,0.0
0.970524782798,0.991058051931,9.93065298069e-06,-94309513.3879,1.39988052044e-05,0.0,5996824.162,683.196139535,642.440614868,67366800.8731,1613.03756804,69304349.8085,69535695.9118,4028.64837339,4021.20332599,0.0
1.06282638376,0.984422343976,9.83067652845e-06,-38302831.7356,1.45435116012e-05,0.0,5820369.00228,679.709052807,648.40808526,66983568.9435,1711.13028207,34721751.0729,70043775.6703,4411.79231899,4403.38590065,0.0
1.11251998363,0.797940079225,1.01849364541e-05,-16593369.7794,2.06584348134e-05,0.0,5652922.29666,682.31817005,651.543105834,66517806.257,1775.81286883,40467544.311,69175564.304,4618.07045205,4608.88585462,0.0
1.04031736225,0.649124917245,9.45161803285e-06,-54929015.9066,1.74995775924e-05,0.0,5820756.66959,679.070238118,646.889526442,66952744.4573,1679.15111639,39860015.0256,71385348.5055,4318.3573707,4309.46975204,0.0
1.12887990603,0.773433116759,1.00033254103e-05,-12099497.4377,2.24871740551e-05,0.0,5578096.16592,683.427992426,652.516543417,66303536.1894,1795.96463064,43116853.0548,67284546.798,4685.98048993,4676.12431467,0.0
1.00663500109,0.976312312177,9.7207054893e-06,-91509880.2137,1.36337400099e-05,0.0,5927710.66439,678.384688663,644.755831901,67204052.5318,1635.05658778,66879924.3824,70922171.4058,4178.54188952,4170.53736141,0.0
1.10945619017,0.689285296193,9.49302534503e-06,-19196110.354,2.16079116676e-05,0.0,5615093.952,682.84387356,651.386542463,66385439.1317,1769.80012875,39343550.5359,68744705.5088,4605.3526454,4595.14882581,0.0
1.22087749167,1.18277594432,9.94852027244e-06,12950777.6236,2.1923942509e-05,0.0,14144890.2168,689.008252231,658.408863137,65190410.6445,1905.69376055,58373366.7137,66509421.1307,5067.86246792,5055.74261307,0.0
1.15570734775,1.05088649075,1.01985464991e-05,-5158233.04214,2.13020745206e-05,0.0,5550586.5416,684.932606134,654.380012855,66254953.0149,1832.07452006,46940739.9531,68480772.5895,4797.34120051,4787.84859121,0.0
1.22123521472,1.35371264219,9.87475340685e-06,13009656.3552,1.93025771645e-05,0.0,14291297.0614,688.948350685,658.439747916,65322956.2202,1906.46111127,58464472.2415,66609693.5771,5069.3473763,5057.44607973,0.0
1.08198397799,1.21676959742,1.02783819824e-05,-28789713.2455,1.37275744063e-05,0.0,5783859.85949,680.393823984,649.667662772,66899115.0157,1737.23863297,35634544.6226,69261795.2659,4491.31549264,4482.99630205,0.0
1.16174000661,1.0797969098,9.82455380133e-06,-2715784.19237,1.91561080758e-05,0.0,5470796.72025,685.5389138,654.728111671,65979375.643,1835.69026087,48359233.2794,67825395.208,4822.38276744,4811.47788257,0.0
1.09127304981,0.886704753715,9.74967056026e-06,-25991898.0232,1.72821154931e-05,0.0,5750195.97769,681.390125947,650.226597136,66808761.4152,1748.8543115,36291550.2309,69334820.4817,4529.87442976,4521.11807668,0.0
1.08057332035,0.884295827238,1.03105473995e-05,-28538730.9414,1.71804117044e-05,0.0,5763517.84752,680.41410292,649.576104353,66840955.5765,1735.37344043,35670115.8893,69195891.4145,4485.45985277,4477.06491097,0.0
0.979623906179,0.669679855138,9.57950352868e-06,-94829779.9496,1.65070966514e-05,0.0,6009279.073,682.736868245,643.037928475,67418009.371,1619.07990214,69762239.0506,69999669.1792,4066.41883455,4059.45304878,0.0
1.09189858543,0.717257163552,1.00461158713e-05,-25207657.7262,2.01462119192e-05,0.0,5725476.91578,681.262373793,650.23629855,66730696.0085,1750.02271066,36372633.2608,69106616.6742,4532.47102812,4523.80201207,0.0
1.16839479633,1.05520676419,1.01916268403e-05,836372.561002,2.04710124579e-05,0.0,5453727.1505,685.668601957,655.143290209,65908807.1561,1844.48370094,50238722.9244,67518349.2915,4850.00679957,4839.40128506,0.0
0.992202178204,0.94577940873,1.00555602591e-05,-95259964.1417,1.40232642366e-05,0.0,5921690.81489,679.214526209,643.827883811,67168503.6742,1614.58226844,70141220.5339,70393663.2681,4118.63124172,4110.44953988,0.0
0.915957380734,1.17883635256,1.00562597653e-05,-91922769.343,1.163315356e-05,0.0,6128624.93217,690.320725026,638.924529723,67683514.5607,1598.89951166,67203279.7824,67683514.5607,3802.13908743,3795.50475598,0.0
1.04436014527,0.852148510311,1.0094244643e-05,-48962790.2093,1.55199160122e-05,0.0,5818173.63348,678.607481096,647.148763297,66958756.3203,1685.52258404,37117131.5352,71017948.8533,4335.13896302,4326.53467946,0.0
1.05971388509,0.899501346264,9.882363138e-06,-39549651.0783,1.52858949638e-05,0.0,5823686.6663,679.412770618,648.121109744,66988648.2195,1707.05886907,34817961.7093,69822051.3598,4398.87233701,4390.51444231,0.0
1.02772359119,0.976309268339,9.98431764319e-06,-62683884.0399,1.38641277296e-05,0.0,5918636.36568,677.917907558,646.106026171,67243827.7368,1665.77718363,44427555.4263,70947897.207,4266.08062703,4258.81640171,0.0
1.18104750266,0.878279976536,1.01217421769e-05,4145278.61452,2.45894440761e-05,0.0,6067605.08692,686.553353062,655.89198191,65732510.214,1860.39986919,52123277.0893,66999362.3985,4902.52818354,4891.81053065,0.0
1.185683119,0.800128683208,9.57546296036e-06,4294828.95628,2.57184048925e-05,0.0,6067577.19436,687.294392332,656.184948404,65626978.0799,1865.367051,52440120.8912,66985324.2695,4921.77062697,4910.44266014,0.0
1.07413593641,0.994324364073,1.01554003265e-05,-32558757.2454,1.55017480463e-05,0.0,5799837.31534,679.892453347,648.997573956,66947082.0401,1727.14059679,34930530.9188,69604135.1591,4458.73827204,4450.53844828,0.0
1.10428088302,0.94077215216,1.02532647906e-05,-18964013.4759,1.81625985818e-05,0.0,5625275.50977,681.831082147,651.045197922,66416196.929,1762.44045417,39222900.2882,68695224.0466,4583.86994542,4573.8531014,0.0
1.09782131002,0.822238116027,9.34289600908e-06,-24199901.5264,1.77778761775e-05,0.0,5705350.37834,682.082214071,650.598817534,66658840.7349,1755.69250652,36869055.3911,69267816.6597,4557.05625789,4547.44055573,0.0
1.00563947152,1.04209866537,9.94489723274e-06,-90846900.0786,1.32591234853e-05,0.0,5898697.65573,678.126995603,644.684088302,67117425.8685,1632.34529703,66270880.8207,70797513.6713,4174.40944628,4166.0093179,0.0
1.10106015078,0.87916669961,9.82995151236e-06,-22693978.6085,1.83827696451e-05,0.0,5723045.96564,681.941746715,650.888599276,66734867.4664,1761.9959119,37305960.3111,68868211.4563,4570.50068589,4561.68833744,0.0
1.00395599682,0.730333554435,1.01614839705e-05,-90400590.773,1.53277234352e-05,0.0,5933130.13641,677.723189709,644.585428232,67218142.1523,1632.59125226,65904293.1761,70785113.3791,4167.4213428,4160.02653547,0.0
1.14157222299,0.895687456055,1.00923142944e-05,-8978711.99833,2.19236134057e-05,0.0,5540129.83018,684.054845211,653.2902246,66187354.0842,1812.16558574,44925895.4922,68174879.2774,4738.66629763,4728.56909112,0.0
1.02772507913,0.779710907215,9.81437316706e-06,-64024097.4667,1.55204579435e-05,0.0,5913650.12293,678.134303632,646.101421012,67230016.2852,1665.72433086,45304576.5751,70909484.6962,4266.08680347,4258.78465627,0.0
1.05456915759,0.728795570075,9.95830437414e-06,-42689377.3858,1.69847699102e-05,0.0,5803099.72082,679.192297606,647.781623796,66919455.3021,1699.51911965,35251674.7392,70484085.6693,4377.51657316,4368.89306935,0.0
1.16350534067,0.97071476614,9.69854018451e-06,-1044954.40695,2.09831567888e-05,0.0,5488454.30887,685.729696553,654.849113289,66020509.0009,1838.79903791,49597770.7925,67876387.8562,4829.71066912,4819.19157333,0.0
1.15558878212,0.804421988429,1.00874452782e-05,-5365870.55502,2.56719284125e-05,0.0,5532626.30138,685.137439851,654.376283062,66197811.8592,1832.26527784,46899699.0529,68465632.8638,4796.84903458,4787.35833518,0.0
1.07710993092,1.03166250562,1.00329616146e-05,-30716624.6572,1.49635099503e-05,0.0,5793321.94395,680.138695365,649.196093037,66918573.4653,1730.38208792,35372128.1338,69338361.8415,4471.08332325,4462.64540868,0.0
1.15336866189,1.24869351401,1.00146270786e-05,-5895734.71323,1.76263857803e-05,0.0,5553432.52863,684.772673378,654.179674638,66259616.7128,1827.4584279,46521777.6422,68665603.2954,4787.63331551,4777.64510201,0.0
1.17250771215,1.06187311224,1.0557769176e-05,2645001.28768,2.0962553519e-05,0.0,5404549.13958,685.677522021,655.35934456,65713614.7587,1848.51553651,51100910.1011,66960093.8067,4867.07951313,4856.20597133,0.0
1.21518152416,1.07522115244,1.00617743435e-05,11847337.2115,2.33749587863e-05,0.0,13117274.6576,688.623746596,658.038732179,65259208.915,1899.75827895,57483784.015,66327338.818,5044.21850679,5032.43277975,0.0
1.22764371674,0.801129148764,9.49707697132e-06,14068435.03,2.93562631267e-05,0.0,15518382.6697,689.984716929,658.851766893,65062373.1962,1915.19210338,59300589.7108,66518678.9486,5095.94906819,5083.83458897,0.0
1.07033900919,0.76887648467,9.43406440565e-06,-34810688.1678,1.698340954e-05,0.0,5810188.53876,680.356822964,648.811754084,66959503.6255,1721.02912769,34755957.7496,70320032.2159,4442.97722715,4434.45474198,0.0
1.10353795388,0.956067116017,1.03839956483e-05,-18488976.9436,1.77060147242e-05,0.0,5669004.56241,681.634598036,651.012278172,66553535.622,1763.19590103,39386038.0569,68733169.7066,4580.78604656,4571.45282279,0.0
1.03406183299,0.878512587604,1.02407225618e-05,-55496969.6069,1.48219219053e-05,0.0,5836183.24054,678.021124197,646.4899173,66994869.068,1671.64643622,40108107.3036,70885606.0767,4292.39066874,4283.86385723,0.0
1.16305239797,0.775190254932,9.39581503178e-06,-3039435.05869,2.5900547705e-05,0.0,5523297.63865,685.971298629,654.797563672,66181251.5772,1841.00851957,48669031.377,68553913.1292,4827.83050397,4817.99094447,0.0
1.27426456749,0.853985698328,9.82966419669e-06,23925130.1862,3.32299441505e-05,0.0,25670716.3375,692.670842936,661.756294031,64334700.5026,1967.39069602,66852282.7765,67765225.0529,5289.47221965,5276.622783,0.0
1.00717571609,1.158300553,9.97656609889e-06,-89096161.6704,1.21604312605e-05,0.0,5901570.56071,677.945933621,644.779054515,67128982.1136,1634.31701208,64781774.756,70913332.1612,4180.78639749,4172.36114966,0.0
1.13307558046,1.00761858964,1.00921223564e-05,-11216518.3186,1.95015366516e-05,0.0,5581702.28793,683.516733235,652.797163713,66304415.1232,1801.21114049,43557606.2821,67611265.4515,4703.39673449,4693.46823857,0.0
1.04318555016,0.695973744382,1.03027304591e-05,-48431347.0913,1.69118996297e-05,0.0,5801416.0775,678.439908871,647.070596484,66904411.91,1683.89785859,36898283.7234,70676265.6986,4330.26321871,4321.58964824,0.0
1.01146497044,1.14946235021,1.00809797225e-05,-83525545.3897,1.22514683337e-05,0.0,5886458.36341,677.684007875,645.050072645,67090981.3842,1640.07436405,60079577.0865,70687222.4913,4198.5910923,4190.09555057,0.0
1.12909472356,1.04197640239,9.90701235818e-06,-12324687.7063,1.84277005218e-05,0.0,5604884.21839,683.442598799,652.605617487,66383789.9311,1795.97034141,43025918.6038,67334076.2666,4686.8721975,4677.01238669,0.0
1.11356287395,0.892045230081,1.0049507971e-05,-16422704.7655,1.93143861172e-05,0.0,5666613.86384,682.423587302,651.61209369,66556710.7482,1777.23701181,40583737.1189,69243956.9718,4622.39948977,4613.19698262,0.0
1.11621259611,0.883956855121,9.81898966769e-06,-17819267.7135,1.95692838897e-05,0.0,5673416.19073,682.785347707,651.79544448,66587925.5725,1781.35165399,39805397.3485,69188609.2086,4633.39848645,4624.24375127,0.0
1.05718261575,0.79148922499,9.63188097065e-06,-44201647.3356,1.66331419247e-05,0.0,5793237.98149,679.616082706,647.947749179,66893346.5309,1702.08116122,35610073.3452,70375724.1746,4388.36503798,4379.37121842,0.0
1.12281170565,1.09992875368,1.02364923535e-05,-13853445.3045,1.73337779746e-05,0.0,5621470.25306,682.793490053,652.18984173,66419751.3369,1788.10601487,41891621.2004,68024587.6584,4660.79139015,4651.13715119,0.0
1.17917857095,1.0640829161,1.0112718063e-05,3255495.08788,2.09079249125e-05,0.0,5393862.55185,686.376390306,655.779166346,65719921.5725,1856.90554205,51569278.1685,66997396.0648,4894.77024801,4883.65761124,0.0
1.06518661171,0.803586102394,9.7268912407e-06,-37592398.8979,1.65891819116e-05,0.0,5809921.98561,679.865504767,648.477078639,66954225.8567,1714.37656359,34689983.9323,70140332.0916,4421.58962521,4413.14633448,0.0
1.11835272491,0.595677353487,9.95740817348e-06,-15141556.9027,2.51084592553e-05,0.0,5622870.63182,682.947739503,651.893191108,66428254.294,1783.83925222,41195786.3443,69115129.6535,4642.2821611,4633.00201498,0.0
1.13530876545,0.899922455957,1.02489998856e-05,-10839987.9982,2.20657975182e-05,0.0,5607324.86441,683.652095389,653.038181569,66405005.4239,1806.35559984,43809697.1835,67828050.9951,4712.66668538,4703.52682251,0.0
1.22328312787,1.0386349585,1.01330987145e-05,13692188.746,2.48639592931e-05,0.0,14992001.4117,689.141730767,658.571126724,65149617.5923,1909.12867658,58997241.943,66561051.3314,5077.84826379,5065.93682621,0.0
1.19911026582,0.920807312322,1.01251801149e-05,9015360.68685,2.50986440961e-05,0.0,10439739.3648,687.672185428,657.058102254,65496621.2871,1881.44202771,55307011.9089,66757473.0107,4977.50671342,4966.35837593,0.0
1.12202910766,1.00535375388,9.60024661102e-06,-15323125.4151,1.84410344973e-05,0.0,5687833.43446,683.151926106,652.142523987,66644861.4154,1789.16459258,41305715.2242,69278168.1104,4657.5428259,4648.51000961,0.0
1.12968911806,1.17263941431,9.70819476858e-06,-12454227.7088,1.66279479804e-05,0.0,5642620.73559,683.52625298,652.650822562,66510467.1638,1797.51499507,42830788.5107,67896436.1936,4689.33952907,4679.74768971,0.0
1.07142149143,0.982714452657,1.00701476118e-05,-32662059.0599,1.52010874664e-05,0.0,5792518.03589,679.824479534,648.837427779,66907660.2034,1722.27315547,35032969.6016,69670514.4092,4447.47061093,4438.92989088,0.0
1.00381621944,1.13950447756,9.85349137712e-06,-92975423.5655,1.20438821853e-05,0.0,5989194.62468,678.026641798,644.590397262,67399087.9753,1633.4435844,68133350.7935,70997337.2795,4166.8411269,4159.87768096,0.0
1.1040485553,1.08212350797,1.0067200703e-05,-19279279.8645,1.59341597933e-05,0.0,5669230.21826,681.865459242,651.053696353,66543200.7964,1762.97483993,39043334.3087,68704077.4657,4582.90555305,4573.17745986,0.0
1.2024897325,0.748237564232,9.70898958242e-06,9115951.50448,2.88697756849e-05,0.0,10601042.5157,688.335366989,657.261372746,65332496.8008,1885.21041055,55450530.4941,66732756.3727,4991.53487961,4979.87578381,0.0
0.967449591404,1.14641149378,1.01122864568e-05,-94145659.4431,1.24976044999e-05,0.0,6038052.77631,683.409544459,642.250197518,67505241.3294,1614.47869652,69159968.8289,69388463.3346,4015.88325392,4009.12138073,0.0
1.10104343363,0.935222137062,9.97028541007e-06,-22318522.1275,1.78131701286e-05,0.0,5721235.325,681.82281352,650.889907208,66717157.5738,1761.90125705,37410257.5414,68655319.0666,4570.431293,4561.61920814,0.0
1.06350460211,1.01893024059,9.46250261068e-06,-38518834.012,1.38957187228e-05,0.0,5832346.89612,679.884614475,648.368881201,67011720.204,1711.42969592,34756689.2891,70085639.4238,4414.60760336,4406.00499806,0.0
1.0672408827,0.889664823067,9.96562172439e-06,-35714843.5728,1.58517679163e-05,0.0,5801218.8138,679.764346225,648.611540519,66935589.473,1717.03287197,34669002.3288,70092549.1569,4430.11690409,4421.64146704,0.0
1.06755884286,0.9864867593,1.02727596828e-05,-34805255.5464,1.51050070686e-05,0.0,5797797.98152,679.524178264,648.633463827,66925062.8739,1717.7088188,34690377.2322,69839474.4415,4431.43675671,4423.05031712,0.0
1.11434039566,1.04266141227,9.62181601336e-06,-17476740.2623,1.70927359561e-05,0.0,5628454.70213,682.794482989,651.666673203,66438647.6682,1775.6941094,40062382.2006,69089875.5642,4625.62698238,4615.33772733,0.0
0.978204887917,0.911428816386,9.96935855423e-06,-94866295.553,1.43222651353e-05,0.0,6022311.38009,681.49756187,642.947786866,67460897.3579,1613.75906027,69794342.2487,70032119.6094,4060.52848974,4053.83731664,0.0
1.0269259647,0.873736080225,1.00360044308e-05,-61984978.3707,1.46968287e-05,0.0,5903731.54735,677.856718677,646.041167415,67195170.1923,1664.1476418,43987568.7096,70883088.9202,4262.76967947,4255.34379529,0.0
1.09668388671,0.832301918178,9.95047146184e-06,-23970947.0048,1.87672702619e-05,0.0,5724367.38688,681.589101711,650.575146187,66734917.371,1756.17285143,36826188.2181,69053309.939,4552.33481373,4543.59071301,0.0
1.19626162998,1.18079556174,1.01050328887e-05,8405104.14695,2.02397053784e-05,0.0,9832297.20545,687.341369559,656.89089974,65616779.4647,1877.55167042,54875492.6872,66778688.1343,4965.68202605,4954.58489081,0.0
1.19336867195,0.815951029215,9.63539971946e-06,6403056.28476,2.61146070242e-05,0.0,7947266.34989,687.709792862,656.683827145,65583534.7849,1875.02552136,53691290.885,66819042.8478,4953.67335726,4942.4234668,0.0
1.0411362214,0.913384096148,1.01642423543e-05,-50738762.9796,1.45983063823e-05,0.0,5834223.25797,678.335166386,646.91334048,67004524.0728,1681.56683069,37833982.3475,70859146.2669,4321.75645503,4313.29226184,0.0
1.09934492506,0.816919841392,1.01818110578e-05,-22469354.6301,1.9420790478e-05,0.0,5704916.05347,681.633438918,650.780248068,66669912.6794,1759.63635976,37298289.0892,68444370.6601,4563.38078392,4554.59557597,0.0
1.19249183646,0.814268671806,9.87325291765e-06,5990911.43394,2.66651038238e-05,0.0,7541678.58366,687.602774471,656.623496164,65416145.1084,1872.91656388,53216469.8249,66663444.9762,4950.03361315,4938.35454989,0.0
1.21582381694,0.834852597573,1.00484108582e-05,12415764.3463,2.83570384513e-05,0.0,13688823.4985,688.803547445,658.097949377,65275341.2861,1901.97141594,57911762.465,66396166.3343,5046.88466412,5035.55729219,0.0
1.12577521229,0.732195707376,1.01056571218e-05,-13215033.2267,2.36084271869e-05,0.0,5629650.03557,683.210140256,652.404686801,66473619.5804,1794.19844386,42456592.7933,68122561.8785,4673.09290622,4664.10436716,0.0
1.21183084221,1.02538692638,9.96996245426e-06,11051200.6133,2.40305547971e-05,0.0,12356891.7796,688.485617968,657.790923205,65252214.5159,1895.41571365,56828990.0706,66460340.7708,5030.30982601,5018.36664388,0.0
1.13267831323,1.09147543187,9.85080472913e-06,-11489360.7797,1.80666102608e-05,0.0,5618900.33401,683.677683657,652.855501325,66429331.0107,1801.37962234,43500464.195,67591507.9424,4701.74767822,4692.10633282,0.0
1.11879018482,0.731441340579,9.83849898932e-06,-15090347.8268,2.20989457473e-05,0.0,5651061.70974,682.938264535,651.926486639,66519025.5713,1784.35285135,41282537.7454,69246034.2527,4644.09805719,4634.90621506,0.0
0.993385260746,0.881771914505,9.95198405745e-06,-95321170.5203,1.45792504172e-05,0.0,5919648.39832,679.328216957,643.903495161,67161588.9981,1616.13303759,70195073.0151,70443741.0813,4123.54221736,4115.34117722,0.0
1.06867335156,1.04651296437,9.55729343306e-06,-36087183.0864,1.38560102571e-05,0.0,5826921.46277,680.071603588,648.703419777,67009745.032,1718.82950223,34718280.4926,70391435.33,4436.06308233,4427.56643377,0.0
1.07890490289,1.03861317136,1.00625225145e-05,-29765321.073,1.50139997801e-05,0.0,5783812.12601,680.411834438,649.449603227,66892516.6382,1732.73018843,35498889.6262,69323187.1294,4478.5342519,4470.06851446,0.0
0.977694854468,0.870199206806,9.74478848369e-06,-94768306.8052,1.46520437012e-05,0.0,6023992.89038,682.442746847,642.914058033,67462621.8874,1616.88139474,69708013.296,69945529.6561,4058.4113409,4051.55520857,0.0
1.10527487857,0.999904517847,9.65636498585e-06,-18917742.548,1.64854126605e-05,0.0,5705896.47481,682.208808304,651.151941817,66658626.0609,1765.66696351,39326203.8007,68774673.7834,4587.99602094,4578.65168513,0.0
1.05785735742,0.982812903978,9.76663175506e-06,-41878474.0898,1.4432700703e-05,0.0,5818812.56421,679.390681113,647.979869208,66971490.7695,1703.64073252,35184886.0277,70120689.2182,4391.16589065,4382.48949034,0.0
1.14180097057,1.1339257304,9.94889377841e-06,-9258563.60827,1.81347748124e-05,0.0,5570333.32786,684.028391225,653.319242507,66277138.0245,1812.23917601,44819576.3168,68215383.5568,4739.61582884,4729.51304057,0.0
1.19109217126,1.03888564004,1.01222399263e-05,5891811.24379,2.23073287021e-05,0.0,7430265.05377,687.188713272,656.543339961,65472440.2623,1870.57234671,53039364.4675,66652032.3025,4944.2236029,4932.59030743,0.0
1.1047904464,1.05569132331,9.80199964667e-06,-21316325.2999,1.63576834002e-05,0.0,5722864.44613,682.099156127,651.130421314,66733621.1574,1766.43758451,37930208.9962,68684768.2056,4585.98514301,4577.01250083,0.0
1.01739875979,0.886403993484,1.04080253588e-05,-69341771.1247,1.43404955917e-05,0.0,5882566.45467,677.380364614,645.436595549,67107920.2062,1650.12869145,48964017.6296,70683132.2493,4223.22225189,4215.35949185,0.0
1.02651160563,1.01909627315,1.02850204549e-05,-63338807.629,1.36096347047e-05,0.0,5854352.98771,677.664591723,645.994984367,67041732.9335,1661.37017646,44786831.8219,70854338.267,4261.04967497,4252.64498452,0.0
1.15009756053,1.01583824222,9.89985103793e-06,-7444330.28679,2.10902842216e-05,0.0,5583405.36081,684.706361498,653.961643145,66344706.8673,1825.17879898,45930566.8787,68687463.2077,4774.05497376,4764.65255822,0.0
1.12384963235,1.00771047493,1.00287267713e-05,-13426008.6702,1.8612978879e-05,0.0,5613757.84245,683.044089389,652.255973786,66404520.2308,1789.25462384,42314671.9558,67965514.4214,4665.09982388,4655.3286279,0.0
1.17666794041,0.81217088566,9.94792383546e-06,2506300.51169,2.53537485479e-05,0.0,5413989.09712,686.461764331,655.642822626,65799906.9106,1855.49163161,51309017.0955,67062824.2197,4884.34862064,4873.70563628,0.0
1.18359960149,0.628302273299,1.02852224834e-05,5572897.28788,3.13606016336e-05,0.0,7163621.77496,686.832861229,656.054622383,65536049.8326,1863.55368707,52954038.5646,66798182.6477,4913.12194579,4902.36574754,0.0
1.13026863876,0.758773682724,1.01791474255e-05,-11646371.5294,2.30798706648e-05,0.0,5561120.88714,683.529045784,652.689722204,66238788.3233,1797.88866061,43240688.293,67358448.8065,4691.74511949,4681.86501833,0.0
1.18908628981,0.894920155249,1.00605100367e-05,5829535.62996,2.46715489234e-05,0.0,7357647.0133,687.15425552,656.40159371,65530955.0531,1868.81854766,53040630.8368,66704070.9384,4935.897189,4924.51411518,0.0
0.986499809557,0.99675626904,9.90731372627e-06,-95064873.6062,1.36391591744e-05,0.0,5942795.92633,680.405762473,643.462202861,67225047.2978,1612.22084052,69969430.4992,70212760.3319,4094.96070947,4086.8709981,0.0
1.24754454222,0.894000105009,9.8391470207e-06,18975464.7379,2.99598093843e-05,0.0,20582115.5843,690.960182585,660.050038664,64706310.897,1936.86749756,63173306.8381,65557345.5903,5178.55739476,5165.95843595,0.0
1.15175460785,0.728367821843,9.7224876625e-06,-5308124.02982,2.56403251462e-05,0.0,5491305.59115,685.175389193,654.069632665,66054620.134,1824.83377943,47257926.5682,68609217.1498,4780.93337719,4770.57325398,0.0
1.01096937869,0.847646854423,1.03247180784e-05,-75517132.5739,1.4152076833e-05,0.0,5903106.13398,677.254939653,645.013910435,67134524.2985,1641.21064609,53635440.6479,70584414.8403,4196.53389094,4188.77704943,0.0
1.15141800171,0.852315993825,1.018003086e-05,-6350124.12366,2.43888623062e-05,0.0,5549653.99733,684.725969387,654.068104425,66247886.384,1826.88533636,46340330.5388,68592435.8858,4779.5361251,4770.11419481,0.0
1.17260720569,0.885143432417,1.00976803204e-05,1731549.01584,2.36906605879e-05,0.0,5388934.63653,686.126426932,655.378763635,65711329.166,1848.8868888,50694472.0641,66950676.2069,4867.49251082,4856.39321444,0.0
1.09061096992,1.04792514575,9.84632845235e-06,-26369263.325,1.55798062592e-05,0.0,5762059.92471,681.221515569,650.189382786,66840030.9428,1748.05542137,36221762.8271,69351591.1298,4527.12613614,4518.47802938,0.0
1.04786954345,0.920000159163,1.01464418442e-05,-47079313.4077,1.50283632519e-05,0.0,5812221.80277,678.702773921,647.364771688,66948630.514,1690.14237453,36464275.6832,70207919.2781,4349.70647486,4341.04536701,0.0
1.01955336678,0.974148091935,9.94687918111e-06,-72938542.2153,1.36495639398e-05,0.0,5938110.08928,677.786584,645.598149299,67286322.7174,1654.7590067,51650172.4076,70957863.1639,4232.1660255,4224.98041365,0.0
1.02088561539,1.08481732252,9.91597955426e-06,-71634873.7922,1.26723374646e-05,0.0,5941756.41653,677.788355548,645.671287148,67301763.2758,1656.44230849,50676379.3162,70957364.204,4237.69618948,4230.4916332,0.0
0.909532450762,0.933950067147,1.00240350619e-05,-91531523.1471,1.35986511842e-05,0.0,6117479.0424,691.418807176,638.507291171,67641034.8538,1597.34032247,66859073.7268,67641034.8538,3775.46920311,3768.6788174,0.0
0.984161665473,0.962100431932,9.9083197924e-06,-95182165.604,1.35448135809e-05,0.0,6000505.58802,680.373758159,643.327090246,67391512.2848,1612.2272034,70072576.6101,70314054.8744,4085.25507338,4078.1481899,0.0
0.981774693841,0.926220773275,1.02870173195e-05,-94744190.5252,1.41082782299e-05,0.0,5940419.09309,680.278185003,643.15793439,67210476.5644,1608.96820298,69687054.8778,69925941.4181,4075.34675413,4067.41292793,0.0
1.03081171894,0.986463697613,1.03482198159e-05,-59492765.8688,1.40111469009e-05,0.0,5819557.86827,677.774501565,646.267917569,66943933.8124,1665.82132255,42298193.3112,70622369.7822,4278.89944532,4269.99934499,0.0
1.18621255114,0.918786581199,9.52406307015e-06,4361014.38464,2.3341057323e-05,0.0,6195465.95909,687.213931445,656.230061302,65789228.5248,1866.91880571,52632226.0135,67109954.9661,4923.96829978,4913.059027,0.0
1.10891400493,1.05840512279,1.0105376865e-05,-17708223.2883,1.66846758223e-05,0.0,5649243.06597,682.115503775,651.335810822,66491574.5846,1769.24015887,39832884.7395,68976834.78,4603.10203446,4593.29014039,0.0
1.12910431893,1.1861608869,1.01377304664e-05,-12167897.3527,1.67073559122e-05,0.0,5609874.99058,683.13155203,652.529525288,66385390.58,1795.93647264,42998722.1597,67375458.2157,4686.91202788,4677.05163971,0.0
1.00443249494,0.947140838072,1.01463011263e-05,-90317722.4606,1.41010869211e-05,0.0,5887559.63988,677.884592233,644.605036676,67084523.6255,1630.85654528,65824400.6052,70756580.4412,4169.3992865,4161.0201464,0.0
1.05382817317,1.12207645759,9.99837829844e-06,-42969938.2421,1.29395456152e-05,0.0,5828440.33336,678.967629718,647.738486413,66996875.9234,1698.2420501,35363122.0549,70559046.0527,4374.44074683,4365.83055952,0.0
1.12676575273,1.1415429244,9.87631605168e-06,-13048194.9838,1.68692855934e-05,0.0,5650665.02027,683.239279119,652.460288547,66523993.2247,1794.14759317,42411114.6893,68215086.227,4677.20463958,4667.78832024,0.0
1.10949410513,0.850669384816,9.91217858977e-06,-17802457.2514,1.92418112828e-05,0.0,5632739.68649,682.396653429,651.373850077,66446547.7085,1770.02607034,39892602.2981,68943363.7583,4605.51003039,4595.59119732,0.0
1.11245790049,0.978185914611,9.89698262355e-06,-17089988.3048,1.80194484204e-05,0.0,5683435.94176,682.447048398,651.567864622,66619487.3476,1775.76651049,40269103.1609,69170512.2164,4617.81274493,4608.6281109,0.0
1.10657075366,1.13358976542,1.05372053546e-05,-17552518.3454,1.58761322957e-05,0.0,5667339.68697,681.62248199,651.187313744,66539024.7947,1767.22896438,39831466.425,68905361.5014,4593.37519844,4583.99089763,0.0
1.12037510515,0.870937686895,1.03713516327e-05,-14089898.1535,2.04603113718e-05,0.0,5604203.19144,682.671850857,652.028928324,66364352.15,1785.25435272,41712006.8388,68149745.6871,4650.67706148,4641.06356834,0.0
1.12706751021,0.771122240585,9.85271428179e-06,-12806597.284,2.22565899419e-05,0.0,5611108.75504,683.472543991,652.477647059,66397182.3461,1794.57423024,42508304.6034,67984496.172,4678.45723488,4668.9341512,0.0
1.18090641576,1.13855575299,1.02303291505e-05,4227387.38871,1.99425317838e-05,0.0,5994436.31702,686.317792428,655.872908414,65749949.2141,1859.10703375,52176686.1274,66883525.1753,4901.94253182,4891.0086474,0.0
1.12957409155,0.740989055305,1.01611257928e-05,-11846547.0897,2.32904114374e-05,0.0,5565022.52288,683.399842021,652.562929832,66248692.7628,1797.03040603,43119654.9356,67301073.1547,4688.86205402,4678.99371406,0.0
1.11036696043,0.887635290731,1.01497562178e-05,-17332413.0059,1.91616628594e-05,0.0,5669187.72317,682.194791997,651.434058759,66564162.7788,1772.93347887,40087189.1529,69053921.4132,4609.13325274,4599.98251776,0.0
1.14872663735,1.05705670157,9.92835472016e-06,-7739590.56155,2.03117963139e-05,0.0,5590690.93229,684.564753183,653.862032965,66365858.225,1823.38140932,45702395.5794,68616763.3641,4768.36427164,4758.98384453,0.0
1.05867924663,0.841573356623,9.55638344875e-06,-43780270.2639,1.61176351001e-05,0.0,5795963.66012,679.720306375,648.03797863,66903328.1224,1704.00816529,35519829.3496,70355335.5223,4394.57755276,4385.55887849,0.0
1.07391825016,1.01935957635,1.04120236438e-05,-30521435.5117,1.52639658681e-05,0.0,5774355.48291,679.876805714,649.116942222,66855240.4166,1725.84774393,35223058.3497,69222709.0327,4457.83465641,4449.34950844,0.0
1.15593471365,0.740282144421,1.00431358396e-05,-5349374.04875,2.70554659678e-05,0.0,5526643.85225,685.227032991,654.398638501,66179408.8794,1832.8066762,46936772.2387,68455085.8148,4798.28499636,4788.78872412,0.0
1.10361144068,0.854397629696,9.88201836986e-06,-21745115.8258,1.89835081503e-05,0.0,5711073.53035,682.079059824,651.059688054,66703946.3043,1765.34384887,37674064.3726,68573084.1499,4581.09109026,4572.23847568,0.0
1.23541774077,0.925403539979,9.76167158548e-06,16147198.5636,2.75999904704e-05,0.0,17705228.5719,690.168636311,659.34820627,65034190.9558,1924.16776508,61064571.3216,66805614.5133,5128.21904194,5116.24344696,0.0
1.12057907145,0.835974410149,1.02510863023e-05,-14349049.89,2.07764997853e-05,0.0,5605444.55884,682.776305145,652.042287755,66367165.3483,1785.51948007,41660156.1176,68312215.8149,4651.52372559,4641.90584668,0.0
1.18455052208,0.939298234918,1.01480100906e-05,4926715.95941,2.3728007158e-05,0.0,6552452.84268,686.718080754,656.113646869,65714110.7303,1864.52087854,52631276.09,66961933.5619,4917.06921715,4906.29053661,0.0
1.18969959034,1.03867061376,9.87941180259e-06,5240965.88615,2.19441255821e-05,0.0,6845697.51658,687.220085799,656.434936829,65551266.0794,1869.14460676,52817333.6334,66853453.5536,4938.4429995,4926.81560943,0.0
1.22558039737,1.00417766974,9.69042381535e-06,13821545.6727,2.51387198634e-05,0.0,15243746.2718,689.542741545,658.722819601,65208802.7016,1912.61767961,59156093.7256,66624851.916,5087.38422948,5075.53585267,0.0
1.18064250281,0.89062093794,1.03065321655e-05,4605963.45018,2.45281597197e-05,0.0,6282784.82662,686.398165859,655.860347946,65692941.0308,1859.55526713,52336211.6976,66961122.227,4900.84702916,4890.13884588,0.0
1.07442526046,0.956151882063,1.02037632983e-05,-32252380.1909,1.59726286877e-05,0.0,5790689.32088,680.069307948,649.143715645,66919951.0426,1727.53717417,34966991.8842,69505836.8593,4459.93925617,4451.73353453,0.0
1.07987792063,1.09910449365,9.56966744018e-06,-31194748.6619,1.40916570565e-05,0.0,5809653.01422,680.597486718,649.379831002,66979590.1548,1733.95320739,35325832.4525,69523794.6944,4482.57324854,4474.09241318,0.0
1.05938980833,0.876784864628,1.05639626464e-05,-37291890.9076,1.60436987258e-05,0.0,5812091.7874,678.875863456,648.106648096,66964144.8923,1707.6874579,34622513.6661,69855320.4753,4397.52709438,4389.54961795,0.0
1.20726357197,0.94237790714,1.05315189092e-05,11243028.1102,2.60154511877e-05,0.0,12461413.1086,687.884704053,657.522219041,65315607.462,1890.69933942,56870687.871,66413772.4931,5011.35108725,5000.05052021,0.0
1.14437004546,1.0817120253,1.0079615929e-05,-8602647.64207,1.97227437258e-05,0.0,5600471.8928,684.152456201,653.549287378,66392265.082,1817.76420641,45130708.6005,68365809.5457,4750.2800587,4740.96936867,0.0
1.15375343798,0.740656588564,1.03722723139e-05,-5170633.14545,2.72208677411e-05,0.0,5518278.90432,684.884085778,654.254906425,66117181.2833,1829.86044157,46832365.7114,68325038.8821,4789.23052106,4779.77105545,0.0
1.16209434252,1.08085936791,9.76414873788e-06,-2936983.42146,2.0696547114e-05,0.0,5545922.08352,685.562280394,654.781909261,66229104.4903,1839.5248247,48605902.064,68475478.7878,4823.8536158,4814.13816121,0.0
1.21295921526,1.02004845037,1.04024127012e-05,11832558.5378,2.47935680084e-05,0.0,13059802.4852,688.350273078,657.900001695,65179014.4832,1896.58149623,57377721.8312,66241198.8472,5034.99370254,5023.16640469,0.0
1.05042578324,0.752890352743,1.03042254463e-05,-44695034.7953,1.68060610949e-05,0.0,5786767.13252,678.764477334,647.525343115,66874157.4841,1693.50943674,35671911.3377,70356508.8949,4360.31742623,4351.52558559,0.0
0.993407744751,1.27149117146,9.52338356578e-06,-95515829.6503,1.13023803352e-05,0.0,5955440.97993,680.111055056,643.908796543,67266152.9922,1616.21836363,70366433.5281,70605285.1598,4123.63554846,4115.35683755,0.0
0.973084310541,1.124728871,1.00333875756e-05,-94422626.2735,1.26921320748e-05,0.0,5995112.47688,682.47901777,642.60462732,67367958.3281,1612.4673898,69403914.7273,69636077.1908,4039.27297306,4031.78887826,0.0
1.01056758402,0.94764694558,1.01304118297e-05,-83953025.3167,1.41759466167e-05,0.0,5873158.58365,677.717254018,644.993272413,67049614.3509,1639.04440867,60432178.166,70621921.6397,4194.86604127,4186.38522563,0.0
0.986361272433,0.950709489313,1.04059101583e-05,-94914281.545,1.39187110363e-05,0.0,5925340.12464,679.257125859,643.451111226,67175889.0156,1608.6067549,69836947.5646,70078351.6142,4094.38564187,4086.37729582,0.0
1.07944434429,0.899711023253,9.6883405812e-06,-30931804.5164,1.63880161524e-05,0.0,5792544.20331,680.573777922,649.350873586,66925858.9572,1733.54352122,35372194.5785,69388039.0201,4480.77347315,4472.29936679,0.0
1.16467985764,1.08234242934,9.75989152569e-06,-2222702.78102,2.08583106182e-05,0.0,5536769.05057,685.717758625,654.940361526,66203883.2876,1842.75208074,48981252.8926,68302864.6556,4834.58608906,4824.82833545,0.0
1.15492598506,1.03261483032,9.89529776078e-06,-5603124.80987,2.07718321831e-05,0.0,5526050.20475,685.066377131,654.275498692,66168388.7077,1829.33442998,46739532.9755,68545327.0837,4794.09776398,4783.97812864,0.0
1.0986116136,0.902381139356,9.87906513763e-06,-23363249.1978,1.79141576453e-05,0.0,5729830.53479,681.732226184,650.712062678,66751667.387,1758.76524838,37057076.36,69131782.9543,4560.33680805,4551.56303358,0.0
1.21577065932,0.928157441014,1.03578824149e-05,12872392.0908,2.68826323341e-05,0.0,14113056.6547,688.558855196,658.099563081,65264167.2217,1901.24725405,58277479.6046,66461469.952,5046.66400684,5035.34511953,0.0
1.15006525816,1.07142452356,9.82597961269e-06,-7621222.86445,2.00756269154e-05,0.0,5592398.85817,684.708435589,653.953095871,66371552.1007,1825.11299947,45811843.2413,68686109.0588,4773.92088662,4764.51898942,0.0
1.08244145937,1.12167464217,9.91912534519e-06,-29018582.1823,1.42052636934e-05,0.0,5786048.19804,680.698287555,649.691921338,66902557.9392,1737.3113455,35719396.1373,69374296.2366,4493.21449784,4484.69383226,0.0
0.924352985366,0.684444027854,1.03000095654e-05,-92085109.6072,1.55707807468e-05,0.0,6055201.61493,688.92033563,639.459354009,67476153.4247,1599.10054943,67346355.481,67551258.799,3836.98924225,3829.94451775,0.0
1.20949169834,1.17396439062,1.01810774601e-05,10769276.9253,2.140002748e-05,0.0,12042527.1348,688.088903647,657.636914388,65328027.2405,1892.4812404,56578192.6709,66490993.726,5020.60003981,5008.83668247,0.0
0.946566249414,1.11067351848,1.04631794209e-05,-92994347.629,1.26600649976e-05,0.0,6017632.12552,685.600236923,640.888726448,67406483.049,1604.95152478,68146792.56,68361772.9665,3929.19650132,3921.81205635,0.0
1.05092636038,0.936771402578,9.66599385884e-06,-45356730.9969,1.44587642842e-05,0.0,5827246.0271,679.275380743,647.640927659,66983842.9097,1693.96804495,35960470.5159,70664557.4317,4362.39532194,4353.65105286,0.0
1.018870284,1.04129463613,1.02055764639e-05,-69131016.7025,1.30692598338e-05,0.0,5892672.29001,677.543280905,645.532448317,67137099.143,1651.79597722,48801681.842,70841799.8621,4229.33054888,4221.35890956,0.0
1.13315294642,0.85892226498,1.01859587969e-05,-10991427.8559,2.17978487503e-05,0.0,5562875.34686,683.533416057,652.799141244,66248607.0413,1801.44037379,43665783.3046,67605767.387,4703.71788059,4693.78807166,0.0
1.01816025166,0.781120573865,9.67911850615e-06,-77061931.5519,1.52917907072e-05,0.0,5943534.78586,678.120162349,645.504945969,67296031.3681,1652.93933248,54849962.3857,71350090.1473,4226.38320464,4219.21737998,0.0
1.17076295481,1.32495143218,1.05035162914e-05,2051533.83824,1.71580482464e-05,0.0,5439109.29264,685.466033969,655.257662535,65819735.6604,1846.14523706,50819061.316,67104399.958,4859.83702542,4848.99437208,0.0
1.04930914648,0.892857598941,1.03455663584e-05,-45131251.9684,1.53655020346e-05,0.0,5796791.52917,678.621175199,647.457336738,66903389.5096,1691.922149,35803583.9104,70338170.7985,4355.68226704,4346.90870882,0.0
1.21558453258,1.06722015826,9.95197578362e-06,11824167.2286,2.33415186511e-05,0.0,13082094.785,688.704149164,658.060729402,65300422.4639,1900.45245857,57471114.4823,66339891.0193,5045.89139474,5034.11895629,0.0
1.04536186129,0.991701874648,1.04103781359e-05,-47220168.6321,1.43330057327e-05,0.0,5815619.66105,678.340297288,647.20693807,66951587.2729,1687.04835357,36494080.585,70297912.4613,4339.29708621,4330.76548097,0.0
1.09987713739,0.763338053295,1.00094975753e-05,-20596108.8858,1.89629617772e-05,0.0,5674788.11053,681.822071777,650.796875248,66547024.3161,1758.50509068,38027823.5582,68443701.5508,4565.58999731,4556.00205825,0.0
1.12230773326,1.12266259216,1.00489968667e-05,-14389575.5999,1.73582053994e-05,0.0,5676467.75516,682.822999473,652.173270472,66611288.5698,1789.3623901,41794347.7948,68765990.8176,4658.69940076,4649.76631342,0.0
1.15574360259,1.09622297119,1.01157027963e-05,-5355912.73371,2.04661405685e-05,0.0,5558649.05418,684.967585091,654.386140509,66278929.7913,1832.11360003,46917391.6643,68541751.4276,4797.49169435,4787.99850101,0.0
1.12778282645,0.776618135605,1.01860430262e-05,-12290925.2452,2.24859513876e-05,0.0,5572025.92997,683.34027183,652.518076788,66266774.9218,1794.67834133,42906187.8775,67183108.8205,4681.42651259,4671.58847954,0.0
1.13456200083,1.11714206371,9.9263767348e-06,-10066370.5037,1.79078337469e-05,0.0,5610842.52633,683.719631505,652.981329678,66409960.4951,1803.49218483,44505671.9726,67848291.7782,4709.56686545,4699.89667559,0.0
1.17188677504,0.943402046084,9.93138539276e-06,832130.438982,2.26404639106e-05,0.0,5445893.99562,686.129938679,655.366045361,65896780.5257,1849.57597804,50407572.3068,67499432.5278,4864.50200319,4853.91653312,0.0
1.16898890591,0.900911081762,1.03203702981e-05,1633564.24476,2.32699450051e-05,0.0,5420639.29541,685.70096391,655.158220298,65786816.3528,1844.87452463,50636434.2735,67282344.1175,4852.47294843,4841.77453581,0.0
1.17328641217,0.978768515985,1.00614564715e-05,1779786.24077,2.20224389705e-05,0.0,5400136.09314,686.122363999,655.421566442,65745934.8597,1849.60876829,50759375.6311,66982833.1154,4870.31189692,4859.20036409,0.0
1.25245966952,1.03543329387,9.80116251125e-06,20008143.7089,2.7081714151e-05,0.0,21743572.3555,691.101397936,660.358632922,64836117.8427,1943.11382458,64124739.3967,65055161.9491,5198.96008818,5186.6766369,0.0
1.06106750504,0.844655604678,9.79243264661e-06,-39252865.7717,1.59069370258e-05,0.0,5820257.46558,679.58054708,648.213063248,66979437.8573,1708.88325543,34779200.4119,69896499.2149,4404.49121342,4396.11223002,0.0
1.10759075507,0.90803343596,9.91453061345e-06,-18332504.3654,1.83258158884e-05,0.0,5644391.41229,682.258149154,651.262417156,66479395.2631,1767.51181043,39543336.7781,68856947.986,4597.6092243,4587.72407718,0.0
1.05537742534,0.959467570123,1.03455870033e-05,-40877221.06,1.48425745018e-05,0.0,5804199.77649,678.817890857,647.814175543,66924535.8329,1700.71416009,34935586.8722,69547056.8264,4380.87169259,4372.3274212,0.0
1.01950411657,0.659179276646,9.24540227613e-06,-79517319.5192,1.65985142861e-05,0.0,5950497.3189,678.632007638,645.59128343,67315014.3673,1654.67132447,56819181.1851,71182175.1678,4231.96158788,4224.77667596,0.0
1.11046655269,0.916110809559,1.02152021885e-05,-17070931.9943,1.88683540674e-05,0.0,5654125.31692,682.141015483,651.424950373,66522952.1405,1772.32766495,40207042.4548,69111483.0384,4609.54666022,4600.19726142,0.0
1.08385103923,0.728684715949,9.61960274904e-06,-28926435.1039,1.87922888809e-05,0.0,5768578.81099,680.967584479,649.644701621,66851931.7903,1739.26290816,35752180.2678,69397313.2054,4499.06566384,4490.42625242,0.0
1.14571331211,0.887823238206,9.88744199559e-06,-8194584.24258,2.22257673e-05,0.0,5534376.74189,684.413211129,653.534458738,66172175.5439,1817.51140411,45356573.2017,68419069.4592,4755.85595857,4745.6878336,0.0
1.22988327803,1.21182361828,1.00183500054e-05,15121751.8302,2.22562174164e-05,0.0,16533004.0269,689.336081166,658.917399911,65268562.3899,1917.71641684,60231547.202,66858983.9046,5105.2454871,5093.63849314,0.0
1.195232603,1.18311071339,1.02489498969e-05,7224273.46648,2.03628474711e-05,0.0,8662946.79617,687.272507996,656.809216842,65435242.5721,1875.04307443,53836255.0567,66496698.7578,4961.41053505,4949.70224537,0.0
1.13098880751,0.827731926453,1.00054087179e-05,-11547443.8416,2.18617102423e-05,0.0,5575915.80717,683.52319001,652.659551713,66299635.2356,1798.58373276,43434415.4165,67455968.923,4694.73453997,4684.84265084,0.0
1.02159407704,0.861048388356,1.01371148043e-05,-68987924.881,1.48612469576e-05,0.0,5861974.39152,677.763315808,645.697087683,67053919.1828,1654.848713,48709211.8715,70694266.3686,4240.63701379,4232.31127022,0.0
0.992068348239,0.798223764451,1.00575929113e-05,-95227643.5693,1.51242421979e-05,0.0,5914652.70636,679.278005648,643.818111095,67145768.6297,1614.48513556,70112843.2989,70364207.5393,4118.07571354,4109.89617546,0.0
1.13940140065,0.928678173726,9.88516583225e-06,-10111983.4356,2.11254191056e-05,0.0,5579251.67319,684.174662917,653.292431413,66317954.2203,1810.29978539,44437667.8064,67938280.7331,4729.6552141,4719.90104735,0.0
0.964580665364,0.966098590251,9.98114153184e-06,-94101653.6278,1.41234116639e-05,0.0,6055455.82705,684.12840149,642.07100895,67554294.7662,1615.38205771,69121329.8853,69348133.2127,4003.97434193,3997.54630351,0.0
1.03812950254,1.02348417794,9.92561271092e-06,-53472948.9786,1.35431067513e-05,0.0,5844191.27505,678.379035042,646.730716307,67024964.3614,1676.64116568,39080854.4466,71248632.4632,4309.27556504,4300.59711686,0.0
1.29537428477,0.909986772736,1.0166573316e-05,27531783.0297,3.56131648719e-05,0.0,28938332.5242,693.847780878,663.037105971,63849795.2704,1989.52233927,68527429.6137,69681466.9628,5377.09865608,5363.56487712,0.0
1.15599322931,0.82993592716,1.00507811207e-05,-5350411.84694,2.51464568866e-05,0.0,5535570.47786,685.170955837,654.402298023,66206987.1649,1832.76506432,46927176.3393,68480638.9024,4798.52789487,4789.03067983,0.0
1.21376677954,0.849573254035,9.51830353421e-06,11005104.7026,2.70663813139e-05,0.0,12335546.5996,688.99181584,657.90612944,65251907.6007,1898.64008445,56886593.1534,66662394.9899,5038.34590187,5026.35981335,0.0
1.09024204857,0.884457873764,1.00805982851e-05,-25732734.5277,1.76561254168e-05,0.0,5741598.99774,681.082023682,650.145864719,66779302.7509,1747.69780776,36275181.8264,69202959.8409,4525.59474361,4516.95240858,0.0
1.15151770223,0.810845626732,1.04476628903e-05,-3993715.02949,2.3516459866e-05,0.0,5445894.63926,684.705059706,654.080675787,65871868.9848,1822.97013847,47255082.5647,68008055.3305,4779.94998196,4769.24012951,0.0
0.99359080977,0.6458313031,1.0114406813e-05,-95212713.8598,1.67781823029e-05,0.0,5899967.74404,679.16979285,643.917076379,67107037.9428,1616.74840795,70099833.0779,70347926.7253,4124.39545136,4116.27134858,0.0
1.13439979304,0.773473698038,9.86232210018e-06,-11159120.0729,2.2423565282e-05,0.0,5532208.30424,684.024972224,652.951341163,66151097.6961,1802.06448359,43648012.0948,67573065.2561,4708.89354091,4698.44397373,0.0
1.18120050543,1.0508489734,9.80751971756e-06,3479049.77942,2.09434293351e-05,0.0,5622656.45145,686.644830217,655.921711791,65867523.0655,1860.73532315,51979558.1144,67177019.452,4903.16329804,4892.45679969,0.0
1.08353408991,1.08566660953,9.86673158737e-06,-28781194.2391,1.4643345297e-05,0.0,5782894.99634,680.816848721,649.767053818,66894014.2421,1738.76517524,35756034.2179,69379080.689,4497.75000722,4489.21234195,0.0
1.11175245813,0.969484064553,9.61280328757e-06,-18341915.9006,1.8029602911e-05,0.0,5626978.47001,682.709640816,651.514348969,66428822.6872,1772.28935987,39617646.4297,68946034.9908,4614.8844537,4604.61732347,0.0
1.10275459996,0.717760131388,9.8467877101e-06,-22049772.255,2.09826680854e-05,0.0,5703279.07503,682.122901695,651.002215318,66677082.5119,1764.37928785,37527495.7032,68476293.7028,4577.53434443,4568.69462179,0.0
1.13765419167,0.976276008718,1.02589720671e-05,-10203499.4487,2.11279158912e-05,0.0,5604736.03062,683.743867843,653.175451103,66401355.1083,1809.27881588,44150722.0968,67969162.1574,4722.40254962,4713.22549521,0.0
1.13611966651,1.11428351402,9.31289330717e-06,-11443358.8263,1.73668520567e-05,0.0,5604743.72052,684.253642424,653.070611894,66398785.5309,1804.75626412,43492177.0188,67628691.0813,4716.03273568,4705.83938399,0.0
1.12856961878,0.861414816844,9.82934071957e-06,-12738425.56,2.09862034728e-05,0.0,5615785.60831,683.535078469,652.57944234,66414891.262,1796.40233868,42947256.5038,67790358.045,4684.69248756,4675.14463809,0.0
1.09867020279,1.11612422828,1.00263840871e-05,-23160889.2849,1.54760144815e-05,0.0,5736527.8868,681.553825547,650.730709563,66762664.6703,1758.51460614,37111190.0099,68989326.8828,4560.58001178,4551.80479081,0.0
1.24353654954,1.10951161753,9.76398812702e-06,18079710.0582,2.46381366341e-05,0.0,19667882.9817,690.518804923,659.830642075,65016596.6556,1933.15309083,62571769.749,67209738.7792,5161.92021714,5149.85230418,0.0
1.05491337157,0.988354489992,9.59585098407e-06,-43489625.4802,1.41037349501e-05,0.0,5826660.93559,679.383899751,647.809814263,66989179.7459,1699.22995746,35471983.2571,71328585.6062,4378.94540539,4370.136074,0.0
1.10854787377,0.836541298614,9.75070228858e-06,-18616011.2827,1.90052310613e-05,0.0,5675638.89059,682.434198728,651.341714459,66582262.7073,1770.308478,39480193.5835,68834304.8589,4601.58222402,4592.16512104,0.0
1.23489881173,0.979925129653,1.00887432825e-05,16252586.5513,2.74654691914e-05,0.0,17792203.2982,689.948456378,659.258420717,64852949.7559,1921.67301034,61067781.3795,66684672.752,5126.06496749,5113.59621168,0.0
1.11676409961,1.11369148063,9.97959431104e-06,-15675756.377,1.66248142281e-05,0.0,5677255.99813,682.535577928,651.795463072,66593799.8072,1781.19415907,40944384.3556,69412272.5978,4635.68777748,4626.4343397,0.0
1.17301946416,0.851139052564,1.00398042902e-05,2046484.59747,2.41759097897e-05,0.0,5421261.51565,686.154747631,655.419091944,65812140.1395,1850.49030305,50979387.4102,67079568.6621,4869.20379573,4858.52466385,0.0
1.04634094927,1.08427212281,9.54855002892e-06,-50136669.2788,1.30871368139e-05,0.0,5844069.76117,679.027253082,647.262160183,67035191.7996,1687.43639246,37620061.8474,71203025.9159,4343.36128042,4334.54806625,0.0
0.96065490838,1.15579177227,1.00347857913e-05,-93969154.0036,1.23052487003e-05,0.0,6072564.46237,684.385153025,641.818031439,67602320.8117,1613.448328,69004627.6268,69229469.4322,3987.67852469,3981.30361095,0.0
1.19096455979,0.794167011304,1.01378685947e-05,6038794.17613,2.73509846871e-05,0.0,7566931.30796,687.381673102,656.535641783,65356251.1481,1870.85087283,53072554.1433,66526367.751,4943.69388769,4932.06295039,0.0
0.976010935726,0.960164450078,1.00699796698e-05,-94628068.5439,1.38268521082e-05,0.0,6013327.12973,681.784467915,642.802218552,67432789.3722,1613.21773149,69584610.105,69819490.2103,4051.4213942,4044.5097959,0.0
1.1053367879,0.893214021769,1.02553106173e-05,-18296617.0511,1.85565139017e-05,0.0,5640112.46391,681.896025686,651.118248163,66460204.0812,1764.77075714,39376336.8864,68762169.2701,4588.25300657,4578.5023332,0.0
1.06932939952,0.813013025099,9.8432222385e-06,-35264883.8666,1.6796804198e-05,0.0,5795362.69404,680.002769221,648.746950762,66919959.7023,1719.81873326,34716181.0821,70063961.7499,4438.78633741,4430.27963844,0.0
1.19180924824,1.04671347413,9.81399388472e-06,5752797.54073,2.17633363896e-05,0.0,7338329.11003,687.361797609,656.576124392,65607607.8241,1872.26449473,53203660.6501,66822873.542,4947.20018944,4935.75950304,0.0
1.21594424558,0.839499077604,1.00375298037e-05,12104735.7898,2.81092312438e-05,0.0,13365010.8323,688.875447128,658.091615093,65153824.5775,1901.1379808,57648716.5924,66231415.7903,5047.3845634,5035.6055211,0.0
1.04502930535,0.830917373526,1.01865305645e-05,-48031700.3815,1.5712682526e-05,0.0,5809741.13764,678.570257469,647.186689755,66931521.3095,1686.24814909,36781772.8239,70516510.8308,4337.91664651,4329.21301924,0.0
1.18364420066,0.666614369469,1.01594376037e-05,4907997.09209,3.00580645766e-05,0.0,6539785.41211,686.880748248,656.054570667,65597626.48,1863.89627624,52566461.9949,66844942.1361,4913.30707694,4902.54419889,0.0
0.995899730783,0.978745751666,1.03425345563e-05,-95320991.6882,1.38671607274e-05,0.0,5905019.28575,678.252746364,644.060991705,67129656.2075,1619.68612643,70195120.3468,70566862.9371,4133.97978248,4125.81856836,0.0
1.01913621541,0.809109982092,9.80623127139e-06,-74623056.1744,1.50363758927e-05,0.0,5937403.36753,677.972536206,645.566426294,67282006.9866,1654.23718925,52942426.9482,70937946.2266,4230.43443017,4223.25474579,0.0
1.01269940793,0.901423087685,1.05962108089e-05,-74992494.0993,1.42956031913e-05,0.0,5903197.03596,677.053155456,645.138340122,67150802.1743,1644.49056885,53207225.0546,70476778.4275,4203.71524232,4196.27663097,0.0
1.09971596824,0.962885955551,9.76892701666e-06,-21727909.5233,1.69147611336e-05,0.0,5664296.41061,681.903535651,650.77423946,66526428.7481,1756.74500813,38011853.7625,68647899.5013,4564.92098416,4554.88990845,0.0
1.15090342372,0.828631845705,1.01639639854e-05,-6537792.97269,2.47689275466e-05,0.0,5550271.93007,684.713484236,654.034286908,66249326.7738,1826.26109676,46229068.4729,68615113.8102,4777.40011186,4767.98644376,0.0
1.14273024507,0.632964465911,1.04229812645e-05,-7110522.01725,2.82510445966e-05,0.0,5536020.1965,684.103193635,653.4590647,66172524.2204,1815.48782253,45941921.2746,68343421.1766,4743.47324729,4734.11210922,0.0
1.0645183613,0.927127686287,9.74235374412e-06,-37872596.1017,1.51863837614e-05,0.0,5818974.88528,679.767779282,648.434197146,66981323.8058,1713.40248132,34720163.4696,70129329.0665,4418.81571776,4410.38287339,0.0
0.967489016465,0.812089249227,1.02193621544e-05,-94064602.9064,1.51966243788e-05,0.0,6016989.24321,683.212143362,642.252064165,67442945.1481,1613.49464665,69088658.1989,69316817.5691,4016.04690735,4009.28447766,0.0
1.01963286961,0.899647707948,9.95939738774e-06,-72690839.1479,1.4250547396e-05,0.0,5934060.99389,677.791908667,645.598390954,67276237.6048,1654.90176877,51458979.961,70937077.0173,4232.49604175,4225.30929998,0.0
0.97958409783,0.795348753721,1.01980556743e-05,-94942889.2147,1.46103632147e-05,0.0,6011506.79364,680.415303648,643.036436489,67428714.5101,1610.41271779,69862083.5081,70099781.7133,4066.25359009,4059.60962735,0.0
1.15524219096,0.714890944625,9.84075000742e-06,-5695163.11888,2.71011025113e-05,0.0,5532720.05208,685.263684834,654.308540427,66186092.7426,1831.8252602,46852443.6265,68585507.0919,4795.41033467,4785.8307043,0.0
1.08835722943,1.14705131503,9.86214227268e-06,-27112898.1342,1.42751562946e-05,0.0,5774184.76446,681.05651433,650.062905737,66874333.8,1745.0304916,36055952.0049,69392872.8085,4517.77085936,4509.15798746,0.0
1.09674588266,0.913059966168,9.51384856122e-06,-24853556.2723,1.72309675874e-05,0.0,5746623.44231,681.818573945,650.54537537,66802319.2159,1756.00097828,36680831.2005,69319111.4998,4552.59215892,4543.74916543,0.0
1.19304422363,0.703952965268,9.89671751069e-06,6364772.59867,2.93175604797e-05,0.0,7900583.50638,687.744936986,656.672191732,65337092.7977,1873.74193661,53384379.8479,66541901.4001,4952.32657229,4940.64142102,0.0
0.935852551407,1.27816162548,9.82978799356e-06,-92737905.3971,1.1487252442e-05,0.0,6077804.34759,688.74896591,640.202490243,67560286.1612,1608.26235301,67920914.4491,68130909.5313,3884.72394089,3877.50403268,0.0
0.910120954835,1.17324303999,1.03851599284e-05,-91536170.8887,1.1478370598e-05,0.0,6139876.36125,690.263482241,638.549272452,67722377.0484,1595.61677787,66863145.3902,67722377.0484,3777.91208352,3771.65060881,0.0
1.16234700575,1.13253478522,9.75695564388e-06,-1039501.15444,1.83358259621e-05,0.0,5507184.17495,685.50981754,654.77328021,66077536.9438,1836.98193402,49603653.0424,68182636.1354,4824.90242087,4814.40579638,0.0
0.98902986451,0.796897627268,1.03770971264e-05,-95002970.5554,1.50488257252e-05,0.0,5912543.45364,679.017786976,643.620345755,67140543.0324,1610.800701,69915136.0786,70159944.456,4105.46296758,4097.41217117,0.0
0.990026043826,1.08061057961,1.06125850149e-05,-95048237.5277,1.27108330233e-05,0.0,5915738.71478,678.198078226,643.68299727,67157702.4857,1611.78603792,69954890.9427,70208033.4223,4109.59810792,4101.53116708,0.0
1.10435535604,0.90999025709,1.02694251452e-05,-18902256.1871,1.85637475522e-05,0.0,5621587.66791,681.840277012,651.048571631,66405543.3333,1762.56753867,39250466.4007,68693874.6306,4584.17908292,4574.16093945,0.0
1.2091914079,0.986321676645,9.82773569479e-06,10335737.0738,2.43765944381e-05,0.0,11681985.617,688.421643382,657.622035327,65302284.0953,1892.56052053,56305131.5401,67051066.9594,5019.35353419,5007.4798574,0.0
1.07493172838,1.02297475616,1.03032743641e-05,-30515711.2106,1.52215069943e-05,0.0,5776549.25514,680.012564466,649.18268769,66861892.4578,1727.18596089,35270710.2608,69251993.8361,4462.04160451,4453.54064248,0.0
1.0633153826,0.877788632477,1.01040875916e-05,-36185758.4415,1.58825806487e-05,0.0,5805155.56849,679.434982981,648.356952622,66941594.5704,1711.69488118,34628842.5,70137714.403,4413.82215317,4405.40839759,0.0
1.116166705,1.00216807314,1.01726669915e-05,-15403708.0497,1.81564478279e-05,0.0,5640769.68983,682.436003138,651.743241067,66483667.4409,1779.53617694,41099700.8805,69162236.7948,4633.20799245,4623.66407551,0.0
1.04816642742,0.999683305796,9.78497244867e-06,-47157358.0311,1.4058423551e-05,0.0,5831592.08875,678.926215456,647.386596385,66994036.6576,1690.14401685,36605623.577,70470870.3327,4350.93884022,4342.24116784,0.0
1.22764256008,0.745190200547,1.00522749178e-05,14887900.4464,3.20093465298e-05,0.0,16280650.6761,689.543454458,658.773961914,65084913.8083,1915.86392394,59969257.477,66613110.5086,5095.94426689,5084.37752088,0.0
1.02688811215,1.07610158601,9.80261277761e-06,-65292397.2553,1.28556511394e-05,0.0,5930517.61785,678.036760043,646.057218631,67279829.9357,1664.44392684,46162523.7984,71017520.8201,4262.61255353,4255.32237887,0.0
1.09804987653,1.17294884701,1.00753848677e-05,-23251243.3059,1.48128162034e-05,0.0,5739712.09734,681.459224553,650.68695686,66771026.388,1757.64183408,37066307.0103,69042533.6621,4558.00503748,4549.24021414,0.0
1.01834866358,0.94138217001,1.02386955487e-05,-71152182.0526,1.41047023258e-05,0.0,5869821.62979,677.591133399,645.492260636,67070350.0929,1650.48779908,50285651.7864,70862535.1974,4227.16530252,4218.89149574,0.0
1.07477041516,0.940474823018,1.02664794688e-05,-31166447.7082,1.60962876221e-05,0.0,5784203.44734,680.056919162,649.172097536,66894680.8994,1727.7236986,35117081.9758,69366518.6375,4461.37199333,4453.06463209,0.0
1.10396912482,0.90346438507,9.99608319426e-06,-21375170.0203,1.84901849406e-05,0.0,5708933.57918,681.994278699,651.076921899,66684987.3637,1765.742793,37818286.5858,68626838.539,4582.57583713,4573.71757136,0.0
1.11536885771,0.929170328598,1.00970418904e-05,-15754247.996,1.89324879065e-05,0.0,5641427.29236,682.470461972,651.693648393,66483620.4269,1778.59839444,40860669.7111,69347354.5029,4629.89612835,4620.36548107,0.0
1.124219773,0.807824482807,1.01727781845e-05,-13298495.8467,2.15680462466e-05,0.0,5588748.75957,683.094855087,652.279478017,66313276.1322,1790.06062045,42452929.9351,67621830.2438,4666.63627772,4656.85841879,0.0
1.24072238039,0.759894715968,9.55818917524e-06,17586803.0581,3.21567252983e-05,0.0,19116366.0239,690.655920045,659.62949232,64995613.9857,1931.46457309,62209385.1238,66998558.942,5150.238601,5138.45788015,0.0
1.09643422222,1.03985969377,1.05135152747e-05,-22586112.3185,1.64691974888e-05,0.0,5700511.875,681.148299335,650.583353304,66638967.1935,1754.96458121,37214604.2674,68383075.9077,4551.29845644,4542.26460808,0.0
1.02274660677,0.828459068007,9.89666387467e-06,-69410951.4807,1.49344599788e-05,0.0,5925376.4184,677.921340225,645.791377892,67256139.7644,1659.06399512,49036717.5302,70878231.5932,4245.4211647,4238.19010972,0.0
1.04918069082,1.16340978655,9.82265875213e-06,-45174033.4335,1.240982375e-05,0.0,5855803.32486,678.843473867,647.452287188,67067083.8532,1692.23149555,35985124.8437,70552741.6729,4355.14904759,4346.77460813,0.0
0.989609296474,1.05609474514,1.0275067471e-05,-95099083.4865,1.31052945788e-05,0.0,5928245.2193,679.09936413,643.660205016,67189949.0911,1611.52856124,69999623.2264,70245630.2151,4107.86818966,4099.80812068,0.0
1.02141665474,1.10279896615,9.93704242329e-06,-70785375.9298,1.25253564968e-05,0.0,5940146.40413,677.77040543,645.707568005,67299453.2081,1657.14471754,50047568.9489,70819089.9182,4239.90053383,4232.68842029,0.0
1.1971345219,0.713551646505,9.99311455291e-06,7860294.12595,2.966130311e-05,0.0,9328757.91017,687.869291348,656.942691052,65374835.0388,1879.36835883,54367948.3701,66500460.7333,4969.30540041,4957.98781845,0.0
0.94698938872,1.15933124839,1.03218597645e-05,-93049580.4873,1.23440989643e-05,0.0,6025021.59398,685.95834032,640.916893758,67427594.2162,1606.71081479,68195408.8185,68410487.3899,3930.95295258,3923.56197246,0.0
1.10719446031,0.845454043149,1.0189538028e-05,-18099576.8427,1.94439143693e-05,0.0,5661036.44248,682.027214737,651.240817405,66537039.7714,1768.28594051,39681112.4061,68869940.4394,4595.96420475,4586.66816917,0.0
1.16730711364,0.859623056913,1.03261930737e-05,-203506.946155,2.54364823458e-05,0.0,5427820.81866,685.711973221,655.074260374,65841559.5898,1844.16116093,49539030.3701,67432288.657,4845.49182872,4835.05632215,0.0
1.06196543908,0.741560815455,9.99026189466e-06,-38026799.9765,1.71992841598e-05,0.0,5804085.71081,679.517181434,648.268235988,66935469.8046,1710.18914162,34666137.8907,69962801.431,4408.21853762,4399.82683334,0.0
1.16875913468,0.904323113885,1.04821758292e-05,1896263.35661,2.33365038916e-05,0.0,5404302.65715,685.600119212,655.139469846,65732246.7867,1844.13301241,50706869.0756,67000300.7505,4851.51916806,4840.71437766,0.0
1.25937465116,1.02952841356,9.95223200451e-06,21561606.79,2.8780026514e-05,0.0,23450706.9366,691.470130987,660.812424645,64784497.7398,1951.61302534,65366639.5856,66189700.7371,5227.66417697,5215.5561701,0.0
1.03621834634,0.866307406201,1.01042699498e-05,-53913780.1446,1.4963684142e-05,0.0,5831914.55928,678.217320335,646.616590614,66986280.724,1674.23558451,39301861.9366,71106465.1789,4301.34235566,4292.69379761,0.0
0.991636656912,0.829436267388,1.02624767401e-05,-95143123.0813,1.49419339963e-05,0.0,5911356.85199,678.953065374,643.790041641,67141150.2988,1614.07803718,70038445.6829,70281234.0633,4116.28376284,4108.19101567,0.0
1.00276162626,1.03124230901,1.02340320141e-05,-94038547.5211,1.34998731266e-05,0.0,5894922.092,677.897067868,644.500649526,67108101.6406,1628.77200205,69076513.3822,70665662.8555,4162.46351061,4154.19415424,0.0
1.13636008049,0.743937772908,9.61031033001e-06,-10979812.7603,2.35488057945e-05,0.0,5593336.44272,684.24780374,653.102919162,66356982.8741,1806.857409,43818552.2881,67674926.8585,4717.03069411,4707.43199752,0.0
0.99282126443,0.830438274216,1.00199126613e-05,-95273734.4115,1.49170831296e-05,0.0,5915794.31456,679.257222346,643.866870691,67150005.2301,1615.42807815,70153325.1883,70401333.5508,4121.20106865,4113.0091544,0.0
0.955263650675,1.14487930738,9.78225767053e-06,-93804652.8128,1.24469080912e-05,0.0,6095974.32452,685.816045271,641.472544176,67658297.4602,1614.57900783,68859769.0404,69081995.9879,3965.29941395,3958.99699458,0.0
1.02825737395,0.67199589571,9.77843918412e-06,-63691700.2707,1.65284363925e-05,0.0,5907550.94808,678.2191759,646.131714999,67212785.6417,1666.49277701,45081018.7682,70908989.7779,4268.29635927,4260.98659341,0.0
1.11641138615,1.1498673469,9.59454127065e-06,-16446936.047,1.56802993908e-05,0.0,5670459.65097,682.81817118,651.79521505,66566224.9025,1779.63909191,40560752.4909,69405639.55,4634.22366391,4624.4785916,0.0
1.14024324969,1.0986157719,9.95469629338e-06,-8996862.8295,1.89710897903e-05,0.0,5613907.74808,684.010384087,653.333667646,66437086.5979,1811.93151542,45217560.8575,68207247.2276,4733.14972946,4723.80221786,0.0
1.12035677292,0.777048583405,1.01745989237e-05,-14032996.0957,2.16373936488e-05,0.0,5598003.36666,682.846714605,652.024903938,66352855.9228,1784.96276985,41882077.6209,68320384.3376,4650.60096439,4640.88860287,0.0
1.10174544243,1.12646866254,1.01480051968e-05,-21928679.4961,1.56725909865e-05,0.0,5722897.59864,681.660137494,650.93616624,66729370.4524,1762.48688282,37574642.6069,68578688.5831,4573.34533153,4564.52228732,0.0
1.26797605287,0.834085652042,9.85525945597e-06,23222677.726,3.4502196032e-05,0.0,25178910.8624,692.26125371,661.372277268,64568534.2646,1961.9383676,66490758.6059,67466779.5238,5263.36859546,5251.11137068,0.0
1.00032704763,1.03868532961,9.97311910315e-06,-95660785.2575,1.3251470897e-05,0.0,5910235.6787,678.487458047,644.345514118,67145650.0115,1625.28110334,70494386.2282,70765238.8318,4152.35757471,4144.04640705,0.0
1.0360684244,0.990637084087,1.00936078952e-05,-54139090.8574,1.38482959293e-05,0.0,5840094.21337,678.177933903,646.612426052,67011019.3969,1673.95067356,39412438.8344,71097472.6139,4300.72002968,4292.07392115,0.0
1.14179772312,0.735486850293,1.01208890007e-05,-8668150.32617,2.48056298129e-05,0.0,5520248.29646,684.13453277,653.295663383,66128008.3989,1812.64488909,44929999.9152,68150738.0649,4739.60234867,4729.5012854,0.0
1.18026851435,0.932032350214,1.02665282041e-05,4422349.81391,2.36490167941e-05,0.0,6174622.72382,686.367311701,655.83569249,65718614.028,1859.0816561,52266480.6125,66994543.6053,4899.29460307,4888.59292432,0.0
1.02779137575,0.839067130375,9.98698487271e-06,-62222392.2287,1.49721404823e-05,0.0,5909369.6806,677.959130198,646.110990712,67218120.3806,1665.80241612,44075952.216,70935908.6526,4266.36200074,4259.05890483,0.0
0.995837021745,0.940798645824,1.01239161057e-05,-95361165.6951,1.42641887307e-05,0.0,5911485.6146,678.760209119,644.059239829,67146319.4248,1619.54354104,70230428.8573,70562047.4463,4133.71947726,4125.55927197,0.0
1.10567857178,1.01385421952,1.00616036074e-05,-20753174.5062,1.73116604454e-05,0.0,5708741.48071,681.990356463,651.175393053,66691095.3622,1767.85519203,38099352.131,68730004.287,4589.67175146,4580.78645722,0.0
0.982561997081,1.01740762564,9.72922295065e-06,-94982481.5964,1.36017682481e-05,0.0,6014134.68356,681.755607949,643.225617029,67439521.2236,1617.96969969,69896612.635,70135859.1484,4078.61484988,4071.60696349,0.0
1.1207275713,1.1174703668,9.8673509357e-06,-14773240.812,1.67430909803e-05,0.0,5619880.88666,682.907401537,652.031811789,66410951.4126,1784.24171153,41492007.7765,68493067.7864,4652.14014847,4642.02684591,0.0
1.0884015753,1.0832667528,9.82204879585e-06,-27208067.2256,1.49736189604e-05,0.0,5771540.68553,681.113257125,650.066114013,66865862.0791,1745.13656889,36045649.9671,69393963.7884,4517.95493907,4509.34137443,0.0
1.20904997044,1.05663391929,9.82496429122e-06,10347322.7409,2.29926338252e-05,0.0,11673567.8009,688.356316404,657.613288893,65335940.867,1892.21548017,56308159.797,67093314.8203,5018.7664273,5006.89511908,0.0
1.14060370065,0.959719959845,9.77352859802e-06,-8903274.64779,2.06012623693e-05,0.0,5590125.83146,684.242723925,653.358296003,66356846.2988,1811.73799271,45328162.829,68185297.9078,4734.6459614,4724.98042361,0.0
1.10774558915,1.01703989291,1.03140389812e-05,-17719509.8146,1.75627373332e-05,0.0,5612691.64092,681.944599211,651.243095933,66380476.7589,1766.67512482,39747010.0583,68867900.9918,4598.25194056,4588.07987429,0.0
1.08499348044,1.0668613024,9.56147810559e-06,-29207218.5588,1.47760035004e-05,0.0,5794681.00739,680.925107215,649.724243781,66939008.8014,1740.69317471,35816730.3541,69476250.6996,4503.80793731,4495.24679976,0.0
1.12242376052,0.917048836409,9.8211030892e-06,-14221447.6423,1.96307667416e-05,0.0,5591395.53824,683.173802086,652.141066655,66335859.0467,1786.44893052,41710191.6036,68366396.5921,4659.18102992,4648.94069325,0.0
1.16320997172,0.842971115883,1.00029980415e-05,-680891.957993,2.35215074407e-05,0.0,5426307.8332,685.653231675,654.809787276,65831043.3898,1837.38633135,49423568.3845,67673149.814,4828.48459261,4817.55377269,0.0
1.17482938719,1.14596060099,9.72108279261e-06,1793665.85771,1.8849168812e-05,0.0,5440982.44186,686.294727153,655.534803269,65889812.9792,1851.69901098,51085961.6323,67141375.7768,4876.71678623,4865.68364673,0.0
1.04787695681,0.881512603372,9.76539778901e-06,-47340774.5172,1.51412925972e-05,0.0,5825841.90273,678.976006167,647.369221354,66975632.9782,1689.83661457,36567775.7672,70541400.4324,4349.73724772,4341.04428081,0.0
1.18133855283,0.889692889492,9.80188053628e-06,3307804.76257,2.3844527797e-05,0.0,5443982.60834,686.82172342,655.921583909,65697796.2676,1860.1389724,51773159.1481,66970244.2798,4903.7363328,4892.59815469,0.0
1.25799236421,1.11676214623,1.02343062825e-05,21142534.4598,2.734787559e-05,0.0,23072305.0618,691.247126439,660.721351887,64644707.117,1948.36165752,64967558.004,65787394.0704,5221.92630384,5209.37539395,0.0
1.03701448374,1.06847942237,9.66645560175e-06,-56257257.4145,1.3236591478e-05,0.0,5848950.7313,678.566462865,646.677950613,67036649.7436,1674.48320222,40523804.9925,71068677.2274,4304.647122,4295.81443024,0.0
0.950913435616,1.13341295494,9.96806498282e-06,-93588746.8764,1.23500394991e-05,0.0,6098255.20017,685.827872998,641.191254994,67660598.2018,1611.19144694,68669664.5606,68889743.0499,3947.24167124,3940.99760741,0.0
1.13622942926,0.792213980793,1.00502649387e-05,-11742497.5236,2.3407981433e-05,0.0,5509276.04646,684.064115894,653.067405528,66099474.1479,1804.61012759,43358509.7882,67503272.8444,4716.48836086,4705.99290968,0.0
1.14474447173,1.07773502374,1.03062369855e-05,-7626459.12849,1.92750973518e-05,0.0,5529719.61094,684.103992022,653.565947894,66156153.8512,1815.61367112,45540047.991,68485080.6756,4751.83430215,4741.59872189,0.0
1.03469338655,0.873134460664,9.8444773884e-06,-57890404.6685,1.48919473225e-05,0.0,5899018.59681,678.311940157,646.549027924,67197912.8875,1674.9847131,41524673.9683,71093713.1541,4295.01224757,4287.61009685,0.0
1.07391686847,0.966038695206,1.01326080714e-05,-31313023.9806,1.55663562699e-05,0.0,5782257.38315,679.904934961,648.977186334,66883369.0619,1725.55872981,35187737.0558,69466295.458,4457.82892102,4449.25044095,0.0
1.05654346104,1.13715004365,1.07226536595e-05,-38708469.9352,1.34840684429e-05,0.0,5807704.39321,678.538570542,647.913813286,66952496.5022,1702.77373412,34709042.5527,69730471.5642,4385.71190678,4377.42418888,0.0
1.09237300655,0.772940411445,1.00305212775e-05,-25149699.241,1.93123972338e-05,0.0,5728549.41013,681.276187504,650.266958683,66743770.2158,1750.58542527,36452265.473,69121858.8548,4534.44035019,4525.76465486,0.0
1.04937139732,0.926431684119,9.95186982397e-06,-45746956.5892,1.48282217381e-05,0.0,5817874.05387,678.877071256,647.462116063,66958288.3444,1691.83383499,36197437.8284,70538805.1677,4355.94067028,4347.22339954,0.0
1.13235653738,1.00531070304,9.87618683655e-06,-11488487.1152,1.93697499764e-05,0.0,5610888.65778,683.68736289,652.833306348,66404401.7509,1801.05741057,43512289.4227,67555091.7744,4700.41198666,4690.77597532,0.0
1.00791734424,0.985845040848,9.79711649452e-06,-88881734.1542,1.34261620888e-05,0.0,5973742.57729,677.99011609,644.848239599,67355961.4773,1639.04641552,64641122.6383,70946943.6305,4183.86489594,4176.84384076,0.0
1.1921069558,1.02588330231,9.94214401611e-06,5874066.62174,2.24367848067e-05,0.0,7423638.69631,687.361149078,656.600249577,65508454.4531,1871.99149158,53143805.1211,66735042.5214,4948.43597353,4936.76403811,0.0
1.05661010153,1.08215197881,1.00249669378e-05,-40496037.9288,1.33135090897e-05,0.0,5836858.84101,679.048942198,647.902135372,67026084.2938,1702.82503802,34928112.3995,69957335.1368,4385.98853145,4377.6789099,0.0
1.06964307195,1.03099249603,9.94834815879e-06,-33922066.9441,1.4480217126e-05,0.0,5805412.34511,679.83199967,648.761413929,66941756.8282,1719.88747544,34852991.0867,69934402.44,4440.08839166,4431.57559322,0.0
1.09058125346,1.07999348158,1.00696416265e-05,-25699266.0544,1.53276233899e-05,0.0,5754967.65789,681.020593185,650.165351935,66821503.2299,1747.97999317,36306674.6032,69240689.8053,4527.00278311,4518.35514132,0.0
1.14308152345,1.03554892296,1.01727217686e-05,-8396263.67697,1.99317579776e-05,0.0,5545064.90615,683.981338123,653.361587875,66207257.8241,1813.84787234,45201526.1942,68354801.6081,4744.93140384,4734.80837245,0.0
1.17871126541,1.11009664379,9.86248276464e-06,2733082.79357,1.9829000429e-05,0.0,5414518.37464,686.470894861,655.760826849,65798434.1487,1856.5172743,51433267.7036,67033864.9529,4892.83046272,4881.72621166,0.0
1.24063521536,0.930167341568,1.00451755225e-05,17541780.0544,2.87299760938e-05,0.0,19119027.0757,690.379001397,659.646112496,64855632.7007,1929.37684922,62097752.6182,66944149.2062,5149.87677896,5137.63712155,0.0
1.15155447589,1.02315112306,1.02681955035e-05,-4242623.70015,1.98067967234e-05,0.0,5518385.38665,684.629686982,654.101219044,66120562.5369,1824.18837516,47552811.3116,68033434.231,4780.10262942,4769.9063468,0.0
1.15649048914,1.19615693485,9.55025791606e-06,-4730622.14566,1.79843341551e-05,0.0,5560748.05606,685.250682159,654.38431224,66276188.4463,1831.40267665,47718340.8187,68774167.2435,4800.59202042,4790.54179057,0.0
1.20150192304,0.830965569041,1.04008290799e-05,9587513.06028,2.77473125119e-05,0.0,10931152.0347,687.67967552,657.16831881,65391237.0392,1884.60058212,55606395.2186,66806391.8954,4987.43448254,4976.37001066,0.0
1.01214642314,0.970097080295,1.04996537959e-05,-78856098.8319,1.41343191439e-05,0.0,5857779.5195,677.253384154,645.077026954,67012036.0879,1641.3925546,56242959.764,70494719.0653,4201.41980245,4192.99573378,0.0
1.13532260046,0.993702322256,1.00384315101e-05,-12061673.8683,2.01375931768e-05,0.0,5535342.42364,683.885101863,653.010522334,66177757.3472,1803.19772891,43127378.7035,67505059.3685,4712.72411451,4702.24471866,0.0
1.2562406501,0.901444522822,9.58768995924e-06,20421216.5554,3.03637222525e-05,0.0,22088005.3009,691.646562133,660.581403481,64588982.9755,1947.01070419,64353133.3014,65238445.5914,5214.65493857,5201.77525179,0.0
1.09067356673,1.05086463219,9.73199459457e-06,-25717338.2171,1.49817007891e-05,0.0,5726227.16554,681.338567151,650.182686993,66719394.5522,1746.00119307,36320276.7449,69258551.6485,4527.3859755,4517.89263918,0.0
1.10402279007,0.662896197879,1.05019071e-05,-18303674.6818,2.26682319504e-05,0.0,5591267.57302,681.818182045,651.020158198,66303310.0563,1762.75441108,39476483.7628,68621796.1453,4582.79860158,4572.88078107,0.0
1.14931435248,0.940580927556,9.7597172695e-06,-7377295.68848,2.16763070681e-05,0.0,5543954.84932,684.815893808,653.882693778,66214741.7647,1822.51740432,45848060.6046,68636785.5019,4770.80387714,4760.77932197,0.0
1.16390016615,0.752747055978,1.01983707484e-05,-1297878.92187,2.55619367479e-05,0.0,5401823.99039,685.665341159,654.850201364,65743584.8497,1838.58322584,48905821.6055,67467563.1634,4831.34958969,4820.41894245,0.0
1.10652181692,0.705869279157,1.00318486179e-05,-20445894.8602,2.17643147438e-05,0.0,5682023.17694,682.214223863,651.225004587,66608282.3223,1769.27212013,38203607.6185,68690395.3127,4593.17206203,4584.27277953,0.0
1.01037886387,0.852598052258,1.00129407408e-05,-80951381.1246,1.47394967216e-05,0.0,5891433.34581,677.848584822,644.984678235,67094734.2776,1639.52103373,57923946.6322,70794650.5894,4194.08266392,4185.90612711,0.0
1.19783424816,1.02459855287,1.01497662874e-05,8568449.8595,2.30124759113e-05,0.0,10020199.0465,687.547970704,656.967230353,65415066.1878,1878.59981106,54925979.5629,66663336.9769,4972.20996411,4960.64975094,0.0
0.997892039108,0.93196230139,9.69664437534e-06,-95823470.5242,1.40172348096e-05,0.0,5995258.94474,679.059603732,644.212068447,67408349.5151,1625.3891446,70637344.8457,70923760.7016,4142.24985434,4135.36936594,0.0
1.10288522279,1.08516681117,1.01622653877e-05,-21543691.9778,1.62908161843e-05,0.0,5715955.00144,681.731813592,651.004429611,66710193.1272,1764.00299125,37740405.9444,68630239.6614,4578.0765598,4569.23552749,0.0
1.25846990732,0.821419248224,9.9561005284e-06,21158145.2233,3.37665221213e-05,0.0,22985211.93,691.706574802,660.733894702,64471629.4007,1949.50387365,64955125.252,65716057.3945,5223.90858529,5211.10851724,0.0
1.07164527864,0.918986981251,9.89916767999e-06,-33188102.3245,1.58209454949e-05,0.0,5794596.57923,680.005463155,648.869441711,66911883.2281,1722.60083405,34944984.7369,69797200.5916,4448.39955163,4439.8567913,0.0
1.03483923807,1.16417284182,1.00724276462e-05,-57148960.6609,1.23608445874e-05,0.0,5859498.41876,678.099887928,646.539598669,67068737.2233,1672.69168248,41011799.8567,70990936.842,4295.61767723,4287.165428,0.0
1.19459853738,1.03861207612,1.00872397654e-05,8018528.84741,2.24589921864e-05,0.0,9480338.9539,687.351601492,656.795447444,65586524.0838,1875.78611277,54595107.6065,66678187.4648,4958.77852866,4947.70363219,0.0
1.12366635706,0.979621036229,9.87795072641e-06,-14012196.3243,1.90098923403e-05,0.0,5647829.39663,683.109017058,652.243475893,66512381.123,1790.24759335,41890204.4143,68648644.7445,4664.33904816,4654.97246497,0.0
1.20569110293,1.03167975496,1.012241111e-05,9931922.86816,2.3636316001e-05,0.0,11273311.0244,688.010799119,657.39727863,65286866.6157,1887.67619954,55927285.9825,66916294.876,5004.82376826,4992.91384271,0.0
1.0828769207,0.665325416442,1.03001042266e-05,-27713529.3624,2.04068579749e-05,0.0,5742297.66711,680.642749676,649.716125568,66765928.835,1738.58229756,35797892.9697,69144798.2409,4495.02209783,4486.59168342,0.0
0.971380285702,0.864721519946,1.01314256203e-05,-94516881.0761,1.47478198289e-05,0.0,6031186.35719,682.2001854,642.508549081,67485348.5604,1611.8924671,69486803.1816,69719620.9057,4032.19956595,4025.68482566,0.0
1.07116088448,0.92808171131,9.88046433753e-06,-34296279.9503,1.56058957243e-05,0.0,5796902.55162,680.021918927,648.858853334,66917609.066,1722.1445917,34775471.5676,69903468.0891,4446.38883148,4437.85338928,0.0
1.13201318914,1.24624347194,1.00808656568e-05,-11564205.6371,1.61910598246e-05,0.0,5607031.40591,683.332782136,652.728444921,66380945.7236,1799.61490484,43380478.6097,67589226.8621,4698.98674812,4689.0770809,0.0
1.0026752362,0.823092573663,1.01820265207e-05,-95009261.9617,1.52365456507e-05,0.0,5885314.05835,678.078947119,644.489812039,67077771.8427,1628.7726783,69931437.7182,70588543.4528,4162.10490547,4153.83694612,0.0
1.09659475973,1.15206839235,1.02472191416e-05,-23210669.2989,1.50470115263e-05,0.0,5735136.03751,681.262806578,650.594917278,66759725.0208,1755.75074777,37033015.9782,68981446.3101,4551.96484764,4543.2229054,0.0
1.07583115254,0.854680988789,1.02731947175e-05,-29623515.9695,1.67604181032e-05,0.0,5739290.3349,680.180922812,649.227927963,66742737.1966,1727.20401384,35346043.4609,69186150.9806,4465.77511419,4456.69757868,0.0
1.12310970426,0.972027235787,1.020702543e-05,-13490626.0702,1.92118612992e-05,0.0,5605517.93849,682.916290504,652.206221725,66363822.311,1788.47396872,42200526.927,67846347.229,4662.02838238,4652.26924069,0.0
1.07603817032,0.663479107447,9.75727017346e-06,-32072718.4378,1.92637757365e-05,0.0,5782511.60619,680.42257042,649.12265649,66889998.1545,1729.25820601,35087398.4399,69699332.0734,4466.634445,4458.21312525,0.0
1.07311407826,0.885205635704,9.91741560034e-06,-33824773.8549,1.65340607465e-05,0.0,5804966.68679,680.081508795,648.961136326,66955688.8785,1725.89812916,34827884.4472,69849707.4836,4454.49653886,4446.31220475,0.0
1.05664123046,0.866576701117,9.95069625022e-06,-40744173.2053,1.5489129238e-05,0.0,5826325.51642,679.195888319,647.906564568,66992427.9701,1703.00472762,34964178.1975,70079511.0655,4386.11774764,4377.80764251,0.0
1.05469020721,0.92736169671,9.72663219106e-06,-45054966.0351,1.50647556781e-05,0.0,5805963.51558,679.360447387,647.798640595,66929353.9411,1698.68339772,35849831.4286,70476884.7453,4378.01905013,4369.06656142,0.0
1.08978594241,0.956790929079,1.01044458561e-05,-25822379.0243,1.68005128734e-05,0.0,5746787.55005,681.012321046,650.120398846,66795553.0486,1747.04181976,36251284.4955,69211043.9657,4523.70144694,4515.06624545,0.0
1.13721871172,0.687598800829,9.95308195437e-06,-9216801.89681,2.51913002138e-05,0.0,5557337.29129,684.110664612,653.150404822,66249016.1993,1807.38575566,44982693.1457,67925679.0332,4720.59487235,4710.88054614,0.0
0.98341206509,0.851973601124,9.80278824568e-06,-95004037.4719,1.47127543642e-05,0.0,6000285.28799,681.286501023,643.278896136,67393795.6899,1616.00026925,69915638.1457,70156255.9451,4082.14348219,4075.04073999,0.0
1.11559665355,1.01873298478,9.90395817642e-06,-16028599.3672,1.78510696578e-05,0.0,5678273.00013,682.556624292,651.72711935,66598891.4967,1779.68785111,40845566.0162,69428963.6187,4630.84170889,4621.65189503,0.0
1.08008188565,0.948210557639,1.05384940456e-05,-27981409.468,1.6559829994e-05,0.0,5759167.34648,680.191132669,649.537588972,66817199.9533,1734.65155392,35691958.6036,69126648.6753,4483.41990733,4475.03100928,0.0
1.17358195905,1.11531274611,9.61347870422e-06,1002344.33953,1.9209899621e-05,0.0,5432954.30702,686.330884533,655.460016427,65868867.1739,1849.90257556,50599328.3139,67694128.8517,4871.53871202,4860.33072652,0.0
1.13557226144,0.960600770378,1.03556711028e-05,-10535857.3495,2.12739414483e-05,0.0,5605949.19581,683.574032087,653.054761925,66402356.3663,1806.59535494,43925666.5479,67870261.8269,4713.76045724,4704.61641917,0.0
1.15457812875,0.930046052848,9.91138757613e-06,-5607447.664,2.24936512249e-05,0.0,5515580.08704,685.098386197,654.253140855,66136131.95,1829.02082513,46697992.3721,68518726.5838,4792.65381244,4782.54008132,0.0
1.09515615736,1.01360443416,9.68491188753e-06,-24888099.3812,1.6104059099e-05,0.0,5750840.61116,681.568422973,650.444012612,66803605.6414,1753.83357448,36602097.0144,69267394.0194,4545.9932092,4537.17541844,0.0
1.14176722258,0.730118364894,1.02537007889e-05,-8533485.0784,2.50236418525e-05,0.0,5514798.06267,684.035400417,653.280390019,66114997.6808,1812.60805325,45095050.7969,68187435.5094,4739.47574093,4729.39918567,0.0
1.14062927064,0.819355215799,1.01724375656e-05,-9205735.78584,2.37419731149e-05,0.0,5578324.68282,684.042161346,653.337336307,66313223.2089,1812.86254246,44744757.6741,68096089.2714,4734.75210243,4725.39534607,0.0
1.05233937692,1.14274550068,9.96170365609e-06,-44108262.9418,1.28828073519e-05,0.0,5824042.01201,678.924998681,647.647252471,66983441.0641,1695.62925646,35587123.3548,70594797.8875,4368.26075359,4359.495134,0.0
0.985733740342,0.863521233478,9.71734724086e-06,-95087082.4782,1.4918913923e-05,0.0,5998326.92164,681.390491211,643.429468469,67398348.4768,1618.84179623,69988823.6902,70229409.0323,4091.78075616,4084.72730042,0.0
1.19672694896,0.955305102521,9.84524142718e-06,7361886.41756,2.37556019243e-05,0.0,8812319.11978,687.725325598,656.933705051,65545296.2619,1878.57923587,54164712.8744,66653785.7172,4967.61356513,4956.30331698,0.0
1.17859803554,0.955751584143,9.50144885652e-06,2714530.18874,2.19962713447e-05,0.0,5422639.83099,686.761999839,655.769130723,65845407.9951,1856.87508823,51680851.1695,67093698.7196,4892.36044553,4881.35195234,0.0
1.00123792048,0.903611796361,1.0186253764e-05,-95763153.0289,1.45904031917e-05,0.0,5893234.68467,678.144881483,644.401860916,67099606.5876,1626.81853074,70583110.7855,70583110.7855,4156.13860791,4147.89133115,0.0
1.1208099943,1.07444848861,9.84356664161e-06,-14711671.8155,1.72246936775e-05,0.0,5669385.69103,682.892149426,652.056787859,66572477.1327,1786.55057635,41505950.5336,69134688.1025,4652.48228634,4643.16303309,0.0
1.03493190312,0.793712707403,1.00338281433e-05,-56642355.1561,1.56355092329e-05,0.0,5884651.30436,678.290674247,646.647536328,67154068.8096,1675.38328937,40807843.7789,70928760.9598,4296.00232985,4288.59674591,0.0
1.00433187188,0.81483019116,9.93480606202e-06,-93527003.6208,1.52589669446e-05,0.0,5888307.25119,678.333739697,644.602830024,67083294.7812,1630.76215559,68624313.0443,70753042.5983,4168.98160017,4160.60282887,0.0
1.06912613152,0.814012627429,1.01342484774e-05,-33408189.3701,1.69990124433e-05,0.0,5784890.73895,679.745041764,648.715405306,66881085.9225,1719.37448957,34863685.7341,69730187.8901,4437.94257194,4429.43788257,0.0
1.09690643278,0.926592559464,1.02471389543e-05,-23066652.034,1.78472319219e-05,0.0,5717715.00662,681.384504749,650.616626147,66706421.8769,1756.34453925,37062414.4299,68834446.9765,4553.25860247,4544.51176136,0.0
1.09684938268,0.905123444081,9.87430226078e-06,-23925679.1646,1.77219908718e-05,0.0,5735505.22592,681.609000585,650.579649275,66766232.2235,1756.47673353,36868155.1471,69138357.1073,4553.0217875,4544.27509813,0.0
0.986561977795,0.955257955135,9.80442398572e-06,-95152299.3352,1.39399383558e-05,0.0,5995515.45049,680.76965469,643.481579778,67390360.2139,1616.48574857,70046313.2451,70288685.0695,4095.21876983,4088.07009061,0.0
1.0467657829,0.800138595037,9.84283437132e-06,-47987359.9701,1.59005539221e-05,0.0,5854178.02761,678.819123326,647.309930026,67066830.181,1690.06506065,36817988.2919,70658542.5245,4345.12476482,4337.17904591,0.0
1.17912762347,0.856243044021,9.97345224751e-06,3116509.53558,2.45602189402e-05,0.0,5374885.10499,686.61086627,655.780808075,65678963.9734,1857.30365172,51566044.6038,66912724.4922,4894.55876502,4883.44704262,0.0
1.21197124481,0.805759470375,9.74772730346e-06,11000225.0161,2.82792827337e-05,0.0,12333849.4776,688.785940147,657.789943886,65199157.2314,1896.26757914,56820194.5945,66528500.2701,5030.89263721,5018.96740587,0.0
1.00210976551,1.04155613638,1.00789770439e-05,-95361249.6204,1.31962668831e-05,0.0,5902164.03715,678.11473048,644.455774506,67124693.0198,1627.68406152,70238333.3476,70690047.7144,4159.75763663,4151.41490587,0.0
1.14199110628,1.15245628561,9.6918846755e-06,-8739894.8445,1.77404268993e-05,0.0,5609762.31566,684.152614629,653.355906645,66418899.8707,1813.34242917,45463382.5661,68323284.502,4740.40508217,4730.71668382,0.0
1.14383237996,0.718696573537,1.00606873524e-05,-8225388.20952,2.53282188623e-05,0.0,5513360.54567,684.299370195,653.411581989,66106190.1062,1815.27547585,45238482.3798,68278913.2701,4748.04820921,4737.91071766,0.0
1.12293870701,0.938927063764,9.71347894051e-06,-14282804.1768,1.9214864528e-05,0.0,5650033.39831,683.18620903,652.193163381,66523831.122,1789.15593972,41754687.7012,68914112.3502,4661.3185728,4651.86342888,0.0
1.02600688414,0.826308579142,9.94742607325e-06,-64876605.3556,1.50326716954e-05,0.0,5914866.10293,677.950877482,646.000800357,67232767.0133,1663.42937235,45866741.8956,70847617.7558,4258.95457607,4251.67699803,0.0
1.16883524161,1.06015512322,9.63933028421e-06,-1370601.7008,2.14686708357e-05,0.0,5533764.13398,686.045857671,655.201596004,66205100.1914,1848.38905678,49488409.2446,68231279.1234,4851.83508792,4842.12045291,0.0
1.2259483412,0.727705114396,9.87279939116e-06,14354465.7463,3.17723524199e-05,0.0,15773362.4495,689.709945224,658.747267033,65033702.7262,1913.34768873,59494462.766,66518692.1081,5088.91156432,5077.09186396,0.0
1.06919684178,1.07140379217,1.03336212342e-05,-33868148.1658,1.42582483636e-05,0.0,5797048.1059,679.501415732,648.710280221,66927937.921,1719.77891709,34765004.0742,69674304.7187,4438.23609023,4429.82420943,0.0
1.08950114412,0.995123736606,1.01478828441e-05,-25080922.8796,1.59343292741e-05,0.0,5710223.12052,680.982027382,650.084826945,66667772.0336,1744.68738901,36392792.3351,69074132.9249,4522.51924924,4513.13985844,0.0
1.08651892558,0.893084383504,9.75960083821e-06,-28009428.2347,1.70238418087e-05,0.0,5765946.32697,681.140769852,649.955039112,66844890.7854,1742.83365395,35903598.3855,69374554.4272,4510.14006008,4501.55588449,0.0
1.00186082218,1.17473764995,1.02337371116e-05,-95417324.5792,1.21929393816e-05,0.0,5906362.4155,677.889910053,644.439868867,67141390.5849,1627.47457773,70284930.2272,70647786.4522,4158.72427287,4150.46692988,0.0
1.05890961315,0.821281714272,1.02874518817e-05,-38608203.9353,1.63021716969e-05,0.0,5809310.68739,679.093869601,648.071321415,66942911.4625,1706.38011529,34689455.0865,69779413.2083,4395.53380419,4387.28117846,0.0
1.12072706072,1.10058089881,1.02299306762e-05,-14434218.6353,1.71466290025e-05,0.0,5629012.70758,682.661368766,652.052349336,66439127.2365,1785.45231262,41612590.0869,68420491.4571,4652.13802905,4642.518602,0.0
1.04679400248,0.862122262394,1.0121040549e-05,-45015337.5519,1.51545179354e-05,0.0,5832694.24449,678.598499346,647.298286865,66997033.5818,1689.31020929,35869618.5837,70364782.6428,4345.24190429,4336.90495537,0.0
1.08686120138,0.794881843899,1.0293435195e-05,-26346573.6032,1.88339722909e-05,0.0,5740821.66357,680.801259399,649.952498922,66764965.3716,1743.69171826,36074759.0714,69161164.326,4511.56084693,4503.0689343,0.0
0.932394876764,0.980662685054,9.43133476539e-06,-92689950.7794,1.37891618019e-05,0.0,6082942.731,690.247937914,639.980703979,67552385.1122,1609.77907529,67878582.3825,68089113.8121,3870.37113345,3863.05920617,0.0
1.13461813677,0.856800145358,1.02080240282e-05,-11089378.0773,2.26427196015e-05,0.0,5608093.88975,683.657205808,652.994331244,66405343.5036,1805.53085817,43724626.6691,67763851.9141,4709.79988573,4700.67096245,0.0
1.07383713692,0.967365484133,1.01071500522e-05,-31405999.7473,1.55315780048e-05,0.0,5783596.93217,679.917439342,648.971322068,66886858.0199,1725.45308414,35187917.3491,69493055.4574,4457.49795535,4448.92073006,0.0
1.09057456812,0.939568616076,9.73852992485e-06,-26092559.8984,1.6500836428e-05,0.0,5758476.63017,681.342560724,650.193306221,66832214.7511,1747.97045431,36270407.5394,69377136.0711,4526.97503227,4518.22960757,0.0
1.08114645823,0.829592088974,9.40496237929e-06,-30477528.0311,1.70072734676e-05,0.0,5792720.39193,680.900910384,649.460990471,66918305.0192,1735.59861851,35507093.341,69473138.3369,4487.83894811,4479.24199054,0.0
1.07234436031,1.08041912576,9.53959401266e-06,-34495968.3329,1.38650981711e-05,0.0,5828434.64103,680.261111643,648.941039699,67019761.5591,1724.10187084,34796384.4911,70205114.9479,4451.30143965,4442.93721082,0.0
1.17029509464,1.08165093655,1.01543851744e-05,1213887.50042,2.01337794003e-05,0.0,5451317.65782,685.784619184,655.257708767,65903278.3608,1846.82240759,50485834.3959,67528457.1285,4857.89493785,4847.25632967,0.0
1.0226295242,0.878729333216,1.0212844898e-05,-67430845.3547,1.47201472672e-05,0.0,5857730.57235,677.701885098,645.764445632,67044711.3378,1656.24555056,47587437.7382,70852000.2843,4244.93515495,4236.59281324,0.0
1.01883835937,1.05622505892,1.04207084433e-05,-69814517.8904,1.31204848157e-05,0.0,5870709.49012,677.371566795,645.519611418,67079699.0961,1651.25852289,49294511.933,70909244.9521,4229.19802974,4221.00140913,0.0
1.12397864408,0.965938942883,1.00837546518e-05,-13279145.9709,1.92572175023e-05,0.0,5606961.34051,683.037054243,652.264349844,66384157.7796,1789.45175338,42406704.9917,67805662.8969,4665.63535158,4655.86197978,0.0
1.13778657605,1.04328150889,1.00513843649e-05,-8334019.68027,1.93168997409e-05,0.0,5566509.7241,683.723581681,653.068766697,66258943.8746,1806.39819169,45691397.2277,68226549.4169,4722.95207718,4712.91413524,0.0
1.12672840548,0.890322357203,1.00932988014e-05,-12545596.2834,2.05639769276e-05,0.0,5590414.67878,683.254067553,652.447702464,66339572.721,1793.04961714,42817834.5673,67193546.4009,4677.04961115,4667.22981823,0.0
1.11061329489,0.667168832335,1.01925043556e-05,-17052424.6625,2.28002398601e-05,0.0,5630433.30328,682.3183546,651.434503647,66449000.8223,1772.92262634,40146266.1817,69025537.4121,4610.15578709,4600.80273683,0.0
1.13460329433,1.04228682044,9.78902365436e-06,-11075788.4136,1.88942433254e-05,0.0,5610765.97823,683.870731951,652.986206581,66405644.4684,1803.92059274,43790555.4567,67683347.9568,4709.73827476,4700.0641759,0.0
1.09707487927,1.00049213769,1.02050635721e-05,-23140040.9809,1.69874227501e-05,0.0,5724434.65714,681.388323782,650.625946589,66726278.1581,1756.50897787,37049499.4763,68910676.5616,4553.95782385,4545.20833463,0.0
1.15435431341,1.07013061357,1.01549821235e-05,-5637579.65424,2.08197177618e-05,0.0,5559149.86489,684.871906329,654.298872983,66279595.2199,1830.36234596,46764229.709,68561680.1984,4791.72475496,4782.25393161,0.0
0.993777093492,1.18406040158,9.79380982474e-06,-95403570.895,1.22192375778e-05,0.0,5943863.87555,679.720420768,643.931192141,67237334.7031,1616.8317772,70267650.2493,70515185.7121,4125.16871509,4117.04162071,0.0
1.11397927361,0.900336824055,9.95462060458e-06,-16353839.3946,1.90980047786e-05,0.0,5619587.86376,682.572286786,651.621358685,66400396.185,1775.76022687,40630760.718,69228085.5639,4624.12796476,4614.13166448,0.0
1.10953082087,1.11785483804,9.97148114761e-06,-17696941.2781,1.59162001621e-05,0.0,5653349.17538,682.216428154,651.373916119,66511641.4514,1769.79269002,39950062.7625,69019538.0919,4605.66243743,4595.743857,0.0
1.20911167593,0.955505055655,1.04081351206e-05,11091453.7466,2.57046655154e-05,0.0,12307803.0689,688.119541593,657.630784351,65202797.8085,1892.09719842,56752458.7715,66197801.6742,5019.02256679,5007.26620884,0.0
1.13746395512,1.01415674293,1.03172255774e-05,-10132839.1009,2.05613523279e-05,0.0,5605828.80452,683.672138665,653.159417874,66406108.423,1808.97611328,44166326.8663,67978165.8405,4721.6128777,4712.43884217,0.0
1.1247493803,0.837838304559,1.01275844523e-05,-13019921.9232,2.07969455151e-05,0.0,5595088.24218,683.116669895,652.315011415,66348137.0495,1790.64888878,42522726.1486,67685842.6674,4668.83467763,4659.06583699,0.0
1.1791706541,0.901266973364,9.79964744434e-06,2834150.4736,2.34448768638e-05,0.0,5391210.46173,686.682265028,655.790605068,65726771.3341,1857.4743942,51514942.7489,66954303.6002,4894.73738517,4883.63810371,0.0
1.02739772773,1.16788058802,9.47866801057e-06,-67939662.8844,1.20941274572e-05,0.0,5946604.17245,678.349587998,646.09835569,67326004.2248,1664.99099159,48017605.5625,71248980.8724,4264.72796781,4257.43050425,0.0
1.06378813271,1.13772377704,9.76109359853e-06,-38159269.4134,1.30084254245e-05,0.0,5830180.03416,679.754012574,648.471998143,67014234.3485,1712.29076719,34725729.9201,70123059.0917,4415.78453888,4407.3631037,0.0
1.17548278377,0.957523695907,1.01969979024e-05,2750710.71607,2.26640141101e-05,0.0,5398140.26992,686.160600431,655.555875135,65738025.9663,1852.62154579,51393571.4813,66968174.3405,4879.42903543,4868.48953514,0.0
1.11215842622,0.937650608036,1.02490774833e-05,-17070461.0664,1.89450044219e-05,0.0,5598509.65792,682.272005645,651.496099132,66330935.7482,1772.91722584,40178535.5505,69050235.4744,4616.56962724,4606.41477116,0.0
0.978708791219,1.23334524786,9.60359404557e-06,-94893310.9932,1.17674527561e-05,0.0,6039531.82627,682.559826493,642.979100147,67510534.4121,1618.2339961,69818066.9401,70055291.2761,4062.62019235,4055.66749751,0.0
1.19424673532,1.0194817363,9.97937896209e-06,6429051.8473,2.27663701399e-05,0.0,7941203.37881,687.502930446,656.758087154,65464969.9338,1874.5323834,53427869.064,66610796.1955,4957.31819831,4945.60661373,0.0
1.05167048125,1.10626026345,1.00474527874e-05,-44078973.931,1.32087654234e-05,0.0,5820118.69377,678.838383439,647.603858329,66971651.9412,1694.78162955,35575178.4706,70552579.3531,4365.48416767,4356.7294539,0.0
0.966814137094,0.815937786474,9.77774520825e-06,-94250240.6052,1.52189114555e-05,0.0,6050652.09681,684.26807456,642.215320397,67535018.2766,1616.78136487,69252075.9831,69481598.3632,4013.24548308,4006.70523817,0.0
1.10113549593,0.868457262507,1.03239822082e-05,-19489128.5984,1.85541878986e-05,0.0,5648493.36264,681.631052804,650.869660907,66479483.1861,1759.37450599,38867109.8513,68504112.1532,4570.81344361,4561.13494785,0.0
1.19961401031,0.671516195255,9.91732662694e-06,8083827.79908,3.11185228816e-05,0.0,9512553.27909,688.127685095,657.095854979,65341580.7232,1882.64667779,54617484.4455,66511314.488,4979.5977568,4968.20574856,0.0
1.08143063379,0.898257210011,1.01463745846e-05,-28545909.1531,1.68589262054e-05,0.0,5764119.9714,680.576410295,649.632601713,66837365.7133,1736.14490264,35643288.7998,69247828.7127,4489.01856086,4480.51360983,0.0
1.1558236739,1.05942575494,9.85568594274e-06,-2716676.33584,1.89878753384e-05,0.0,5526153.46621,684.90164632,654.234186858,66134478.4472,1829.12652292,48712424.896,68437560.9902,4797.82407036,4787.46645074,0.0
1.01814711844,0.89259040549,1.01015363139e-05,-72467610.6782,1.45280000187e-05,0.0,5872704.40473,677.75371629,645.477620194,67076007.0469,1650.2134643,51292200.2404,70777978.2197,4226.32868864,4218.05810286,0.0
0.995448683908,0.963549846318,9.70079146374e-06,-95535527.838,1.38951043681e-05,0.0,5933432.23373,679.431558969,644.039376816,67204594.1189,1618.89461416,70383832.2857,70638902.2638,4132.1074869,4123.95565678,0.0
1.23609522298,0.89915365034,1.01919853188e-05,16978546.5234,2.93260153956e-05,0.0,18563667.1878,689.794462284,659.237559786,64980145.4328,1924.57235598,61710684.4485,66845944.298,5131.03127059,5119.19660691,0.0
1.03065654263,0.695856884146,9.77892644419e-06,-60891895.3655,1.63994305577e-05,0.0,5903121.90198,678.297433305,646.299932997,67202289.1885,1669.67804979,43213051.7617,71048288.0687,4278.25530846,4270.91116175,0.0
1.12370001264,0.867216939179,9.82326522202e-06,-13819512.3037,2.03900739887e-05,0.0,5636444.71839,683.202890249,652.244225167,66485843.6692,1790.16715014,41939832.5354,68620772.1881,4664.47875247,4655.01109592,0.0
1.0554284984,0.890954066931,9.50447209375e-06,-43589791.3695,1.50471017121e-05,0.0,5822675.90879,679.521411904,647.844023262,66976338.4616,1699.96876674,35501103.2435,71361379.0579,4381.08369686,4372.26594517,0.0
1.01066194487,0.9960704661,9.97918342177e-06,-80989489.6917,1.35478607647e-05,0.0,5900018.13674,677.836775192,645.003161447,67121383.5386,1639.80003788,57957617.4268,70833827.2781,4195.25773316,4187.07668928,0.0
1.03591194209,0.988549801249,1.028661003e-05,-53435945.396,1.39382914441e-05,0.0,5836352.926,677.990769738,646.583592674,67000031.402,1674.03047489,39036302.9289,71064262.1417,4300.07047162,4291.51370437,0.0
0.950515105821,0.872508905171,9.86447699846e-06,-93551100.3509,1.45615767915e-05,0.0,6091013.68637,686.298021157,641.166114581,67636252.8356,1612.44744946,68636542.2494,68856300.1628,3945.58820426,3939.34947203,0.0
1.13374043025,0.920577688081,9.93647051438e-06,-10710104.7657,2.10658421511e-05,0.0,5623041.14063,683.727527322,652.93938068,66455821.6116,1803.8585996,44121168.4248,67779915.1416,4706.15652597,4696.93942529,0.0
1.14447557052,0.9486582472,1.01239920728e-05,-8436754.034,2.19516875091e-05,0.0,5586016.87553,684.203546067,653.556727867,66348656.1718,1818.01221511,45192295.5366,68347800.5063,4750.71809323,4741.40571653,0.0
1.15631540169,0.907969644171,1.03730790623e-05,-2737152.22383,2.1911599346e-05,0.0,5453696.46363,684.961338718,654.383698998,65884058.8619,1829.22106671,48097453.4919,67732154.9522,4799.86523242,4789.17845601,0.0
1.14269393171,1.05123847729,9.91382158418e-06,-9204162.98275,1.93669461762e-05,0.0,5560940.84275,684.142224463,653.368676261,66248963.7828,1813.47383677,44894889.3236,68249993.5741,4743.32251053,4733.20604239,0.0
1.00584914158,0.865376279516,1.0189802786e-05,-88024683.3039,1.49629387449e-05,0.0,5879513.51263,677.855364447,644.69356021,67064052.1075,1632.98087908,63830694.7712,70686329.2468,4175.2797867,4166.95807933,0.0
1.09653987618,0.838285401919,1.04821643071e-05,-20689612.8406,1.89331630178e-05,0.0,5638683.99497,681.285279832,650.575625051,66435881.1326,1752.8381683,38271484.6137,68242083.2845,4551.73702602,4541.94769506,0.0
1.24392279835,1.05343168835,9.7881822135e-06,18057777.2408,2.58705517911e-05,0.0,19659223.7361,690.606689261,659.837121358,64872671.3979,1932.73742558,62499809.9428,67134229.4581,5163.52353595,5151.08221861,0.0
1.07880856528,0.857958901331,9.8486730899e-06,-30598630.5784,1.69509914783e-05,0.0,5785070.46693,680.440241588,649.308066604,66904197.7146,1732.74216062,35387273.9761,69345850.282,4478.13435448,4469.67011128,0.0
1.05340453059,0.981681654784,1.05919396099e-05,-41185388.6807,1.47817487679e-05,0.0,5796080.75849,678.545724314,647.687055905,66902395.9853,1697.99479205,34904997.1164,69538021.7679,4372.68220648,4364.11114122,0.0
1.21856606471,0.846928444981,1.0308130272e-05,13065049.9503,2.87611608476e-05,0.0,14259301.7841,688.915046162,658.261098201,65025753.8686,1903.43458139,58331631.8527,66332896.6515,5058.26773461,5046.30484808,0.0
1.0811426886,1.04441491229,9.99501857332e-06,-29180321.8363,1.50503397734e-05,0.0,5781131.84902,680.597354514,649.604061535,66886480.4802,1735.66425692,35638085.9491,69337349.3213,4487.82330038,4479.32282363,0.0
1.09868188199,0.897143015465,9.75581026363e-06,-23505630.0614,1.777965285e-05,0.0,5729223.8095,681.816519041,650.709251986,66742322.0801,1758.53497283,37026144.1679,69211343.7322,4560.62849214,4551.75476675,0.0
1.03478406346,0.918522892496,9.87225934141e-06,-57543345.7952,1.44884128948e-05,0.0,5899861.86713,678.278062894,646.556172943,67201498.1651,1675.09611399,41308111.2831,71168933.3005,4295.38864742,4287.98519157,0.0
1.02215624681,0.814507220555,1.04367342388e-05,-66693994.3934,1.52370613075e-05,0.0,5849168.12227,677.500239748,645.736071157,67023451.1775,1655.85103024,47057579.7891,70729990.0146,4242.97058051,4234.72128515,0.0
1.14348423506,0.81690379307,1.02928796303e-05,-8138442.74254,2.42496557915e-05,0.0,5561587.62677,684.106884525,653.488839205,66268675.2344,1816.43861865,45318369.6307,68325727.9403,4746.60305973,4737.20032235,0.0
1.14463399894,1.12669210944,1.00225023207e-05,-8273390.86819,1.85278798567e-05,0.0,5553140.60961,684.235574926,653.549447668,66230832.8671,1815.78966307,45292900.4332,68440078.3796,4751.3757296,4741.22610737,0.0
1.04121761407,1.0099835687,1.0101095119e-05,-51398033.9468,1.39363681129e-05,0.0,5834739.40103,678.374519184,646.925906663,67003395.2361,1681.25551766,38128870.1359,70865985.0922,4322.094316,4313.54078807,0.0
1.21157851429,0.762861808612,9.84143320687e-06,10991318.5987,2.95542132263e-05,0.0,12320799.0483,688.761796935,657.765137303,65151611.4852,1895.85061498,56799285.9213,66453753.9641,5029.26241282,5017.34438554,0.0
1.05568562355,0.905734647789,9.69238930148e-06,-44718538.6156,1.53257998297e-05,0.0,5803081.89706,679.445161608,647.858502392,66922145.3479,1700.01383634,35771050.5121,70429431.8044,4382.15102336,4373.18203709,0.0
1.16792716634,0.791402902436,9.77975675839e-06,-1089618.61819,2.68545811226e-05,0.0,5501196.13207,686.070373205,655.141936899,66106163.6828,1847.48518293,49403696.1436,68058380.4443,4848.06566748,4838.36428819,0.0
1.01800805838,0.925313848982,1.01468953747e-05,-72233616.4135,1.42478104925e-05,0.0,5873134.80186,677.691331143,645.469842003,67077610.3737,1650.01805218,51102403.1723,70793613.8991,4225.75145034,4217.48308665,0.0
0.925173033532,1.11395650794,9.88526434247e-06,-92301344.92,1.25892811503e-05,0.0,6109403.80784,689.910076437,639.518782419,67636451.3835,1604.68715881,67536522.3832,67741749.0472,3840.39326219,3833.62452803,0.0
1.0897658759,0.964441628606,1.02166323667e-05,-25384759.8248,1.68254179437e-05,0.0,5741772.36836,680.911820231,650.106121181,66782606.1137,1746.90598022,36300224.8553,69123862.9434,4523.61815086,4514.98293831,0.0
1.17329344389,0.866656616856,9.79883859302e-06,1970069.06796,2.36055112241e-05,0.0,5408643.39177,686.335250776,655.436672037,65780796.5661,1849.99161811,51127189.6158,67038522.5836,4870.34108559,4859.33128166,0.0
1.042654791,0.914021384519,1.04015729985e-05,-46927178.7108,1.46001947437e-05,0.0,5826037.53798,678.191754788,647.036702293,66973834.9417,1683.55480497,36404032.3068,70499658.9965,4328.06003744,4319.62709517,0.0
1.08261119301,0.84932076155,1.01719395443e-05,-28061272.4399,1.75669328508e-05,0.0,5756479.83489,680.641222166,649.702924523,66815991.4959,1737.72931864,35733686.211,69230121.9074,4493.91906218,4485.39575671,0.0
1.18548824554,0.906375961585,1.01555579066e-05,5510717.30173,2.43006447676e-05,0.0,7084489.75399,686.811958395,656.173410842,65623742.1288,1864.93464709,52953380.8394,66869923.8145,4920.96170724,4909.94910456,0.0
1.0394467616,0.806779278645,1.02235234961e-05,-51700672.2167,1.55065318271e-05,0.0,5829821.50784,678.273824203,646.828714038,66987656.7113,1679.39410398,38215413.9091,70771311.8411,4314.7435074,4306.30494088,0.0
1.02385813628,1.16361885458,1.0102667882e-05,-67228664.0668,1.23086099732e-05,0.0,5875505.43047,677.737303615,645.846158835,67100336.4305,1657.67789252,47462253.637,70972117.973,4250.0351237,4241.67307003,0.0
0.967821594197,0.907204687872,9.76521249659e-06,-94306493.5557,1.45273426096e-05,0.0,6052639.05679,684.141604419,642.280264555,67542741.5315,1617.16282348,69301573.9162,69531474.652,4017.42743751,4010.87576233,0.0
1.02527192701,0.962419994555,9.67742156481e-06,-68531836.2214,1.38718627071e-05,0.0,5933601.35857,678.167563168,645.9594527,67284108.8072,1662.32848274,48414235.683,71128233.9312,4255.90376902,4248.63668967,0.0
1.22791382953,0.926594981076,9.78628580708e-06,14611578.6938,2.69647125002e-05,0.0,16024382.302,689.668651774,658.882103733,65194738.2622,1915.85859576,59776106.6172,66709502.5904,5097.07030638,5085.40608504,0.0
1.03370421257,0.907020964208,9.68044667564e-06,-59536633.0142,1.46529046897e-05,0.0,5845766.20916,678.495133067,646.466627453,67020911.7266,1670.2220761,42447517.0005,71114076.6393,4290.90618638,4282.12706945,0.0
1.18438077256,0.954651769922,1.00436907703e-05,4738273.13068,2.3294091877e-05,0.0,6387383.60837,686.755050744,656.101318022,65736559.8664,1864.40799574,52561066.2755,67013112.3522,4916.3645869,4905.58886678,0.0
1.16149443564,1.16589416852,9.86593276715e-06,-2724778.73545,1.79533158484e-05,0.0,5478309.34701,685.446001256,654.712113705,66003121.2191,1835.25246022,48342385.8248,67834204.5263,4821.36340234,4810.46290925,0.0
1.13140712438,0.83642270789,1.02644843676e-05,-11347295.8132,2.19407326105e-05,0.0,5568876.01498,683.488067543,652.771858275,66272037.0969,1799.51168629,43482950.2175,67478768.0772,4696.4709733,4686.67254321,0.0
1.0960506401,0.897100467201,1.02123003786e-05,-23420737.8223,1.80973319354e-05,0.0,5719676.44346,681.359437382,650.549577243,66709679.9559,1755.25896735,36934662.386,68920925.1769,4549.70620706,4540.97281459,0.0
1.05624402009,1.0129318158,9.61553230108e-06,-41329781.1948,1.36507938464e-05,0.0,5808371.65693,679.523645122,647.957137737,66923419.8175,1700.05167726,35049159.9723,70744594.3172,4384.46892739,4375.28120117,0.0
1.13654094976,0.875908780394,1.00147456761e-05,-9367474.29312,2.17905271194e-05,0.0,5577383.34342,683.905230179,653.106628741,66311212.1327,1806.23022115,44899531.4235,67952743.2502,4717.78148245,4708.07835386,0.0
1.02958863427,0.965514375986,1.00157137971e-05,-62079466.641,1.40277734314e-05,0.0,5860711.74738,678.053347834,646.211111406,67065490.6473,1665.82947682,43990314.482,71018034.1171,4273.82242085,4265.454301,0.0
1.03503081163,1.0048122657,9.7027872091e-06,-58638185.5847,1.37094641629e-05,0.0,5910104.56945,678.407648925,646.567618359,67230251.4574,1675.32627777,42020657.0914,71371439.9542,4296.41289908,4289.0073261,0.0
1.27730044705,0.943392177071,9.93469500649e-06,24318020.3332,3.3214021996e-05,0.0,26089544.1984,692.834261236,661.916874531,64188772.1273,1970.35685513,67112907.1948,68086263.6228,5302.0741557,5288.80207007,0.0
1.16585894631,0.798405171155,9.7199080248e-06,-658704.43736,2.42936916912e-05,0.0,5424901.6296,686.028963232,654.98058757,65823412.1145,1841.00996186,49682774.4394,67760088.0765,4839.48048613,4828.50247979,0.0
0.978198702881,0.969482500994,1.0067053174e-05,-94650366.9481,1.38858489432e-05,0.0,5959218.17835,681.391489185,642.929979973,67259703.2867,1610.41708401,69604492.4475,69841899.9638,4060.50281566,4052.62680696,0.0
1.10904223804,0.941071827466,9.96704891695e-06,-17770496.8289,1.8125214318e-05,0.0,5639697.67691,682.284514041,651.344773934,66468584.0642,1769.3444441,39837894.6654,68947176.7504,4603.6343301,4593.72417365,0.0
1.07831389105,0.916622198378,9.9223318089e-06,-30529568.276,1.6275764931e-05,0.0,5787271.74003,680.335407307,649.276688629,66911660.1842,1732.06190973,35400816.8856,69336838.0267,4476.08096175,4467.62365213,0.0
1.07688231216,0.857089872788,9.55080610971e-06,-32485528.8259,1.66324095928e-05,0.0,5801886.31254,680.53612334,649.177034637,66947395.7664,1730.19599608,35056969.4348,69880408.5362,4470.13847778,4461.70414877,0.0
1.16272902247,0.840045822312,9.87517057853e-06,-1621008.42645,2.36888618865e-05,0.0,5463574.87254,685.697216474,654.798854323,65951624.1513,1838.14900079,49070652.3096,67904129.6452,4826.48817227,4815.95625451,0.0
1.05914135484,0.972576165197,9.95391553301e-06,-39535835.0189,1.45408522814e-05,0.0,5826625.51219,679.299567112,648.083643729,66998499.8132,1706.26095525,34803381.0488,69805863.5294,4396.49576394,4388.14678243,0.0
1.22105010684,1.03110059637,1.02112830151e-05,13324486.7374,2.49463906273e-05,0.0,14599349.5028,688.959090012,658.426459314,65163221.2788,1906.42071017,58692846.1304,66512132.4769,5068.57899349,5056.70870399,0.0
1.05830471811,0.845085959447,1.0046339264e-05,-39532288.111,1.58396710045e-05,0.0,5817542.33193,679.230578204,648.027489998,66970570.2872,1705.25162615,34788400.9272,69737997.9351,4393.02288487,4384.68692115,0.0
1.22137474764,0.995979073726,1.05333327448e-05,14164912.5975,2.64223287121e-05,0.0,15351889.3682,688.794583345,658.476924517,65192403.0598,1907.41356007,59313628.3041,66610888.7554,5069.92657745,5058.51115536,0.0
1.16584154425,1.08883275341,1.01647324519e-05,293122.211085,1.96275363717e-05,0.0,5439495.93523,685.526116098,654.970495492,65859921.3529,1840.1185359,50016175.2484,67596052.4531,4839.40825018,4828.45796236,0.0
1.16642967772,1.03944221492,9.44008682968e-06,-1714338.47321,2.09170006241e-05,0.0,5506852.35983,686.074329122,655.042192805,66108908.2445,1843.62296668,49304471.5431,68072337.4576,4841.84959222,4831.52415467,0.0
1.05970353736,1.03659265163,1.04719134593e-05,-36975676.8831,1.42400196713e-05,0.0,5822452.02497,678.902306827,648.125589537,66986817.4397,1707.76890091,34610286.1952,69954222.6344,4398.82938358,4390.7529916,0.0
1.19449319515,1.04445994056,9.6951360833e-06,5999959.79888,2.1956075681e-05,0.0,7572568.85308,687.630563211,656.748625541,65549768.6414,1875.13877084,53357519.1435,66734302.3108,4958.34125307,4946.63839046,0.0
1.18237563542,1.13930592961,1.04878871556e-05,4883772.72166,2.04554962532e-05,0.0,6427519.42352,686.312477728,655.958293759,65537011.0372,1859.27630129,52294773.2755,66797067.0165,4908.04126263,4896.55975721,0.0
1.22788149936,1.12746590005,9.59936104843e-06,14184903.0448,2.26597259081e-05,0.0,15587089.199,689.646618666,658.874357179,65238332.1655,1915.14840933,59449868.3089,66729767.6561,5096.93610384,5085.01719202,0.0
1.07300528543,0.832303828906,9.83420712855e-06,-33132234.5791,1.68511486181e-05,0.0,5799127.60522,680.149490234,648.951848238,66936236.9002,1725.13658334,34900527.6681,69872440.4553,4454.04493982,4445.67050758,0.0
1.11552394548,0.848097005165,1.00529347306e-05,-15825087.9957,2.01002911571e-05,0.0,5656375.58441,682.538136008,651.714171134,66528855.0208,1779.81572636,40858471.1533,69373073.5405,4630.53989769,4621.30563531,0.0
1.15836696248,0.809927076369,9.53671080549e-06,-2540375.7467,2.30292441446e-05,0.0,5501038.63012,685.544777953,654.489724606,66066513.2237,1832.77564808,48971341.9548,68405107.9341,4808.38126125,4797.95374434,0.0
1.18015671538,0.612009959439,9.91188129981e-06,3428022.61701,3.07472713269e-05,0.0,5547013.96194,686.955198057,655.84356692,65544643.2206,1859.13353756,51744096.5366,66804518.6237,4898.83052554,4887.70032816,0.0
1.00508768892,1.14631759302,9.82936172274e-06,-91698794.397,1.20061058217e-05,0.0,5987436.89923,677.991191038,644.671894674,67394019.927,1635.14812456,67022465.0578,70973047.3092,4172.11899671,4165.13771195,0.0
1.05447625317,0.984288840578,1.05275019418e-05,-38785834.5623,1.44727532656e-05,0.0,5815826.68405,678.588548998,647.779653327,66955410.0475,1699.92409847,34670140.6757,69671158.7467,4377.13092691,4368.8561661,0.0
1.10950065362,1.03756788411,1.00659918892e-05,-17615675.759,1.69827950248e-05,0.0,5647257.8394,682.186631284,651.372147453,66485989.918,1770.02821506,39896975.7553,68998064.7847,4605.53721318,4595.71540509,0.0
1.00724613029,0.966234907875,9.94550727587e-06,-87888780.3035,1.35334006774e-05,0.0,5968644.67046,677.79617516,644.80567943,67341823.7946,1638.18729403,63755701.6518,70903527.2029,4181.07868683,4174.06707422,0.0
1.03778475347,0.823981872583,1.01899953467e-05,-53346860.7084,1.52786947992e-05,0.0,5835755.94883,678.212852568,646.709528668,67001168.4475,1677.17441161,38998355.548,70957765.436,4307.84451165,4299.43248386,0.0
1.18032178434,0.97648112399,1.02201345407e-05,4084191.11582,2.28086219829e-05,0.0,5984984.21104,686.378833585,655.84233226,65762891.3037,1859.27029627,52093719.4917,67023055.5517,4899.5157268,4888.81069992,0.0
1.08453127174,0.687670835473,9.91902755998e-06,-28131755.8774,1.98107279863e-05,0.0,5749830.97566,681.009484709,649.828730308,66794967.3687,1740.40275007,35788400.0327,69271198.7579,4501.88930899,4493.33611695,0.0
1.2106172043,1.04662978778,1.01764953899e-05,11015355.2686,2.3771084632e-05,0.0,12315963.4459,688.277390164,657.718723041,65251836.5045,1893.72562013,56788329.1936,66336346.2465,5025.27201505,5013.37867151,0.0
1.08848084168,1.31018311701,1.0299143467e-05,-25925082.2676,1.3119349839e-05,0.0,5769850.06418,680.670458258,650.038991099,66856332.2867,1745.43064594,36225358.1022,69229694.1595,4518.28397381,4509.76700916,0.0
0.997865778314,0.943735494104,1.00836768267e-05,-95492861.3086,1.4080285025e-05,0.0,5906166.24337,678.52297894,644.187663188,67130413.3899,1622.09623666,70346461.6602,70738860.9417,4142.14084578,4133.86847291,0.0
1.12268654407,1.0366445559,1.01670960096e-05,-13488277.7893,1.82065300315e-05,0.0,5613839.05774,682.878786392,652.180438758,66407091.4361,1787.68336562,42275456.4824,67954290.5816,4660.27184443,4650.51933631,0.0
1.08181962245,0.922262648421,9.59368574774e-06,-30233563.844,1.62361320371e-05,0.0,5791676.46988,680.771052791,649.508703014,66925287.677,1736.64519634,35533987.3371,69427660.2711,4490.63325279,4482.12225585,0.0
0.967740810404,1.00336494657,1.01862411098e-05,-94110822.3621,1.37867217055e-05,0.0,6026049.69067,683.213294881,642.268483728,67470488.6824,1613.83147386,69129325.4315,69357688.2697,4017.09210399,4010.3261197,0.0
1.05219352873,1.23134666787,9.94926414854e-06,-44308567.4497,1.21445778283e-05,0.0,5829580.51002,678.899093872,647.640529963,67000088.6811,1695.37683842,35717144.5044,70569468.5123,4367.65533776,4358.89209657,0.0
1.0734972776,1.11618118585,1.02542318752e-05,-31418096.261,1.40460407917e-05,0.0,5788660.7935,679.91806084,649.078625494,66908049.3881,1725.2280079,35174629.1,69399531.1642,4456.08719932,4447.60861655,0.0
1.13242658023,0.940542411533,9.75558885964e-06,-11487748.768,2.01112114042e-05,0.0,5596987.12041,683.810837922,652.831762406,66355948.7209,1800.61525054,43553894.8205,67510346.5663,4700.70273453,4690.86172577,0.0
1.10603852084,1.09635875645,9.846969236e-06,-18590610.6017,1.59734838229e-05,0.0,5741407.72874,682.035574166,651.202021961,66785729.9053,1768.49132291,39606596.5202,69004246.6614,4591.16590001,4582.50511807,0.0
1.10554693753,1.01095080131,9.88886395358e-06,-18587066.8989,1.70970629227e-05,0.0,5735112.18688,682.012160737,651.170795831,66765592.2166,1767.90930572,39519323.2363,68962943.497,4589.12533769,4580.47122552,0.0
1.07260932251,0.986810926783,9.79271828649e-06,-33478925.6075,1.50821135304e-05,0.0,5811387.35984,680.108076263,648.937195656,66972635.914,1724.51059897,34876480.4442,69981362.5972,4452.40129774,4444.03297902,0.0
1.04995890929,0.986963628427,1.03343266035e-05,-44844634.1218,1.45042146515e-05,0.0,5801516.56331,678.622715698,647.495623287,66919049.7792,1692.7165963,35713291.4518,70352602.773,4358.37943246,4349.59507077,0.0
0.951445711498,0.956042067273,1.01930416752e-05,-93441996.8822,1.38217227335e-05,0.0,6062906.44511,685.406017716,641.219266971,67552872.987,1609.32164866,68540590.6843,68760460.4068,3949.45114843,3942.91355589,0.0
1.12210377273,0.866868438776,9.96140187864e-06,-14108483.9418,2.03846287397e-05,0.0,5587257.50742,683.085647042,652.124011803,66314777.7261,1786.27813801,41748040.2082,68122602.9055,4657.8527606,4647.71643327,0.0
1.13175158401,0.994064569197,9.97404082763e-06,-10755039.0455,1.94887645907e-05,0.0,5608096.96249,683.571044873,652.800659414,66399198.0749,1800.0380816,44032054.029,67641203.1094,4697.90082523,4688.30355757,0.0
1.07548461465,0.763751549937,1.01634860716e-05,-31921398.043,1.83890184194e-05,0.0,5777399.63172,680.246194223,649.219528536,66880306.0745,1729.06959144,34997899.273,69431913.7708,4464.33663541,4456.1163494,0.0
1.22885063885,1.1007220722,9.59978682125e-06,14428453.3228,2.32221691773e-05,0.0,15823343.8917,689.727608868,658.936691837,65214202.7578,1916.32711363,59625525.2024,66738404.1623,5100.95900187,5089.02204693,0.0
0.919474470503,0.924731446111,9.9588299995e-06,-92029028.384,1.39450969632e-05,0.0,6109821.63172,690.422114285,639.151389309,67630250.1121,1601.93288964,67296842.9639,67630250.1121,3816.73852706,3810.05529442,0.0
1.10517727892,0.772846527933,9.9194855349e-06,-21153142.964,2.03506312387e-05,0.0,5697492.8474,682.176200142,651.150440712,66650738.1408,1767.46258139,37880918.2973,68642420.296,4587.5908848,4578.71352009,0.0
1.14423546717,0.807380689267,9.97964248856e-06,-8462022.99195,2.35626113502e-05,0.0,5526414.31885,684.31968594,653.438614286,66148233.8489,1815.68736587,45261009.3358,68315464.1092,4749.72142422,4739.57855931,0.0
1.14914907939,1.00087906113,9.76244285064e-06,-7427539.38323,2.06996874196e-05,0.0,5550441.60516,684.766127827,653.869304037,66234719.5688,1822.23672035,45809841.879,68646831.0285,4770.11782855,4760.09606826,0.0
1.23032551553,0.744338464343,1.01845857154e-05,15582314.3132,3.26289155492e-05,0.0,17080802.5165,689.767387412,659.035198897,65021502.7609,1918.85163464,60555071.461,66636444.8741,5107.08121497,5095.49500109,0.0
1.00309727992,0.839475976576,1.0066201889e-05,-93885863.7271,1.49789701655e-05,0.0,5887909.8442,678.164613315,644.522613387,67082104.7259,1629.13091771,68941286.9125,70707168.9203,4163.85680895,4155.49945343,0.0
1.11668985871,0.816151498152,1.04661390978e-05,-14806652.0211,2.09623909736e-05,0.0,5606986.43156,682.402452313,651.785994097,66368157.4442,1780.58028266,41231790.9535,68628377.7512,4635.37960351,4625.82659635,0.0
1.09240083138,0.833849960579,1.00734938659e-05,-24997891.3552,1.84758821e-05,0.0,5731797.9208,681.217325974,650.268402759,66753060.414,1750.57777226,36475040.8874,69101186.279,4534.55585106,4525.87908978,0.0
1.21851444424,1.00130812331,9.89154976145e-06,12562460.4136,2.49088999197e-05,0.0,13794530.4567,689.00110367,658.266832308,65216777.1557,1903.84191875,58048154.3384,66369330.9389,5058.05345804,5046.20004309,0.0
1.10427277157,0.975785440726,9.46605254266e-06,-19507901.0995,1.64213226e-05,0.0,5718301.69091,682.290498951,651.097587536,66704580.3852,1764.5282074,39073796.3753,68697184.9168,4583.83627479,4574.50922372,0.0
1.13984878754,0.817539629043,9.72863527555e-06,-9538393.93174,2.3233167798e-05,0.0,5609485.64695,684.28664931,653.333240849,66423736.892,1812.15327607,44940685.2312,68083583.1748,4731.51231708,4722.27823753,0.0
0.951040471781,0.675927054622,9.69105452445e-06,-93573927.4753,1.63096174191e-05,0.0,6086449.72542,686.840498601,641.200955695,67621552.982,1614.74167971,68656681.1237,68876775.9258,3947.76899836,3941.52323376,0.0
1.04488852475,0.748674949312,9.67531313486e-06,-50705199.5743,1.6284579397e-05,0.0,5869997.3496,678.904808815,647.203075947,67117874.8623,1688.20540794,37905430.7204,71180193.625,4337.33226624,4329.59868081,0.0
1.09494318061,0.668754320903,1.02140800677e-05,-23714400.2164,2.14206757758e-05,0.0,5704579.88042,681.393658591,650.466681929,66663357.2936,1754.03669606,36828556.6847,68870711.9955,4545.10914271,4536.39238549,0.0
1.13323532802,0.933447110043,9.54159466256e-06,-11844243.259,2.00664213101e-05,0.0,5570501.86206,684.054853727,652.875473367,66286215.3262,1800.59120569,43175029.6093,67490029.5677,4704.05984661,4693.70495143,0.0
1.02168860791,0.943463150755,1.03710478151e-05,-67677460.9594,1.42086236404e-05,0.0,5859129.61997,677.510707719,645.700754867,67052114.6851,1655.12983101,47763836.1992,70727831.3552,4241.02941143,4232.78754863,0.0
0.975582300296,0.840376659345,9.77587836475e-06,-94788657.8287,1.49683959851e-05,0.0,6032997.89044,682.426786819,642.780419269,67486248.6982,1615.11919998,69725996.5526,69962254.8422,4049.64212853,4042.98724104,0.0
1.17236379602,0.942810507224,1.01600195658e-05,728354.784948,2.41748802008e-05,0.0,5442138.77927,686.039240108,655.384148593,65900617.1808,1850.96102907,50220232.8186,67123410.3117,4866.48211728,4856.16036545,0.0
1.11980220663,1.08659124785,1.05932691754e-05,-14148112.3167,1.79483909145e-05,0.0,5560927.36381,682.448542618,651.973522759,66229315.1953,1782.24649337,41668366.8805,68029428.8821,4648.29895972,4637.91208539,0.0
1.18418166345,0.798242550855,1.00858488613e-05,4843510.53939,2.65588535178e-05,0.0,6473159.00566,686.835430671,656.08886464,65668786.555,1864.36712688,52577626.9063,66933849.8985,4915.53808498,4904.7658369,0.0
1.08165027064,0.982185562635,9.99180530542e-06,-29016350.8094,1.583879205e-05,0.0,5775719.40048,680.659396587,649.639373723,66870094.2993,1736.38429009,35670000.3278,69319642.5129,4489.93027343,4481.42190887,0.0
1.22760742196,0.733396087546,1.01921470865e-05,14851021.1975,3.24806768909e-05,0.0,16305669.6104,689.667385374,658.848726665,64894269.2274,1914.5965472,59896470.9859,66467060.6083,5095.79840856,5083.80720655,0.0
1.10198472948,0.921539359037,1.01388674022e-05,-21851887.8271,1.8288319736e-05,0.0,5707421.88253,681.76853043,650.951419671,66681966.5323,1762.97455332,37615796.2345,68543890.5909,4574.33861207,4565.51179266,0.0
1.07083041526,1.0696472671,1.01783109988e-05,-32522657.2939,1.42469396853e-05,0.0,5795523.87236,679.6714418,648.794684961,66918207.6217,1721.42349275,35031838.858,69629720.6875,4445.01705374,4436.48561788,0.0
1.05235411783,1.00628198549,9.6683530361e-06,-44609736.8098,1.3839464683e-05,0.0,5831194.04196,679.206322804,647.657932338,66999193.2127,1695.82041101,35767462.3963,70657836.2655,4368.32194311,4359.55439743,0.0
1.08794767673,1.04766388818,9.45265896848e-06,-28086613.9189,1.49881221911e-05,0.0,5783523.84934,681.375165735,650.051438058,66901840.236,1744.37204954,35979608.7032,69508704.1174,4516.07080611,4507.36692713,0.0
1.05778109009,1.06489462863,1.02926612018e-05,-39195296.24,1.3734942154e-05,0.0,5825816.31805,678.938407648,647.998021489,66992909.6508,1704.70107379,34767531.3647,69738085.3915,4390.84930496,4382.6155261,0.0
1.11278628535,0.887468686362,1.00698718887e-05,-18450048.7902,1.95074239095e-05,0.0,5670795.139,682.42896738,651.589667515,66579869.5678,1776.74833589,39439735.5509,69013051.9311,4619.17587049,4610.0753729,0.0
1.07309333614,0.708571831336,1.00654086755e-05,-31805938.2413,1.85770056893e-05,0.0,5769651.22125,680.012858331,648.921286976,66841329.98,1724.68103565,35095482.6046,69518552.0418,4454.41043832,4445.84491496,0.0
1.12658461632,0.9526237412,1.00037816636e-05,-13239556.9192,2.01637648989e-05,0.0,5651471.20727,683.209864444,652.459323542,66539868.287,1795.04942045,42479600.2757,68229083.2289,4676.45274234,4667.45242249,0.0
1.12281045176,0.892252360988,9.80158736573e-06,-14144560.6301,1.99861691756e-05,0.0,5588778.41684,683.221634164,652.166625207,66327776.8309,1786.98599566,41757618.8608,68329349.1642,4660.78618526,4650.53996606,0.0
1.17230542524,0.884170515576,9.72660919384e-06,1329531.9173,2.32254559715e-05,0.0,5451958.57912,686.275436628,655.39344651,65925014.004,1850.05776934,50851940.8923,67664992.3866,4866.23982017,4855.67387149,0.0
1.0802497967,0.755634534376,9.63705126945e-06,-30720156.9372,1.82424949167e-05,0.0,5782668.4214,680.721361711,649.404870892,66895601.3319,1734.71945578,35409384.949,69368604.1353,4484.1169061,4475.63029758,0.0
1.11585966159,1.02635460618,9.68750591142e-06,-16612808.2472,1.72813344675e-05,0.0,5662332.61073,682.778907861,651.762963551,66548493.2676,1779.27964344,40468239.6367,69348752.1997,4631.93345526,4622.29614597,0.0
1.18250071801,1.05568238212,9.8175086958e-06,4354774.31247,2.08029441525e-05,0.0,6147412.83738,686.698953325,655.99483582,65824305.4912,1861.68259804,52509062.5779,67146044.2157,4908.56048046,4897.72837507,0.0
1.11527878333,0.973131422966,9.94588837784e-06,-16159682.9636,1.8381893223e-05,0.0,5672445.29474,682.548391341,651.711754845,66575256.505,1779.41715783,40723989.7228,69362177.219,4629.5222296,4620.29286653,0.0
1.08172790808,1.08248980284,9.80121711855e-06,-29655652.7289,1.4524303574e-05,0.0,5790273.33245,680.739328336,649.633065687,66924238.9321,1736.39624455,35643006.0705,69405757.9831,4490.25254644,4481.74297514,0.0
1.11599178613,0.900408291311,1.02264962438e-05,-15178999.5097,1.94210595015e-05,0.0,5628436.85807,682.424742572,651.730854752,66430910.2395,1779.01386399,41150997.0924,69003253.8482,4632.48190423,4622.92996682,0.0
1.07753966612,0.885106418807,1.01119281927e-05,-31282960.6386,1.69588579366e-05,0.0,5781917.29541,680.359283632,649.359713659,66897050.7982,1731.66394901,35118469.9155,69242535.3954,4472.86715406,4464.61564805,0.0
1.2185504411,1.2153652326,1.02377688071e-05,12827762.5343,2.14959355801e-05,0.0,14057855.7537,688.655627167,658.264628854,65236572.9316,1903.13427326,58266173.5308,66508768.1653,5058.20288101,5046.35775524,0.0
1.1556030523,1.01623510911,1.07243132528e-05,-2517537.69707,2.0630530471e-05,0.0,5447263.74033,684.625642468,654.328320144,65851077.195,1827.79691468,47856455.1178,67561288.5067,4796.9082701,4786.22947687,0.0
1.20515172055,0.848219379006,9.7422349593e-06,9878361.40713,2.66895948125e-05,0.0,11291736.9345,688.291682347,657.423186253,65495410.1095,1889.5077719,56037739.4289,66998691.5814,5002.584792,4991.42594614,0.0
1.01557556004,0.742532994865,1.02974112062e-05,-75825614.5985,1.55550111573e-05,0.0,5919554.66667,677.44779191,645.329366034,67224294.3332,1649.41566258,53856664.7208,70615845.0328,4215.65414973,4208.52525323,0.0
1.11195954597,0.872603489953,9.76963197496e-06,-17360036.8883,1.89290783416e-05,0.0,5640886.11584,682.611705622,651.529790625,66476931.9899,1773.53036918,40055710.0847,69072024.0103,4615.74407532,4605.88004874,0.0
1.00857170836,0.824068836368,1.00087268047e-05,-87223291.5917,1.52186708349e-05,0.0,5875661.42426,677.995448966,644.867909552,67052086.3802,1636.4272913,63193335.6008,70751331.4346,4186.5811614,4178.13306127,0.0
1.07341511839,1.09374462176,1.0278058665e-05,-31959428.1299,1.44272126135e-05,0.0,5794800.95381,679.905554764,649.075374934,66919019.4213,1725.74598289,35019258.4199,69478209.2773,4455.74615644,4447.45934547,0.0
1.16195307058,0.845933271583,9.63120428077e-06,-2636348.68664,2.43907125765e-05,0.0,5498812.92144,685.811313605,654.764489878,66090416.3131,1838.47670229,48676590.3595,68139726.0978,4823.26719598,4813.125312,0.0
0.930651644292,0.800876399642,9.74953430065e-06,-92464204.888,1.53170208352e-05,0.0,6067590.11284,689.881797714,639.8679952,67514353.6662,1607.92981523,67680020.5588,67887819.1922,3863.13497546,3855.99445642,0.0
1.09672060375,1.19339346453,9.5341013087e-06,-24864601.1516,1.41101258227e-05,0.0,5764541.09575,681.68780303,650.543910284,66857905.6824,1755.75049269,36695696.4303,69370777.5901,4552.48722617,4543.64463366,0.0
0.890583446589,0.677211753117,9.96099474221e-06,-90792811.9274,1.4710462293e-05,0.0,6154287.86539,693.618172736,637.287504956,67722519.1986,1590.08693752,66208805.5346,67722519.1986,3696.81188679,3690.3013414,0.0
1.1693849076,0.762501940735,9.91069784612e-06,-346277.542553,2.77845357767e-05,0.0,5476581.29947,686.106323214,655.226326485,66026752.9747,1848.88378155,49791938.8768,67733151.0929,4854.11675145,4844.28183308,0.0
1.05298804779,0.893990280497,9.84491367024e-06,-45370654.2765,1.53640332338e-05,0.0,5803475.69998,679.200274187,647.693672575,66920447.641,1696.48472193,35909510.2101,70482313.0016,4370.95338638,4362.0290803,0.0
1.09709352671,0.787540566081,1.02482586486e-05,-22960623.4348,1.97030610424e-05,0.0,5706381.17393,681.462044772,650.630308741,66671903.9287,1756.71668592,37081043.9,68752932.4614,4554.03522937,4545.28544699,0.0
1.16664231084,0.912264717899,1.06254615136e-05,1452518.793,2.32080748847e-05,0.0,5405624.58357,685.379713074,655.003141375,65713339.5866,1841.50599898,50325525.3305,67222657.9998,4842.7322323,4831.96239251,0.0
1.19772165,0.871318155692,9.94958972396e-06,7836301.61116,2.56778322368e-05,0.0,9279624.85561,687.779105017,656.98383654,65469632.9979,1879.75224179,54455205.2269,66609066.7297,4971.74256915,4960.40990394,0.0
1.21738745486,0.919174678622,9.89390270958e-06,12179732.1953,2.63503849092e-05,0.0,13403511.9879,688.981559067,658.185979274,65219434.597,1902.91615685,57741807.253,66291460.4567,5053.37532512,5041.56983181,0.0
1.04953086665,1.08144941387,1.02058642235e-05,-45683788.7138,1.3462016881e-05,0.0,5814451.87745,678.665033569,647.471292843,66955086.7335,1692.05809662,36095650.4635,70442918.4566,4356.60262746,4347.82544029,0.0
0.971879545147,0.786583514571,9.82495170805e-06,-94618634.3351,1.52779464641e-05,0.0,6037813.02296,682.846033246,642.542125945,67496091.0106,1613.90412498,69576249.2032,69810351.3995,4034.27199191,4027.67055771,0.0
1.03555021188,1.01364630477,9.83074361152e-06,-57383461.22,1.36504833855e-05,0.0,5904350.70847,678.315189951,646.60674035,67215351.5135,1676.05244038,41226271.2445,71142220.7108,4298.56892951,4291.1558785,0.0
1.08192380664,0.993417842132,9.68495331146e-06,-29891812.4705,1.55402216869e-05,0.0,5792302.84108,680.686144919,649.516667006,66929175.8956,1736.72766785,35583629.0649,69424656.8842,4491.06572136,4482.55310483,0.0
1.12834299061,0.84319906483,9.96977603311e-06,-12338485.0118,2.12933616509e-05,0.0,5588854.39811,683.361447739,652.478627476,66334749.8943,1795.2040213,43002921.8154,67256187.0182,4683.75175402,4673.90466312,0.0
1.00803511331,1.14337445175,9.7183131667e-06,-89510820.4584,1.20754983317e-05,0.0,5984694.71158,678.057424326,644.861769349,67388746.6266,1639.09368292,65174890.0341,71151215.5324,4184.35375535,4177.33104285,0.0
1.02650912341,0.912528098665,9.99906522235e-06,-63455790.304,1.44080888055e-05,0.0,5908698.11732,677.888022916,646.022657406,67213374.2192,1663.65528029,44897388.0407,70844722.2096,4261.03937127,4253.66456679,0.0
1.05905794398,1.01511329518,1.01825233709e-05,-38646854.7665,1.41740197213e-05,0.0,5820859.64605,679.102223591,648.079532211,66983601.8324,1706.15436263,34697261.8104,69860770.7599,4396.14952546,4387.80184217,0.0
1.17881905082,1.03941330589,1.02095287566e-05,3628458.68364,2.14400810898e-05,0.0,5678054.37722,686.257712891,655.760145825,65805618.0483,1857.4144982,51819139.1672,67088701.8003,4893.27787995,4882.59929563,0.0
1.12869609325,1.11999000381,9.80830348797e-06,-10899248.1936,1.61771474268e-05,0.0,5600848.89432,683.40678708,652.571023808,66339632.8898,1794.04047755,43739422.0529,67578397.5268,4685.21748308,4674.93532194,0.0
1.19352231252,0.897383476077,1.06388128033e-05,7972727.93888,2.57911506127e-05,0.0,9396983.29918,687.091952318,656.693885784,65338046.5856,1873.57961566,54228470.2032,66417070.2535,4954.31111927,4942.93947652,0.0
1.19850298481,0.858575571724,9.90247683137e-06,7874369.87923,2.5956444333e-05,0.0,9314600.85806,687.86700823,657.032761474,65472813.1935,1880.81901605,54501416.9022,66620812.1587,4974.98588995,4963.64367056,0.0
1.01556050362,0.817089364166,1.02550214451e-05,-76304720.3652,1.49753552591e-05,0.0,5925160.2977,677.47876351,645.338098988,67240539.4987,1649.33551877,54234259.2675,70653535.6013,4215.59165053,4208.46296727,0.0
1.1469895755,0.991616092899,9.95673993626e-06,-8147426.56437,2.12977450248e-05,0.0,5589105.82551,684.447473657,653.723634865,66359302.6917,1821.23917711,45433226.6133,68484862.489,4761.1537279,4751.80280513,0.0
1.04660218941,1.1142117238,9.7696768251e-06,-49982961.1124,1.31109199525e-05,0.0,5825740.21171,678.868615245,647.289108786,66979515.7791,1687.20892485,37559477.1211,70741850.9508,4344.44568824,4335.45301434,0.0
1.08939639505,0.905496614776,1.01168892678e-05,-25911707.9326,1.73633343237e-05,0.0,5743659.07438,681.005767889,650.097979883,66785746.2567,1746.57210196,36218727.2918,69202475.3508,4522.08443585,4513.455325,0.0
1.21269159559,1.17200044416,9.83105196303e-06,10974368.2927,2.12909996517e-05,0.0,12286269.9782,688.503597313,657.843124939,65329545.6216,1896.45168915,56857195.1913,66568845.2878,5033.88281329,5021.94408405,0.0
1.16596049303,0.961999841941,1.0400509188e-05,866214.423293,2.20846706726e-05,0.0,5417472.10681,685.468085587,654.978630817,65771217.9585,1840.47154417,50151900.7365,67360805.9074,4839.90200657,4829.03603282,0.0
1.06084534129,0.948979471866,9.79027635926e-06,-39391406.9083,1.47940013861e-05,0.0,5827358.12905,679.529081931,648.198385043,67000978.1412,1708.50940494,34795507.0904,69899006.9068,4403.56901169,4395.19349098,0.0
1.11022979071,0.83994980587,9.8698416755e-06,-17629454.5286,1.94203344489e-05,0.0,5631236.1372,682.473658685,651.41926665,66442444.0121,1770.99940569,39941495.0296,68972097.9367,4608.56386124,4598.63233779,0.0
1.11489414299,0.928121667368,1.01035372319e-05,-15823982.7556,1.89017530175e-05,0.0,5642822.0845,682.439574543,651.666449455,66486426.458,1777.99789297,40755372.5467,69380174.2871,4627.92558755,4618.4037456,0.0
1.14256020558,0.925626970654,9.80328827516e-06,-7969188.02006,2.13210572034e-05,0.0,5521542.64804,684.390580843,653.427768086,66137920.8288,1812.06815741,45804841.4291,68340499.9624,4742.76741336,4732.25248298,0.0
1.1905363645,0.72078954734,9.74437767973e-06,5675294.17441,2.84324507887e-05,0.0,7262228.46812,687.566049135,656.500436228,65549591.3142,1871.82048656,53230765.7447,66766144.7257,4941.91644904,4930.71487134,0.0
1.09247985557,1.15034750981,9.98747109122e-06,-25336824.3561,1.45961194471e-05,0.0,5757830.1395,681.144129328,650.274038944,66832013.4262,1750.40387586,36436814.4776,69238012.2444,4534.88388047,4526.20651103,0.0
1.03748635249,0.781239794938,9.70177996153e-06,-56776773.9873,1.58779962092e-05,0.0,5892709.40703,678.587173232,646.736355443,67182495.3213,1678.73601033,40892195.4477,71081780.6291,4306.60584919,4299.16489444,0.0
1.17991424267,0.98196312898,9.57032069543e-06,2620579.16636,2.17767196434e-05,0.0,5401412.40726,686.815445534,655.838827709,65765242.7798,1858.13837241,51489916.2314,67016878.0276,4897.82402132,4886.58611256,0.0
1.20048369988,0.786147079115,9.74433777223e-06,8351208.01821,2.79426450546e-05,0.0,9839907.20466,688.204767271,657.139584731,65313608.1073,1882.43633249,54879793.9255,66581855.6272,4983.2078382,4971.36653272,0.0
1.11810473154,1.07496973957,1.02138788951e-05,-15133805.1434,1.72507221173e-05,0.0,5639376.61393,682.506727835,651.87106899,66466616.5845,1782.15149285,41203080.4886,68900383.5042,4641.25274062,4631.67611499,0.0
1.0639913345,1.00480615607,9.7281436268e-06,-38190310.5956,1.43297738427e-05,0.0,5825840.88861,679.719526061,648.401178221,67000577.8403,1712.6439889,34737864.9628,70115945.2009,4416.62802951,4408.20342011,0.0
1.01610894709,0.920633608421,9.35966997211e-06,-79434865.2543,1.42633391992e-05,0.0,5914439.19043,678.61942156,645.362621271,67184641.3871,1647.62526146,56701901.5382,70963235.2827,4217.86823937,4209.71453244,0.0
0.959303616085,0.683454609268,9.91317694651e-06,-93856841.8519,1.62749660154e-05,0.0,6057416.18442,685.131487527,641.731645935,67551601.2958,1614.82543783,68905816.6862,69129655.0263,3982.06931037,3975.71263864,0.0
1.03250076507,0.986595400902,9.6791517686e-06,-60268057.964,1.38184766223e-05,0.0,5916370.34472,678.362803023,646.421619286,67245187.7163,1671.95569631,42947156.6971,71082938.5161,4285.91067581,4278.54005417,0.0
1.05527890285,0.809754902188,1.02024563633e-05,-41543861.5311,1.6285975874e-05,0.0,5801011.68373,678.988313466,647.813066969,66922280.2764,1700.67486894,35078273.3464,69871387.598,4380.46272573,4371.92002444,0.0
0.970585984715,0.822087314438,9.62929556133e-06,-94545033.7075,1.49768879182e-05,0.0,6054467.87314,683.720655444,642.461178984,67545123.5328,1616.85868848,69511538.0272,69743971.9291,4028.90242255,4022.37160471,0.0
1.11513600901,0.921371402703,9.73218210635e-06,-18607231.8325,1.89981904116e-05,0.0,5681374.38458,682.780316963,651.743138323,66625451.2399,1779.82897384,39404695.2645,69111475.498,4628.9295734,4619.79226418,0.0
1.03828927476,1.08132908027,9.81049339508e-06,-55743136.0318,1.30735728548e-05,0.0,5901864.36025,678.401325563,646.769282084,67211051.6774,1679.66004786,40335051.9489,71171145.0263,4309.93877953,4302.48623998,0.0
1.1647582177,0.935564877046,9.99923005339e-06,5413.34350856,2.19901089539e-05,0.0,5431694.627,685.667319318,654.904936825,65829640.6055,1838.98481578,49975930.6253,67697962.1437,4834.91136167,4823.95044637,0.0
1.21365121392,0.675141633976,9.72409609775e-06,11798408.8335,3.21725661563e-05,0.0,13132331.5858,689.01034886,657.92855821,65221119.7329,1899.52473333,57419712.6398,66364434.1059,5037.86618898,5026.35389988,0.0
1.13173250783,0.725368346847,1.01197013759e-05,-11382984.0807,2.37966406981e-05,0.0,5557147.3659,683.585919537,652.71161062,66227868.3395,1799.82747347,43401977.6412,67442620.7568,4697.82164,4687.91673204,0.0
1.18502305484,0.857210092708,1.03408535328e-05,5077780.53175,2.55282022945e-05,0.0,6585230.38111,686.734971262,656.143703009,65580389.104,1864.68202562,52480534.1811,66751182.915,4919.03070064,4908.02676313,0.0
1.14280536566,0.684985564974,9.61926459624e-06,-9329069.31638,2.55464473726e-05,0.0,5562325.21203,684.665745209,653.497961441,66273469.5571,1815.22731853,44983421.1243,68104512.259,4743.78507285,4734.07838648,0.0
1.06506626304,0.797056343567,9.94959801298e-06,-36739590.7528,1.67576949958e-05,0.0,5801393.65395,679.694743294,648.469955084,66931754.8944,1714.25323546,34632367.2851,70135190.8534,4421.09005788,4412.64864888,0.0
1.2056195934,0.966552069537,9.86916601727e-06,9793774.63063,2.45760482695e-05,0.0,11139017.0674,688.22585261,657.415206932,65300935.9474,1887.94907218,55851603.8753,66900314.4774,5004.5269322,4992.59150257,0.0
1.06559810316,0.896652026958,9.64091365723e-06,-37769404.11,1.55223136815e-05,0.0,5818212.28311,679.915881056,648.505400057,66978822.299,1714.84090855,34719985.8622,70179428.5743,4423.29772622,4414.84800025,0.0
0.980095689816,1.03321363195,9.85118313474e-06,-94890750.8772,1.31446681413e-05,0.0,6014945.20031,681.561677844,643.065700172,67435897.9568,1614.71798691,69815849.455,70054834.0116,4068.37720843,4061.32227238,0.0
1.16015431765,0.724517851343,1.02363154332e-05,-1299640.52148,2.58215364774e-05,0.0,5419064.13407,685.40842061,654.621535016,65798695.9022,1834.15846022,49017649.8754,67594459.9562,4815.80057257,4805.04058501,0.0
1.19403308188,0.836896480885,9.89041937024e-06,6317039.90043,2.62815830834e-05,0.0,7855368.18543,687.681735683,656.735531531,65401959.582,1874.72205998,53387614.7086,66592162.1164,4956.43132288,4944.7369837,0.0
1.13173125949,1.04400607556,1.0185939456e-05,-11396692.9995,1.88983560429e-05,0.0,5585684.01914,683.348677106,652.710622636,66316802.5131,1799.420696,43447108.2657,67554973.6922,4697.81645814,4687.91157134,0.0
1.1134577585,0.963121907783,9.95103297196e-06,-16500182.7737,1.82113799905e-05,0.0,5639984.11495,682.500537446,651.598386428,66463643.6421,1775.5201746,40485734.9895,69229931.3337,4621.96315553,4612.17017632,0.0
0.952294916263,0.9336568518,1.02885614049e-05,-93456234.9663,1.39045504016e-05,0.0,6056625.17098,684.982512644,641.273537838,67536492.3469,1608.37229652,68553144.4921,68773541.7616,3952.97619741,3946.42678536,0.0
1.15548774441,1.15049677833,9.93385250559e-06,-4164965.44409,1.79148497842e-05,0.0,5490364.69788,684.991706578,654.288627735,66032602.1602,1827.47939172,47546868.206,67944281.825,4796.42962705,4785.54744689,0.0
1.11383764044,0.84998553437,9.88418922965e-06,-15560989.8951,1.9469522016e-05,0.0,5675133.33784,682.538321887,651.634075535,66586714.0091,1777.52134589,41061009.5452,69362937.4524,4623.54004547,4614.35296083,0.0
1.1281147799,0.876836980188,1.01676483531e-05,-12284795.9181,2.09698794515e-05,0.0,5581637.2114,683.318055173,652.541009729,66298200.8887,1794.99099783,42933344.3162,67228585.2882,4682.80445136,4672.9608047,0.0
1.14292327749,1.0894662805,9.9858743187e-06,-8048983.02437,1.81813531848e-05,0.0,5569775.77393,684.026378038,653.370618407,66268578.5295,1813.57383122,45512469.1,68447132.3113,4744.27452486,4734.19459505,0.0
1.14234919351,0.973479158309,1.01476609188e-05,-8525596.0299,2.08442760743e-05,0.0,5542372.16709,683.995172441,653.322594035,66196212.9351,1813.02274193,45003603.5866,68274282.1134,4741.89150226,4731.78100466,0.0
1.24286359771,0.74388812309,1.01585700882e-05,18339365.2358,3.41941773744e-05,0.0,20007023.9903,690.664567601,659.758161899,64617794.7732,1931.41689119,62636972.6176,66024693.6626,5159.12679409,5146.62396059,0.0
0.985606065559,0.99518384537,1.02262572191e-05,-94928027.7188,1.36873525385e-05,0.0,5936748.19355,679.84657729,643.4043318,67205093.6491,1610.21315445,69849056.1555,70090262.4328,4091.25077814,4083.25468388,0.0
1.1673145468,0.990839865067,1.02780732455e-05,932946.721862,2.15385308001e-05,0.0,5415643.27586,685.61482056,655.061677224,65770616.0782,1841.9835807,50226523.0076,67402626.5022,4845.52268377,4834.54601802,0.0
0.931483977798,0.96684009477,9.74507868604e-06,-92523598.672,1.42082546612e-05,0.0,6072756.71434,689.719832434,639.921485617,67533214.5785,1608.09665764,67732256.0934,67940407.5917,3866.58999184,3859.436792,0.0
1.07214207277,0.853408493257,9.28628134343e-06,-34524428.6432,1.59685792642e-05,0.0,5817413.39119,680.525818832,648.928793315,66981956.3996,1723.32501587,34822181.2787,70360812.4064,4450.46174407,4441.91093766,0.0
1.0240476849,0.967479856646,9.98539524667e-06,-66966674.1417,1.37871789863e-05,0.0,5924634.42953,677.816894768,645.869138122,67258457.7455,1660.75698875,47300381.834,70938778.1351,4250.82194002,4243.57233433,0.0
1.14659832616,0.815318975514,1.01009417508e-05,-7426678.20626,2.38321322781e-05,0.0,5512203.80704,684.407326474,653.614590993,66109234.4394,1818.59896425,45690200.2609,68492772.3597,4759.52965189,4749.34634514,0.0
1.10404333696,0.834104319435,1.06304165808e-05,-18428762.1056,1.97790849561e-05,0.0,5606500.88777,681.618005415,651.019765988,66352224.7404,1762.78592653,39323560.0738,68628052.5859,4582.88389172,4572.96517923,0.0
1.0596302241,1.07245855416,1.02799293905e-05,-38383687.1862,1.37404041631e-05,0.0,5822418.8778,679.045917441,648.117931334,66985608.5706,1707.1627294,34694451.4764,69876190.7464,4398.52506024,4390.26277624,0.0
1.10616551614,0.942752817229,1.01627343527e-05,-18520252.2981,1.80769966212e-05,0.0,5673033.18202,681.942346843,651.181496477,66573390.0111,1766.84224081,39490849.7913,68824804.0171,4591.6930575,4582.41451004,0.0
1.17975743158,0.87072651019,9.7488361622e-06,2839932.33447,2.41082580704e-05,0.0,5369895.95166,686.79202366,655.819654696,65668268.4697,1857.69732515,51533796.0107,66956357.3998,4897.17309849,4885.85284782,0.0
1.10455805189,1.20824960254,1.02112545592e-05,-19103370.6916,1.47961289671e-05,0.0,5650024.68408,681.73548095,651.064754608,66492481.8101,1762.52351413,39212494.2222,68772824.5305,4585.0204734,4574.99879281,0.0
1.2397524586,0.682545175232,9.52478571497e-06,17177764.07,3.40970954319e-05,0.0,18708104.3509,690.769374215,659.575624543,64865258.1311,1929.76357135,61846040.2769,66854516.34,5146.21245565,5134.09923558,0.0
1.15196505195,0.895015503054,9.53928736118e-06,-5930592.69296,2.23801904197e-05,0.0,5547885.58078,685.133245409,654.082297318,66230753.4826,1826.03970568,47032038.6714,68870623.4187,4781.80693064,4771.83290828,0.0
1.05199353339,1.01051584168,1.02220723421e-05,-43907156.2067,1.42771778324e-05,0.0,5851471.59968,678.687570035,647.6292695,67081512.9495,1697.83881009,35615357.5717,70475087.0666,4366.8251571,4359.07963342,0.0
1.12951799439,0.786053087833,9.64940002364e-06,-12523180.9997,2.21116173864e-05,0.0,5612426.49468,683.75577377,652.638825001,66415358.9533,1797.71769976,42791455.3844,67898332.8312,4688.62919471,4679.04018636,0.0
1.05079082338,0.80935880686,9.90930629932e-06,-45111258.0253,1.60500506971e-05,0.0,5808531.2946,679.034247912,647.556844334,66931336.5813,1693.80035454,35892154.4632,70505671.135,4361.83270785,4353.0923279,0.0
1.02129331688,0.915925036361,1.03420219809e-05,-70399355.8596,1.44006327624e-05,0.0,5836452.83761,677.535625341,645.66813042,66980298.9528,1653.23535386,49711211.2382,70508493.6744,4239.38855837,4230.64769195,0.0
1.20367264252,0.89669610329,1.02619565506e-05,10018489.2877,2.61051171646e-05,0.0,11430561.6093,687.86122452,657.284196791,65342205.578,1886.23346042,56015259.3763,66924664.6932,4996.4451391,4984.99566135,0.0
1.21759020436,0.946118230655,9.89805978193e-06,12199461.7327,2.58506858933e-05,0.0,13435270.2163,688.972882987,658.200256395,65228278.3273,1903.10284548,57762390.005,66299712.3556,5054.2169383,5042.40771893,0.0
1.13518547669,1.15541098391,1.02826807294e-05,-10848666.3433,1.81994344925e-05,0.0,5626898.38326,683.501395187,653.030500977,66465553.5032,1805.93796743,43789012.1253,67887482.7459,4712.15491374,4703.01700416,0.0
1.04650618624,1.2134264635,1.01042231792e-05,-47992066.2301,1.22764743472e-05,0.0,5834746.61957,678.559582545,647.282485045,67013885.8741,1688.1262069,36801666.1734,70607943.8989,4344.04717908,4335.4081647,0.0
1.12872010505,0.88566360861,9.95242821311e-06,-12286657.6248,2.0689229592e-05,0.0,5592258.86953,683.374032375,652.503525367,66345319.1845,1795.64392634,43038515.7635,67280163.3139,4685.31715606,4675.46368491,0.0
1.01449542982,1.00243825976,9.97437583239e-06,-78714602.2193,1.33287629712e-05,0.0,5951359.43268,677.702286575,645.274898327,67302141.2609,1647.96575165,56157963.043,70924996.608,4211.17052918,4204.05664677,0.0
0.991425944386,1.0248821393,9.60610267405e-06,-95374204.7001,1.36701481474e-05,0.0,5997061.00615,680.806411923,643.795546958,67401092.0434,1621.01311766,70241534.1647,70485596.2572,4115.40909515,4108.27354449,0.0
1.12545807339,1.14674817494,1.01015618684e-05,-13469517.7116,1.73538503149e-05,0.0,5665679.77254,682.983151799,652.38385938,66583941.9351,1793.39179551,42437059.2597,68307962.9026,4671.77646264,4662.79387205,0.0
1.15510214634,1.15736288211,9.68704667521e-06,-5161743.08007,1.88681128364e-05,0.0,5582621.66086,685.079988892,654.303725463,66353764.3576,1830.86940598,47423843.5927,68839805.0496,4794.82900946,4785.2277365,0.0
1.14528605957,0.929923303821,9.84955022217e-06,-7435106.8946,2.15980877462e-05,0.0,5567100.77857,684.441684079,653.605572647,66296108.7444,1817.69395921,46135414.3,68524554.3574,4754.08243328,4744.3394855,0.0
1.1025645628,0.94424092179,1.02416733255e-05,-21415481.9898,1.81571989178e-05,0.0,5702486.63734,681.724863658,650.981498834,66669011.5035,1763.69614165,37768616.9921,68587154.9386,4576.74550018,4567.90953007,0.0
1.0246604938,0.941242049095,9.82997952474e-06,-67764724.267,1.40264370047e-05,0.0,5928145.10538,678.006418008,645.919764855,67268116.9019,1661.56164205,47874683.8388,71043056.2205,4253.36570976,4246.10735967,0.0
1.12740230717,0.749240389993,9.70159192808e-06,-12957246.2181,2.25320226424e-05,0.0,5616464.64717,683.597284714,652.489175058,66425412.6551,1795.03504575,42496603.1466,68164912.6996,4679.84697706,4670.29294206,0.0
1.15908319939,0.814348403715,1.00512002289e-05,-3685872.78256,2.57574213202e-05,0.0,5408562.46068,685.533359624,654.554234893,65789117.1115,1832.66432857,47698387.8401,67937725.4689,4811.35436067,4800.30556406,0.0
1.21988862771,1.06164367651,1.01448228568e-05,12896975.119,2.41720092564e-05,0.0,14124426.5947,688.906886831,658.351236103,65173763.3841,1905.20245826,58315726.3199,66459249.302,5063.75769362,5051.88185667,0.0
1.11684204881,0.780955724526,9.95363547787e-06,-15634140.0374,2.11293611264e-05,0.0,5650459.28623,682.724381199,651.799746397,66510851.4219,1781.61893765,40962462.4492,69337093.109,4636.01134461,4626.7557136,0.0
1.04156733333,0.900369726024,1.02012872451e-05,-49787837.9177,1.49089686795e-05,0.0,5821636.97976,678.3420475,646.942182185,66961248.1744,1681.59965104,37472389.8819,70917061.3,4323.54600065,4314.89877574,0.0
1.09981156156,0.809487148114,1.03564730859e-05,-19932922.8389,1.95393353669e-05,0.0,5630676.71795,681.582837109,650.780420751,66414839.9032,1757.11121555,38561313.3455,68419860.0917,4565.31779204,4555.4727696,0.0
1.24277644877,1.19231794662,1.01072053028e-05,18192698.2965,2.38696653302e-05,0.0,19830994.6643,690.238542602,659.769855188,64980886.6612,1931.57565352,62675783.1468,66962610.3766,5158.76503884,5146.6931853,0.0
1.06366123861,0.841044717633,9.86729199499e-06,-37736800.0354,1.61305497644e-05,0.0,5810956.55334,679.663398218,648.378883399,66956809.1005,1712.35856562,34678678.2021,70069340.5312,4415.25780147,4406.83834825,0.0
1.03363314612,1.07087808449,9.72943987599e-06,-59256939.9317,1.30372967659e-05,0.0,5916325.20626,678.316179153,646.484630033,67246836.0224,1673.4315274,42342263.8097,71136436.376,4290.61118954,4283.22429183,0.0
1.16750764255,0.974121322478,9.9171152245e-06,451671.857449,2.14961636905e-05,0.0,5461783.88483,685.827197076,655.091928787,65947962.2483,1843.57688388,50266073.2401,67713251.2041,4846.32422422,4835.73560544,0.0
1.0321219181,0.823970071531,9.7721055259e-06,-59976259.0619,1.5261876605e-05,0.0,5903134.97017,678.418573947,646.469284457,67205549.307,1671.56488135,42767822.109,71035257.7328,4284.33808203,4276.97290228,0.0
1.10678338275,1.05798619722,9.6250808967e-06,-20044950.6478,1.63351724785e-05,0.0,5653133.36503,682.37616161,651.224770653,66501950.0187,1765.74704046,38873776.464,68713001.9933,4594.2578218,4584.10123154,0.0
1.12817630183,0.862167404208,1.02928636392e-05,-11986564.8175,2.13194187158e-05,0.0,5576506.74306,683.148918085,652.469823922,66285293.2766,1795.04818427,43024560.3016,67279708.2554,4683.0598289,4673.2151417,0.0
1.13202002201,1.02831930678,9.69333292169e-06,-11893115.9447,1.87912761714e-05,0.0,5623106.77857,683.763787521,652.808498029,66453359.4983,1800.66085952,43232447.9577,67504002.6528,4699.01511136,4689.38467714,0.0
1.25649963655,0.997738541969,9.58707119966e-06,20401887.4657,2.82010828882e-05,0.0,22083310.7036,691.573581474,660.597848067,64636774.0408,1947.10890246,64354302.6421,65229098.343,5215.72999132,5202.84532137,0.0
1.17145010309,0.857540469494,9.87194083659e-06,1159162.64832,2.36532591606e-05,0.0,5411793.00259,686.202116685,655.330858627,65779627.2496,1847.94955992,50601179.5881,67522832.1386,4862.68937793,4851.71692768,0.0
1.06440104577,0.855007824464,9.71436428283e-06,-38017306.7032,1.59499803299e-05,0.0,5815750.81189,679.810992543,648.426316155,66970031.4894,1713.29236071,34716866.0502,70110498.3207,4418.32874099,4409.89773,0.0
0.947130551745,0.691686954716,9.80509690004e-06,-93270267.1852,1.62095817341e-05,0.0,6055633.95472,687.308906152,640.938428876,67512713.4708,1612.11172605,68389451.1186,68606117.0886,3931.53892029,3924.75172689,0.0
1.24223324598,1.03107764827,1.0022105459e-05,18060257.2393,2.6786775715e-05,0.0,19692789.1861,690.367155253,659.741672095,64942632.0881,1931.4175187,62547711.0874,67129480.4725,5156.51020406,5144.47000033,0.0
1.01724678196,0.979744479165,9.77602181092e-06,-77294005.1775,1.35893693651e-05,0.0,5950956.14719,677.939972014,645.443109887,67316483.027,1651.6363071,55028597.299,70935883.2833,4222.59139192,4215.43852914,0.0
1.12660603403,0.807275398032,9.74560998425e-06,-13367126.6574,2.14798864341e-05,0.0,5571602.88642,683.559733178,652.43146801,66270182.6971,1792.12608229,42230872.1739,67850226.2667,4676.54164726,4666.32592524,0.0
1.16088003061,1.31813605041,1.03350717267e-05,-900807.063361,1.64772981627e-05,0.0,5477039.71876,685.004096572,654.664037619,65959829.1454,1834.02494809,49242359.3641,67701162.1912,4818.81300706,4808.04169129,0.0
1.0968598029,0.72667094118,9.86847804568e-06,-23911188.6444,2.02773803521e-05,0.0,5721024.32454,681.707468747,650.580344378,66721968.7192,1756.65004468,36850491.9897,69091337.9603,4553.06504184,4544.31882279,0.0
1.12995477996,0.899671301419,1.01967541179e-05,-11744816.2509,2.0858395868e-05,0.0,5575566.18562,683.413677157,652.66904108,66282550.6568,1797.31469641,43218280.3449,67383105.7737,4690.44229161,4680.56750591,0.0
1.03757735072,0.814761630303,1.01845564456e-05,-53569195.8677,1.53552945246e-05,0.0,5835921.86666,678.208579738,646.692503141,67001325.7204,1676.9042377,39107292.6504,70971650.094,4306.98358284,4298.57486443,0.0
1.17870949638,1.04061618428,1.00476652342e-05,3244423.87725,2.11504614525e-05,0.0,5380905.6861,686.407665384,655.744256115,65675941.5031,1855.75469748,51615343.4448,66995590.5521,4892.82311947,4881.51031363,0.0
1.1294300001,0.980110599363,1.00732979837e-05,-11762299.1422,1.95870669193e-05,0.0,5589693.82232,683.3903627,652.63366328,66324937.6609,1796.22086835,43323395.1355,67455299.7425,4688.26393042,4678.4178935,0.0
0.949711461587,0.863761257959,9.75229426127e-06,-93414535.6754,1.4942825069e-05,0.0,6060297.11353,687.056212914,641.104929261,67531161.0041,1613.33153917,68516438.1432,68734215.1985,3942.25227705,3935.42786706,0.0
1.04474129382,1.19548707123,9.81844695945e-06,-50846759.8576,1.23707731296e-05,0.0,5833076.65168,678.703061334,647.161438139,66999329.8721,1684.6938174,37973180.9048,71012869.0057,4336.72111065,4327.7597093,0.0
1.15857840995,0.653228707911,1.01587985217e-05,-2477112.70692,2.72753857685e-05,0.0,5454017.47181,685.371405415,654.535311365,65926426.1149,1833.5588611,48455386.2427,67823021.2994,4809.2589797,4798.94101639,0.0
1.10151523943,1.00483340001,9.78898692807e-06,-21069694.105,1.63357700221e-05,0.0,5663859.09292,681.98050499,650.89557742,66526617.2083,1759.1209807,38259393.2114,68198546.4006,4572.38975887,4562.34220123,0.0
1.09042609766,1.18869724618,1.02774916149e-05,-25318265.8336,1.43822550849e-05,0.0,5757841.87788,680.816622663,650.144569326,66826066.3453,1748.04702046,36387256.3305,69186796.0829,4526.35873139,4517.81163814,0.0
1.16030277979,1.12668091895,9.57531358949e-06,-3913239.18144,1.92637190511e-05,0.0,5540110.22232,685.511192736,654.617892299,66215798.7153,1836.37631489,48079908.9808,68394208.0868,4816.41683891,4806.30008209,0.0
1.30306121121,1.10809192478,1.00274836029e-05,28415249.3616,3.14144500414e-05,0.0,29876522.5409,694.257500858,663.579121793,63925001.507,1998.58668183,68948540.2846,70152725.3022,5409.00708773,5395.50664802,0.0
0.936753388098,0.752529575521,9.95457029603e-06,-92966679.1884,1.49127097859e-05,0.0,6114824.72463,687.84868377,640.278834039,67684434.6278,1607.10989435,68122022.4973,68335013.2706,3888.46331399,3882.40756394,0.0
1.01692905401,0.975306012563,9.79143920688e-06,-77536404.884,1.36184918152e-05,0.0,5950894.56397,677.92069297,645.423418717,67314197.0904,1651.2130915,55224436.6591,70953624.7764,4221.2725032,4214.12414654,0.0
1.10393424401,0.856129426264,1.03426708382e-05,-18667171.816,1.92870330575e-05,0.0,5609972.47709,681.799999191,651.016937115,66365366.8392,1761.90748995,39239565.1317,68669316.9016,4582.43104689,4572.32605921,0.0
1.07495310707,1.08711776758,9.64650589989e-06,-33019423.4388,1.39869820343e-05,0.0,5818262.84512,680.282003213,649.070986917,66995344.5203,1727.5010235,34970818.1222,69977328.8988,4462.13034745,4453.72581482,0.0
1.0463449124,0.908732539212,9.98606698323e-06,-49684862.2466,1.50639418614e-05,0.0,5867528.56916,678.67229574,647.291663692,67121005.1987,1690.56898884,37478022.4439,70680936.9037,4343.37773137,4335.80853998,0.0
1.14917221617,1.19504966038,9.69717251917e-06,-7646980.57349,1.77315736532e-05,0.0,5572195.52272,684.686798762,653.861147161,66299917.9607,1822.07727383,45758739.4845,68695586.4079,4770.21386932,4760.19171779,0.0
1.1516217099,0.921220940266,1.00001742957e-05,-6749125.60398,2.29445441467e-05,0.0,5564339.14576,684.812709849,654.083108664,66289564.7066,1827.15464792,46210344.405,68710819.9988,4780.38171779,4770.95483166,0.0
1.09934396649,0.806325366163,1.02320835541e-05,-22308049.8242,1.96206270161e-05,0.0,5701995.73367,681.60530954,650.780756129,66661850.8983,1759.65347238,37334876.8291,68378313.4188,4563.3768049,4554.59097556,0.0
1.08838340446,0.963524950842,1.04516782629e-05,-25412015.4593,1.69804057851e-05,0.0,5741130.80363,680.667684358,650.020249701,66773510.5109,1745.52559529,36265465.6821,70446155.0069,4517.87951191,4509.36252051,0.0
1.16981084118,0.974437786585,9.94882023373e-06,982556.124518,2.1676469331e-05,0.0,5419572.97193,685.98197865,655.221181015,65796315.7601,1845.29469997,50462712.427,67560723.8462,4855.88480174,4844.83739331,0.0
1.08694533535,0.815736148107,9.9839257788e-06,-27138373.8667,1.82076680255e-05,0.0,5749759.37459,681.030201373,649.971880341,66799058.9855,1743.44996304,35983759.8314,69277833.5034,4511.91008704,4503.3192586,0.0
1.08108545062,0.798718826085,1.00898212426e-05,-28868423.6704,1.80455592633e-05,0.0,5760677.49884,680.636109055,649.605976455,66825332.3846,1735.77308133,35649443.4931,69249958.7524,4487.58570552,4479.08611807,0.0
1.15405769845,0.912309854341,1.04166841896e-05,-3158515.63453,2.18645538745e-05,0.0,5482575.19917,684.760077193,654.251224037,65989613.7271,1826.96608567,47791903.0545,68027013.2207,4790.49350627,4780.15661274,0.0
1.10650565475,0.785788866198,9.76432772562e-06,-20800155.5049,1.99072671316e-05,0.0,5698090.33769,682.357778415,651.235052164,66660386.114,1768.91060187,38148803.0578,68697663.7498,4593.10497287,4584.10494207,0.0
1.09710149835,0.833457229295,9.62217061348e-06,-23775790.5852,1.79361252624e-05,0.0,5705444.14082,681.850711842,650.564156632,66652291.5789,1755.16099142,36960027.0728,69259229.3662,4554.06831965,4544.65668222,0.0
1.03845940265,0.865638069971,9.96191023483e-06,-52829831.8118,1.50458470199e-05,0.0,5832041.17014,678.422029226,646.74810811,66989415.4967,1677.20228107,38716528.4205,71076524.59,4310.6449804,4301.961134,0.0
1.0443210035,1.14099883861,1.01344722695e-05,-48929765.2355,1.28062491299e-05,0.0,5834639.58529,678.462741239,647.147783419,67009412.96,1685.28133048,37090582.8946,71011814.4182,4334.97648553,4326.37283491,0.0
1.04142918002,1.07350301353,9.80871046519e-06,-51762725.0762,1.3105160279e-05,0.0,5844891.09618,678.609699216,646.957639368,67032382.7003,1680.97631648,38331335.5344,70916513.3215,4322.97252626,4314.24002412,0.0
1.10892487996,0.920900729153,9.6820622223e-06,-18036738.2674,1.7371680412e-05,0.0,5641592.78072,682.485628525,651.348751847,66458023.5465,1768.65297854,39754270.8693,68921291.1162,4603.14717671,4592.99335954,0.0
1.08856840964,0.821744816055,9.84800542151e-06,-27001547.0235,1.81442294904e-05,0.0,5751308.52138,681.218322587,650.075451272,66804122.8516,1745.57249026,36051354.348,69321378.3399,4518.64746842,4510.03129743,0.0
1.11291435209,1.07675774165,9.75120851602e-06,-17219259.9908,1.64046234718e-05,0.0,5656000.0838,682.5702227,651.587425911,66525603.7016,1774.56039577,40209713.1446,69173644.5835,4619.70747553,4609.82708043,0.0
1.07349925328,1.02409957092,9.99795685217e-06,-31994490.7749,1.47998699277e-05,0.0,5792931.05752,679.952126913,648.950206952,66912446.992,1724.96094718,35128367.6036,69630430.7446,4456.09540037,4447.52349167,0.0
1.09963698207,0.969966099637,9.78978490444e-06,-21695509.7231,1.68579587268e-05,0.0,5664145.45976,681.882280529,650.769858127,66525702.2507,1756.63515737,38018486.5321,68624338.9288,4564.59311257,4554.56196018,0.0
1.11464806176,0.752658397697,9.8333134879e-06,-16226812.1502,2.10589095277e-05,0.0,5610206.81425,682.783890301,651.667220741,66383918.3234,1776.89368706,40718657.3628,69213259.6197,4626.90410437,4616.89689172,0.0
1.06243524395,1.02091353241,9.79296792423e-06,-38652120.8867,1.40992586595e-05,0.0,5828228.50121,679.579592951,648.30059453,67006429.783,1710.57962697,34757849.7929,70038096.7697,4410.16869764,4401.76912608,0.0
1.05238465249,0.926369112708,9.8940222424e-06,-45477727.2949,1.50217961013e-05,0.0,5805116.88546,679.119350514,647.656338393,66925756.256,1695.66436263,35931540.9164,70490772.1493,4368.44869249,4359.53575782,0.0
1.17500155028,1.12079885715,1.03627802559e-05,2765699.60029,2.01268589148e-05,0.0,5378628.39795,685.951210596,655.506626662,65654412.1241,1850.57566026,51211995.8142,66969696.7444,4877.43143521,4866.08278305,0.0
1.04720031542,1.00075359362,9.78624064276e-06,-47624251.2417,1.40112301496e-05,0.0,5833907.05768,678.882003296,647.327593438,66999634.8151,1688.85710258,36691580.4916,70698167.3333,4346.92850931,4338.24653749,0.0
0.976427218773,1.12806300128,1.00951680646e-05,-94829948.8411,1.21426373464e-05,0.0,6022474.37239,681.107059695,642.829691609,67452276.6053,1610.0836879,69762303.617,69998301.3861,4053.14938513,4046.2383039,0.0
1.07824016522,0.969300683125,1.03663674237e-05,-29271378.3869,1.60829644683e-05,0.0,5772595.64121,680.199942997,649.419135135,66866438.5504,1732.24629131,35518155.5618,69199872.5579,4475.77492583,4467.41584891,0.0
1.05024082152,0.860992733785,9.97553787081e-06,-45123787.4392,1.5501731982e-05,0.0,5810833.16504,678.931666203,647.521024001,66938704.9021,1693.04309938,35870919.1996,70484207.8207,4359.54965013,4350.81822751,0.0
1.07712305326,1.07505678786,1.02685348956e-05,-30171934.3393,1.47195147988e-05,0.0,5786758.58146,680.148106917,649.33514104,66906498.9419,1730.71240431,35334964.3042,69265497.1644,4471.13779408,4462.79586683,0.0
1.04919542543,0.898165920569,9.8068068689e-06,-46322140.8605,1.50510684421e-05,0.0,5822078.76382,678.992485482,647.447795364,66968378.424,1691.5876106,36144347.1197,70487633.3119,4355.21021096,4346.49580345,0.0
1.12424781972,0.985096015094,9.54731559485e-06,-14674105.0404,1.89075297658e-05,0.0,5679949.07506,683.34379921,652.290147589,66621614.4271,1791.99944047,41702024.1181,69129169.3018,4666.75269966,4657.65882634,0.0
1.01533254807,0.688852707304,1.02938323224e-05,-76139010.8209,1.6078710759e-05,0.0,5916832.95272,677.473686485,645.315275379,67215328.454,1649.12498606,54101171.425,70579125.4309,4214.64540704,4207.51995201,0.0
0.993237762498,0.933362506285,1.05677951328e-05,-95158475.845,1.40379559501e-05,0.0,5900823.09119,678.019002931,643.88620685,67116129.0334,1616.18998206,70052018.2671,70421427.9091,4122.92995213,4114.81151785,0.0
0.964897372712,0.956609328114,1.03345382366e-05,-94038671.0041,1.39570938042e-05,0.0,6039400.52302,683.048605731,642.089067395,67514287.5168,1611.58867184,69065924.6429,69293013.5813,4005.28899413,3998.85666161,0.0
1.03919971062,1.02448709502,9.46075616397e-06,-55416628.5221,1.3411684384e-05,0.0,5896403.30756,678.734903951,646.829752077,67180756.206,1679.77220594,40175144.0575,71366386.9628,4313.71799878,4305.88646923,0.0
1.12387856451,1.11977141233,9.6731381511e-06,-14168434.0996,1.67701534082e-05,0.0,5663795.76116,683.182871296,652.255446344,66566788.1119,1790.19991993,41852201.2352,68894744.6,4665.21992128,4655.74932913,0.0
1.09056852661,0.854977217758,1.02534216789e-05,-25098347.0828,1.8184622336e-05,0.0,5730767.72525,680.976776556,650.15027816,66736440.1382,1748.13101675,36389944.9005,69035798.5469,4526.94995396,4518.3025113,0.0
1.03873835779,0.9969851093,9.56256886755e-06,-55415452.8898,1.39729884886e-05,0.0,5844067.63538,678.759384134,646.793072441,67023410.0142,1676.80612533,40052086.6406,71151634.6687,4311.80292319,4302.94158034,0.0
1.05943883451,1.04600980632,1.00036050875e-05,-39230089.6893,1.37833930019e-05,0.0,5828771.84205,679.251095546,648.105845208,67006705.2443,1706.60490595,34775594.2908,69853532.7768,4397.73060205,4389.3782654,0.0
0.989799123615,0.767138933122,1.04806581071e-05,-95008226.9258,1.51948567969e-05,0.0,5904715.18646,678.668863116,643.670379096,67121249.0603,1611.69926538,69919705.1752,70162126.2668,4108.65616213,4100.59305442,0.0
1.18178258186,1.1731399998,9.74514871006e-06,3828904.97171,1.89750896832e-05,0.0,5821766.53951,686.640367164,655.952795805,65897545.2284,1860.82379975,52230614.868,66923196.6702,4905.5794973,4894.75722045,0.0
1.07090374092,1.09132112772,9.90405664158e-06,-33557015.1128,1.38848194922e-05,0.0,5807809.34983,679.90031439,648.832271614,66951050.3491,1721.49410318,34912035.9221,69896848.5584,4445.32142856,4436.79031539,0.0
1.17801823408,1.12748108249,1.00298294947e-05,3105277.34415,1.96485811831e-05,0.0,5395017.33419,686.314413079,655.703213415,65728354.4496,1854.75813099,51565219.3421,67038065.4809,4889.95368967,4878.64957255,0.0
1.23508163469,1.09423888144,1.02535531696e-05,16447571.302,2.51146456092e-05,0.0,18041039.6975,689.697978353,659.26951142,65037217.7556,1922.99240271,61283042.2884,66870488.9719,5126.8238656,5114.92196366,0.0
1.14325355112,1.11065508013,9.49513145108e-06,-8430671.10977,1.81563599675e-05,0.0,5595497.43694,684.498860819,653.51765636,66375650.0118,1814.44092479,45607957.7515,68354649.1007,4745.6454907,4735.72703171,0.0
1.04172418537,0.971111307901,9.95135523368e-06,-52107738.7383,1.43035066246e-05,0.0,5836587.14942,678.557746743,646.973811607,67008325.2175,1681.92321507,38455705.4311,70909341.4784,4324.19709347,4315.63539202,0.0
1.02264248884,1.18567945909,9.83460537691e-06,-70260798.5405,1.18858333289e-05,0.0,5945327.29653,677.875808885,645.788469967,67317028.032,1658.72831508,49667156.4743,70907937.0913,4244.98897117,4237.75939982,0.0
1.06978247871,0.867631884825,1.01722546562e-05,-32979468.1972,1.6440621343e-05,0.0,5785076.94193,679.717685691,648.743374697,66883784.6824,1720.19938098,34933307.1711,69644954.0471,4440.66706913,4432.15208331,0.0
0.959853213026,0.913960050316,1.04117833324e-05,-93773565.1468,1.41489570597e-05,0.0,6030401.57185,683.582670984,641.758549442,67463762.3186,1608.84842724,68832553.5186,69055210.8163,3984.35068727,3977.66597458,0.0
1.0070568571,0.991963846621,9.68189488535e-06,-91412926.7894,1.35256002691e-05,0.0,5928868.4556,678.426858935,644.784618511,67207822.2826,1635.59480735,66798462.2595,70949822.1976,4180.29301382,4172.28201687,0.0
1.1223076821,1.10619025177,9.91824356132e-06,-14163011.2977,1.71209289603e-05,0.0,5661290.25774,682.93041347,652.154525432,66552561.9659,1788.36648132,41685698.3994,68847234.6411,4658.6991884,4649.35567397,0.0
1.155628818,0.9954163147,9.89661014678e-06,-5637121.56014,2.17816915541e-05,0.0,5556792.95231,685.088615805,654.332040478,66262137.1447,1831.93902752,46917879.9613,68637910.6276,4797.01522352,4787.42931562,0.0
1.19105554388,0.815722937602,9.94144183812e-06,5763818.54275,2.66042343668e-05,0.0,7323487.92505,687.466751884,656.527864194,65423623.762,1871.10705082,53056012.8364,66674884.1882,4944.07156265,4932.4190904,0.0
0.989983222385,0.706236038327,9.92400250025e-06,-95152255.8736,1.59099133984e-05,0.0,5918402.09078,679.937873115,643.685122436,67155268.2138,1612.79310197,70046426.0724,70291329.9106,4109.42035612,4101.27430126,0.0
1.11329324021,0.861871434312,1.0284622919e-05,-16146141.11,1.97559957698e-05,0.0,5634863.45259,682.274754345,651.567933992,66445308.1203,1776.25560919,40556792.5909,69226657.0254,4621.28024011,4611.78447931,0.0
0.956062557404,0.886359774725,9.79446222184e-06,-93788244.061,1.46650614956e-05,0.0,6080668.8854,685.795639268,641.523716243,67613160.7887,1614.92663969,68845358.3603,69067955.0615,3968.61567578,3962.30251398,0.0
1.10841265247,1.00013920476,1.01994842638e-05,-17909158.6163,1.77904034397e-05,0.0,5618721.30802,682.067242965,651.290544376,66402269.3212,1767.74305914,39787607.0364,68900847.3749,4601.0209204,4590.93127353,0.0
1.0547669808,0.789966651509,1.01036467195e-05,-41094645.0753,1.62173015018e-05,0.0,5819991.67383,679.008227935,647.78903509,66968113.7392,1700.53097286,34999985.5276,70240175.7269,4378.3377373,4370.05650864,0.0
1.25276324743,0.957483560208,9.94417187195e-06,20084242.2563,2.94496039656e-05,0.0,21900673.786,691.145895919,660.376430295,64734287.8186,1943.49147371,64166684.4358,65087276.687,5200.22024008,5187.87650747,0.0
1.1381205736,0.984434242169,1.00112066439e-05,-8833235.18836,2.02285093592e-05,0.0,5553829.78366,683.964271588,653.184323567,66233600.0444,1807.01073055,45247085.2339,68084567.9323,4724.33850101,4714.20113601,0.0
1.25543226587,1.09633689967,9.8690807443e-06,20583879.0064,2.64790877937e-05,0.0,22330648.7414,691.219828558,660.548218083,64814846.0417,1946.58237875,64587030.8499,65436299.4644,5211.29933563,5199.02681489,0.0
1.00927918526,0.934072488003,1.02816653694e-05,-83554065.8598,1.39377401147e-05,0.0,5945028.35621,677.364996753,644.934238289,67280553.6984,1640.83883003,60102733.8689,70666734.1449,4189.51789801,4182.47793971,0.0
1.13275942578,1.03043863737,1.03600803637e-05,-10850056.7008,1.93767658259e-05,0.0,5569289.8291,683.41568654,652.853805702,66270941.3364,1800.68770697,43738390.2286,67667247.0629,4702.08437641,4692.1612454,0.0
1.03051257694,0.822007957099,1.00210713212e-05,-61087611.4589,1.53036071177e-05,0.0,5849945.64439,678.131956865,646.270018994,67033461.6209,1667.17315474,43363299.2714,70941480.9297,4277.65770688,4269.27480764,0.0
1.05965930807,1.06021043893,9.78846486997e-06,-40972539.4701,1.36878480024e-05,0.0,5818946.02406,679.436600148,648.100034776,66975495.9168,1706.00317538,35012103.6614,69756965.4628,4398.6457878,4389.94034432,0.0
1.05153008092,0.98717981896,1.02558554873e-05,-44404139.8391,1.45538149258e-05,0.0,5800729.03786,678.757419358,647.590154695,66918558.2747,1694.79017053,35613754.1155,70357347.4205,4364.9013659,4356.09142983,0.0
1.161647559,1.07843738361,9.53362455748e-06,-3730672.14014,2.02176907262e-05,0.0,5472717.82148,685.711099839,654.681735027,66000715.0095,1835.96354992,48086903.971,68264846.4974,4821.99901741,4811.02410079,0.0
1.13785677752,0.86635486912,9.82932107887e-06,-9349699.86886,2.1889578469e-05,0.0,5583797.55272,684.002970105,653.1101276,66329194.4461,1808.00857438,44957777.7606,67999789.2722,4723.24348349,4713.51854499,0.0
1.09484260266,1.02446429005,1.04705742574e-05,-21053342.8867,1.65096870642e-05,0.0,5661214.76334,681.07974892,650.466363652,66503305.3673,1750.28234579,38099598.3513,68235502.4512,4544.69164364,4534.94974091,0.0
1.1064432227,0.99764518929,9.6604569012e-06,-20033958.0277,1.71534438876e-05,0.0,5646991.28763,682.365351337,651.202329883,66483031.3323,1765.37962432,38860967.8455,68681662.987,4592.84581743,4582.6960873,0.0
1.11288191721,0.742836084726,1.01943094227e-05,-16362707.2888,2.11697044477e-05,0.0,5597144.30946,682.427183733,651.544905582,66333913.9546,1774.40327332,40537114.5862,69132572.5718,4619.57283834,4609.61213721,0.0
1.06923658575,1.01721600647,9.72451770149e-06,-35180796.483,1.45047528699e-05,0.0,5824481.67192,679.988704297,648.744703805,67005144.0812,1720.08153806,34730416.9209,70223406.4901,4438.40106745,4430.08474808,0.0
1.1228417844,1.10614564627,1.0099392863e-05,-13620063.4831,1.71824424983e-05,0.0,5623014.0796,682.881624649,652.189551019,66432917.0484,1787.83074894,42242120.307,68077871.6539,4660.91624704,4651.16204198,0.0
1.02209570265,0.745200391542,1.01187830323e-05,-68625823.7853,1.58627871614e-05,0.0,5855015.46662,677.836080612,645.730365431,67033287.1118,1655.59347413,48443532.7168,70712592.0189,4242.7192617,4234.38547878,0.0
1.07124342966,1.17726938379,1.01480106869e-05,-32480869.0277,1.32164190565e-05,0.0,5802003.76009,679.678841575,648.819991624,66938135.9094,1721.89496339,35062926.4316,69654692.4006,4446.73147652,4438.19355377,0.0
1.09738909957,1.14617689252,1.02200119947e-05,-23049433.7666,1.51554886795e-05,0.0,5733666.51226,681.334550611,650.649097131,66755536.3327,1756.79081122,37099677.2431,68859460.3499,4555.26215232,4546.50772245,0.0
1.0299239321,1.06330379477,1.03244861347e-05,-59988306.3387,1.32660706684e-05,0.0,5848443.73903,677.730473013,646.222575196,67028994.2208,1665.87216104,42656492.1235,70963116.489,4275.21424215,4266.75459234,0.0
1.09276263443,1.06322144915,9.72744082953e-06,-25302238.1623,1.55493148833e-05,0.0,5763857.50135,681.393946693,650.306029257,66845455.1302,1750.86261746,36537138.5576,69429282.5967,4536.05769552,4527.37074968,0.0
1.13198404297,1.11838447172,9.75166560326e-06,-11724481.3945,1.75722913842e-05,0.0,5627212.86365,683.67145887,652.807572956,66460225.6836,1800.26679392,43439585.0577,67579208.4125,4698.86576237,4689.23144602,0.0
1.0303428635,0.810974708484,9.71965780216e-06,-61682628.3671,1.53317901534e-05,0.0,5911793.13691,678.30847563,646.280918602,67227290.1309,1669.18250839,43708157.6063,71099947.443,4276.95322639,4269.6135787,0.0
1.22137455107,1.0681134657,9.86740836515e-06,12870987.7047,2.37543098103e-05,0.0,14133460.2487,689.155361557,658.446496606,65208064.5341,1907.1547707,58346800.5533,66472042.3284,5069.92576149,5057.96337485,0.0
1.0854580783,0.780844537022,9.8704740007e-06,-27989452.8592,1.84833315785e-05,0.0,5756253.83912,681.054397236,649.88741309,66815191.9164,1741.53776447,35826512.9576,69306967.0327,4505.73648302,4497.16884963,0.0
1.05209630424,0.966066551831,9.73715802847e-06,-44402549.0976,1.42540752075e-05,0.0,5826412.69318,679.157572556,647.6420851,66985361.8729,1695.5189573,35660872.9435,70620733.3938,4367.2517589,4358.48841818,0.0
1.16799114408,0.902750462752,1.00805856392e-05,927160.057158,2.2962741076e-05,0.0,5443285.35515,685.798548814,655.118214827,65874434.4062,1844.13107021,50321553.2513,67554309.1103,4848.33123908,4837.73420931,0.0
1.098283366,0.970474429293,1.02079765232e-05,-22749690.8046,1.74448402421e-05,0.0,5718588.68646,681.482343728,650.712147918,66710838.6262,1758.11478468,37182527.7335,68649239.394,4558.97425227,4550.20575514,0.0
1.07440407663,0.931027911818,9.88971250597e-06,-32355401.6434,1.58407823368e-05,0.0,5799451.32488,680.121519332,649.016575404,66941034.6932,1726.90132773,35029254.7402,69747638.5284,4459.85132209,4451.45527832,0.0
1.0314082486,1.19549350134,9.98936825479e-06,-60662145.7496,1.20513241614e-05,0.0,5871377.13286,678.050516483,646.328262761,67099079.6097,1668.11295076,43116611.7769,70985859.804,4281.37563994,4272.97840344,0.0
1.12153663091,0.712362467975,9.70297490648e-06,-14608427.8691,2.24881000634e-05,0.0,5633641.91323,683.236904384,652.100961861,66470918.0523,1787.60799699,41539431.0648,69044194.4627,4655.49855491,4646.06643776,0.0
1.01245220945,1.09972897452,9.85706072573e-06,-82296167.1068,1.24419843542e-05,0.0,5966371.16785,677.788603805,645.139899259,67341780.8972,1645.11663351,59067422.6384,70924723.6549,4202.68912143,4195.6041279,0.0
1.11203026261,0.783572655885,1.02615178928e-05,-16846149.571,2.08630693236e-05,0.0,5636296.75032,682.28144683,651.512405679,66453955.8514,1774.87514207,40225316.5399,69082598.5032,4616.03762009,4606.66093087,0.0
0.981212438766,0.812075534401,1.00384459822e-05,-94984023.6682,1.47160887544e-05,0.0,5998095.75799,680.678200299,643.137478183,67384975.4421,1611.75799283,69898011.9447,70136861.3309,4073.01283332,4066.03233687,0.0
1.10736845113,0.782939652671,1.01724558439e-05,-18110095.5172,2.03573067299e-05,0.0,5655014.04446,682.085691705,651.251410379,66518077.0206,1768.56240904,39742805.7682,68855998.4364,4596.68644064,4587.38818423,0.0
1.01678854131,0.91039952067,1.04284444164e-05,-71543284.4973,1.43304900881e-05,0.0,5866944.69522,677.390139285,645.391706653,67061510.9643,1648.61115249,50572272.7176,70666911.3295,4220.68923498,4212.52508852,0.0
1.00398037977,0.92193994677,1.03345123557e-05,-89140032.8358,1.44307616055e-05,0.0,5881558.57589,677.673879695,644.575776707,67070164.0471,1630.49095799,64798226.0336,70677410.2235,4167.52255643,4159.23240709,0.0
1.20176083439,0.978948900805,9.95275063918e-06,9460356.96265,2.39805184108e-05,0.0,10882299.1982,687.880373391,657.223364612,65520531.4253,1884.6464469,55705298.2123,66909441.3694,4988.50922355,4977.3282025,0.0
1.14891103456,0.967112871193,9.97198622278e-06,-7590347.47293,2.18818619144e-05,0.0,5579564.62198,684.600098193,653.87697172,66332811.4834,1823.68595421,45779296.7635,68613420.9289,4769.12970446,4759.74799889,0.0
1.08610467589,0.695717589902,9.79094986159e-06,-28000579.2606,1.97418327783e-05,0.0,5751218.81957,681.185980694,649.928395501,66799399.3354,1742.46229839,35872967.8635,69316879.7285,4508.42050962,4499.84279514,0.0
1.14567676217,0.918965576633,1.03268876254e-05,-8389498.1371,2.26895059175e-05,0.0,5470971.90268,684.339226765,653.616099532,65962232.1948,1816.11953724,44850588.4984,68172283.0965,4755.70423977,4745.01713825,0.0
0.988108154222,0.993905412373,1.02941465761e-05,-95017606.3186,1.36884982467e-05,0.0,5926866.82167,679.28767253,643.563285498,67183659.8388,1610.1657584,69927897.297,70170260.6016,4101.63694818,4093.60089285,0.0
1.15378247099,1.00769676943,1.02914742486e-05,-5442478.71009,2.20100926901e-05,0.0,5548255.58447,684.784760588,654.259865768,66247418.2195,1829.64181565,46757010.6654,68476566.6764,4789.35103708,4779.88941518,0.0
1.11847887368,0.837675206739,1.02223137975e-05,-14924114.9268,2.04940537503e-05,0.0,5617389.29904,682.644906451,651.894905924,66399884.5604,1782.86998008,41254201.6479,68734394.4685,4642.80580465,4633.22386423,0.0
1.05682703775,1.00667107216,1.03253500988e-05,-39493359.5181,1.43300918891e-05,0.0,5822939.07923,678.881309209,647.932497734,66982762.2831,1703.47236544,34787327.1401,69662420.0482,4386.8890337,4378.66994609,0.0
1.17014379803,0.830191500893,1.00048284762e-05,880408.474823,2.42394744063e-05,0.0,5398516.54162,686.081390281,655.241982628,65731160.8997,1846.0871192,50284432.8026,67382475.6951,4857.26690562,4846.21766239,0.0
1.21559260719,0.875563595981,1.01370053531e-05,12132547.3944,2.74874597128e-05,0.0,13364253.4638,688.775628167,658.072820375,65174523.9952,1900.48623521,57648194.2912,66230309.4727,5045.92491245,5034.13162934,0.0
0.973686144287,0.983438905931,1.00111367983e-05,-94419253.5013,1.40637598262e-05,0.0,5985141.03628,682.534750269,642.643419926,67338787.8775,1612.97371592,69400989.7498,69633535.8123,4041.77118494,4034.27789648,0.0
1.05163704356,0.963412921697,9.88513351768e-06,-45920761.6976,1.46163732435e-05,0.0,5809862.15822,679.070679303,647.606411505,66938340.5014,1694.63995512,36080313.576,70556890.1312,4365.34536782,4356.44479297,0.0
1.14334175596,0.88449024551,9.77450325454e-06,-7873341.33368,2.19015453637e-05,0.0,5547806.57407,684.324311322,653.398768513,66224818.5505,1814.18428833,45876398.5058,68382700.3986,4746.01162899,4735.88796015,0.0
1.08204788185,1.06396830155,1.00040394108e-05,-28862823.0093,1.4882695157e-05,0.0,5779764.34275,680.646395697,649.669830272,66884002.8419,1736.83522714,35691659.2879,69335230.003,4491.58075756,4483.06621205,0.0
1.05628094046,0.832515897693,1.0303339916e-05,-39797392.3486,1.60228666631e-05,0.0,5815159.93939,678.924160105,647.891556382,66957785.3435,1702.86038985,34824423.2603,69583278.0769,4384.62218385,4376.41150061,0.0
1.11249861272,1.07374275402,1.0305768508e-05,-16349237.994,1.69349443398e-05,0.0,5654277.64281,682.117092016,651.526811334,66504211.3664,1775.00855951,40398910.5331,69229162.537,4617.9817414,4608.49838132,0.0
1.13411732267,1.04553404601,9.9897303339e-06,-10534426.5999,1.92512168841e-05,0.0,5629322.34201,683.657280507,652.962486498,66476991.851,1804.20111519,44190098.4548,67853621.8681,4707.7210064,4698.49788532,0.0
1.0710279405,1.03907760803,9.97554898354e-06,-33207589.6928,1.44763814007e-05,0.0,5801099.59951,679.866973909,648.831573472,66931975.5721,1721.69998771,34936267.5266,69797826.1065,4445.83698102,4437.30391752,0.0
1.08212345549,0.914401431692,1.00584206945e-05,-28628731.9571,1.66602821746e-05,0.0,5766955.67903,680.676122051,649.678356948,66845763.3349,1737.04903426,35699000.6952,69279566.9164,4491.89446374,4483.37874321,0.0
1.1497704266,1.06883842833,9.94075962999e-06,-7428436.27979,2.02221901537e-05,0.0,5587423.50816,684.623068888,653.936771745,66358733.8991,1824.68290762,45860518.3294,68692360.2705,4772.69704082,4763.29987412,0.0
1.05377561551,1.04629920592,9.94146166995e-06,-43240943.6674,1.36396350137e-05,0.0,5823511.15292,679.161953595,647.81933748,66980560.1295,1698.21752761,35476940.0922,70550191.8962,4374.22257998,4365.61182204,0.0
1.11184769674,1.00931900415,9.98315290052e-06,-18907644.6014,1.78979934188e-05,0.0,5693709.48257,682.381177,651.540307448,66644451.8056,1775.78048258,39106400.3135,69017403.9529,4615.27978917,4606.29557121,0.0
0.98233071742,1.12228919301,1.00557107024e-05,-94923480.7066,1.24820241707e-05,0.0,6007561.81775,680.849125759,643.208337928,67425353.7839,1614.62411395,69844747.1545,70083303.8952,4077.65480801,4070.65174273,0.0
1.12662706878,1.04069076501,9.70301480346e-06,-13339619.1071,1.81046500847e-05,0.0,5646585.26835,683.386235721,652.43884748,66519455.0298,1793.78714914,42309433.0815,68400195.3905,4676.62896251,4667.11313563,0.0
1.08096560278,0.798648827996,1.02572661888e-05,-29229212.518,1.84380479322e-05,0.0,5761258.39428,680.515119672,649.606250787,66827400.3405,1736.20743027,35489893.1421,69186646.7125,4487.08821714,4478.78455607,0.0
1.22468178101,1.04059977584,1.00214076335e-05,14042873.7924,2.47967163462e-05,0.0,15383282.2914,689.266861203,658.666581861,65190325.6018,1911.30847367,59309160.2753,66650505.1276,5083.65407297,5071.91369369,0.0
1.0452125763,1.15156790286,1.01058881773e-05,-48618401.7175,1.2739579346e-05,0.0,5834347.89507,678.521431924,647.20361919,67009599.6991,1686.45013208,37054498.4521,70897368.8733,4338.67740422,4330.05933197,0.0
1.09545021876,0.958655313614,9.82306987947e-06,-24569343.0279,1.69399498046e-05,0.0,5745637.60402,681.517306897,650.468643737,66794665.3209,1754.59614953,36684010.1918,69217233.8204,4547.21385807,4538.48978563,0.0
1.01696388543,0.920112609752,9.82164128716e-06,-77187715.7131,1.40558486195e-05,0.0,5947253.63967,677.90278495,645.42405299,67305326.8175,1651.29395912,54945228.0284,70899543.6966,4221.41708842,4214.26823783,0.0
1.0559904485,0.953520101517,9.71747294364e-06,-44432955.6711,1.48529369539e-05,0.0,5804840.51516,679.414215281,647.874242192,66928366.3719,1700.39197602,35668416.4418,70404456.7091,4383.41635172,4374.442311,0.0
1.04499118244,1.10247696362,1.00715258036e-05,-48867610.3599,1.3156456507e-05,0.0,5833203.50187,678.560251638,647.191374668,67005329.8067,1686.18346463,37101828.9374,70993359.9292,4337.75839831,4329.14390812,0.0
1.14903644689,1.00896989235,1.03231017931e-05,-6690692.40896,2.16059696021e-05,0.0,5565140.67598,684.399969729,653.912622472,66297528.8971,1823.61570082,46059529.3933,68640325.8473,4769.65029104,4760.26489668,0.0
1.1445005062,0.816313611131,1.01801774135e-05,-8245615.5833,2.43169915358e-05,0.0,5571983.38229,684.237553893,653.559207963,66305811.8607,1818.14770178,45277038.5827,68330747.1717,4750.82160124,4741.50882596,0.0
1.14613190405,1.01304384539,1.00303304738e-05,-8231904.38033,2.09428336235e-05,0.0,5590756.84265,684.334669739,653.666652422,66363088.6776,1820.09092225,45379716.7713,68453628.2425,4757.59353371,4748.25466663,0.0
1.10085777409,1.10891122595,1.00329664006e-05,-22261931.7123,1.56477601332e-05,0.0,5731964.22596,681.691371592,650.879528257,66751046.3374,1761.50110276,37492063.0741,68579781.0422,4569.66062025,4560.85146263,0.0
1.11720385801,1.02024082345,1.0014898715e-05,-15450218.9353,1.79721791679e-05,0.0,5666441.3421,682.586277851,651.822066989,66562295.9405,1781.84278939,41075965.4026,69328298.8035,4637.5132146,4628.25264415,0.0
1.01244102735,1.05528843635,9.62244063608e-06,-87197833.7722,1.30839291581e-05,0.0,5892426.75284,678.314748759,645.119891818,67104596.9622,1641.10736229,63167938.8033,70880435.879,4202.64270453,4194.04889856,0.0
1.11732740048,1.14610674476,9.73238486353e-06,-15951192.1947,1.59619192892e-05,0.0,5640131.34611,682.76847323,651.81848918,66480070.5923,1779.81782211,40846800.075,69478087.239,4638.02603939,4627.9725904,0.0
1.05720679986,0.918195636013,9.67520607972e-06,-43989269.5811,1.52590056224e-05,0.0,5801021.36226,679.518936913,647.946505801,66918109.8748,1702.02780494,35554235.1199,70353799.0051,4388.46542622,4379.47120525,0.0
1.20933166855,0.828256969546,1.0110802315e-05,10833443.5338,2.80427365027e-05,0.0,12108134.0575,688.395526304,657.619479573,65177819.9088,1892.68456501,56592108.1866,66428685.9609,5019.93575615,5008.06627968,0.0
1.06765377977,1.02317218329,1.00584503975e-05,-33694991.2301,1.44036121887e-05,0.0,5787248.16998,679.644189643,648.627864737,66877947.6177,1716.06214651,34896927.693,69791414.6663,4431.83083983,4422.9778678,0.0
1.07706617471,0.842725325021,1.01397017456e-05,-31373112.2757,1.74695201154e-05,0.0,5779322.45447,680.327930498,649.328163751,66888507.8358,1731.07258992,35097714.9762,69221570.3514,4470.90169122,4462.65738275,0.0
0.966844290793,1.07535473425,1.04148989478e-05,-94123297.5361,1.28811610527e-05,0.0,6037708.6039,682.505531216,642.213797663,67513907.2446,1611.16963797,69140487.5796,69368999.6699,4013.37065108,4006.91189392,0.0
1.18245169383,0.868202177078,1.00371212397e-05,4585985.79154,2.41959023038e-05,0.0,6211760.83074,686.716661019,655.969296122,65627610.2574,1860.95628719,52382806.0956,66930717.9494,4908.35698109,4897.20192518,0.0
1.19825509688,0.905439110453,9.96373409909e-06,8367772.38225,2.50874389102e-05,0.0,9800857.73228,687.762988845,657.008703109,65470679.985,1880.1855992,54836332.2878,66657690.5151,4973.95690715,4962.61652585,0.0
1.16405044176,1.15927449702,1.02136055175e-05,-96998.9321837,1.85344451314e-05,0.0,5450126.26195,685.348018872,654.857779792,65891259.9098,1837.75633813,49791623.706,67651652.3142,4831.97338375,4821.04224239,0.0
1.02168238126,0.997262982074,9.69691257497e-06,-72771099.6245,1.35170726049e-05,0.0,5943975.27304,678.068039107,645.73153247,67306860.0082,1657.54535217,51532406.7349,71072101.544,4241.00356461,4233.78766823,0.0
1.20581841591,0.796268748242,9.93493763148e-06,9940416.07776,2.84346992142e-05,0.0,11295968.7364,688.349542472,657.417465526,65190388.8857,1888.49828429,55932064.7047,66821262.2707,5005.35224444,4993.41298816,0.0
1.13834847899,0.883404054505,1.00345739316e-05,-8522583.92483,2.19436999379e-05,0.0,5576131.47583,683.934050282,653.197483591,66302361.1125,1808.5061483,45519699.753,68689480.5254,4725.28453629,4715.65001675,0.0
1.09109088595,0.903123604677,9.99958231465e-06,-25702513.8154,1.74421321579e-05,0.0,5743741.12001,681.175317254,650.196173457,66787044.7458,1748.7923455,36322703.0584,69225335.3517,4529.11826758,4520.46265024,0.0
1.06706358765,0.915242038934,9.91993348995e-06,-35972712.3331,1.55379057336e-05,0.0,5805108.26473,679.778024114,648.599966635,66946504.264,1716.78376487,34667002.6022,70138119.3328,4429.38095234,4420.90829166,0.0
1.00235060446,1.1755154356,1.00056910101e-05,-95838744.905,1.1980017901e-05,0.0,5913070.41885,678.189286865,644.475784672,67157407.8397,1627.88792255,70652286.554,70740993.4195,4160.75735911,4152.41075388,0.0
1.09191375041,0.808278865766,9.92452499014e-06,-25632966.6122,1.86632100874e-05,0.0,5737465.09617,681.306841088,650.238903125,66768133.6382,1749.95692205,36343478.5463,69224624.6929,4532.53397795,4523.86547676,0.0
1.18713128961,0.868515042009,9.60543913771e-06,4765536.88446,2.45220475601e-05,0.0,6477513.25043,687.261594369,656.28671682,65746816.8163,1868.04553309,52816904.3512,67060630.707,4927.78198317,4916.85654158,0.0
1.08209586544,1.06485359507,1.00271469627e-05,-28770548.3057,1.48897895872e-05,0.0,5778790.26776,680.629562087,649.67386492,66881530.2084,1736.89757654,35708974.9063,69328088.888,4491.77993744,4483.26464589,0.0
1.12137811171,0.815608235491,9.65246801803e-06,-15345360.9909,2.10644175373e-05,0.0,5672782.64328,683.170897989,652.099831468,66598737.3595,1788.48803974,41248540.9725,69228091.5007,4654.84054171,4645.81803576,0.0
1.12248029755,1.08421092228,1.02732278474e-05,-13886233.4536,1.75508606417e-05,0.0,5619451.14385,682.75687374,652.167169262,66413731.8087,1787.68076699,41933139.0054,68025025.7843,4659.41571513,4649.76609005,0.0
1.15401208262,0.860569577022,9.96030041296e-06,-4208471.78798,2.23133397658e-05,0.0,5513054.61295,684.869698454,654.12151158,66100490.4617,1827.64287776,47729602.8966,68534656.7025,4790.30415496,4780.06430539,0.0
1.06343649597,0.990171389543,9.76487532266e-06,-38308774.8015,1.44782792123e-05,0.0,5824637.5364,679.668345417,648.364885544,66996782.9008,1711.92203358,34738358.2145,70083993.3729,4414.32489477,4405.91023471,0.0
1.08015545946,1.0172049238,1.0167759355e-05,-29007310.7027,1.54253784293e-05,0.0,5774577.73036,680.433423013,649.543971592,66867864.151,1734.37905469,35619816.67,69276059.1612,4483.72531222,4475.24016838,0.0
1.14773925209,0.941179189783,9.6546734133e-06,-7020175.58611,2.13610243633e-05,0.0,5525864.04379,684.777613346,653.757087945,66150073.615,1819.26547538,46390991.851,68670742.4424,4764.26563543,4753.85791166,0.0
1.12007177502,0.886702615921,9.93593774379e-06,-14713756.7075,1.98768764873e-05,0.0,5597643.46218,682.952378199,651.988856002,66342650.1198,1783.64275886,41464368.179,68546897.6464,4649.41793811,4639.31692828,0.0
1.15975909282,1.04722889246,1.00452881705e-05,-2337628.88963,1.97167601836e-05,0.0,5464870.44585,685.288067816,654.599816298,65932332.7539,1833.03082061,48467557.881,67736880.9544,4814.1599943,4803.31540105,0.0
1.0930469047,0.965895848799,9.73211550934e-06,-25469679.9571,1.65116633829e-05,0.0,5751647.43253,681.446910222,650.320274053,66802909.5783,1751.11136743,36451156.0638,69304720.8751,4537.23770141,4528.4533045,0.0
1.12696590288,1.034698879,9.89903564792e-06,-13048648.358,1.85030934103e-05,0.0,5637846.43537,683.297178756,652.474515527,66487603.3922,1794.43453292,42388405.0742,68090525.2349,4678.03546285,4668.61598574,0.0
1.13978900108,1.11740561087,1.01183168355e-05,-9607308.34452,1.8512191247e-05,0.0,5584081.15642,683.918044493,653.291761479,66337701.9214,1810.45585151,44618223.5947,68089514.0847,4731.26414348,4721.50344986,0.0
1.10121515058,0.697529955007,1.01812073069e-05,-21864667.1593,2.15413091812e-05,0.0,5688871.5901,681.805821935,650.901979383,66623414.607,1762.20197095,37533775.0831,68450805.5071,4571.14409006,4562.32940986,0.0
1.16353631436,0.936654365895,1.00387430806e-05,-1799581.44903,2.19011260519e-05,0.0,5435371.38996,685.607545795,654.831730007,65842126.1728,1837.94088738,48755449.2882,67685398.5184,4829.83924091,4818.90221011,0.0
1.18112070688,1.15983344353,1.03742587469e-05,3990949.7165,1.98516203011e-05,0.0,5803804.48895,686.263019638,655.888640863,65699806.193,1859.19506455,51928229.8372,66949596.9703,4902.83205426,4891.79069059,0.0
1.15820888767,0.995551500208,1.00135930908e-05,-3188018.47184,2.0458310721e-05,0.0,5465642.97918,685.264341738,654.506026853,65964483.0573,1831.32224903,47967284.8297,67748325.6736,4807.72509272,4796.89609268,0.0
1.12695099742,1.16023568953,9.82890932979e-06,-13070446.8343,1.66463107797e-05,0.0,5646462.80867,683.281287637,652.47052187,66505899.436,1794.0345743,42506538.7145,68173103.3893,4677.97359029,4668.45242652,0.0
1.10321794612,0.962863324082,9.9018100768e-06,-21868426.0947,1.7628581104e-05,0.0,5719850.78433,681.989320686,651.034213206,66731072.1899,1764.73188055,37609565.5786,68574520.5419,4579.45769434,4570.61129504,0.0
1.10729840668,0.926812439454,9.71422659588e-06,-19553170.4853,1.81046044145e-05,0.0,5635723.97018,682.410070463,651.249523499,66450928.0381,1766.55806073,39068213.0756,68719606.6749,4596.39568613,4586.23089546,0.0
1.08553991983,1.02044960219,9.94561044511e-06,-27778226.2566,1.56199580551e-05,0.0,5769687.65322,680.898505036,649.889178287,66857966.9421,1741.44406987,35901408.488,69343879.7253,4506.07620721,4497.5072981,0.0
1.12213333126,1.13830706375,9.86157802527e-06,-14298798.3349,1.65277670921e-05,0.0,5669105.62786,682.937117449,652.143238166,66574946.0046,1788.19428116,41661699.0893,68952895.8896,4657.97545806,4648.63467233,0.0
1.06538704295,0.86926766231,9.79385166546e-06,-36727783.6022,1.57861421914e-05,0.0,5773705.13011,679.818195618,648.475288041,66835833.8217,1712.43118457,34760594.2575,70103293.4651,4422.42161529,4413.24223405,0.0
1.1496158301,0.854351445852,9.77005759001e-06,-7223633.843,2.3185158263e-05,0.0,5533324.62424,684.886792369,653.908703604,66182663.6863,1823.00073497,45889389.5955,68626907.9507,4772.05531075,4762.02565658,0.0
1.02829183973,0.827078589241,1.0167630907e-05,-61314324.228,1.50730241971e-05,0.0,5848636.71904,677.901114891,646.125299559,67024742.6509,1664.01181691,43478520.7179,70902418.4398,4268.43942672,4260.00576616,0.0
1.15807407768,0.928274263068,9.73471832181e-06,-4148851.99031,2.26115725084e-05,0.0,5518963.94383,685.398564871,654.476325081,66152690.3402,1833.72384311,47865584.2961,68445733.4151,4807.16549645,4797.08640094,0.0
1.10096023777,0.640023886986,1.01705364789e-05,-21960800.3642,2.26032626791e-05,0.0,5684296.0084,681.838437128,650.885113802,66609662.4534,1761.93154272,37499592.5388,68415482.1551,4570.08594698,4561.27528624,0.0
1.03200734833,0.799706935534,9.66759186666e-06,-60572465.5345,1.54950485774e-05,0.0,5908917.94903,678.414831511,646.387861307,67221146.2955,1671.39220906,43054978.6744,71089150.0557,4283.86250292,4276.49896854,0.0
1.04439042195,1.06877975785,1.03224858177e-05,-47781240.4322,1.34172151894e-05,0.0,5820991.27003,678.329694518,647.143356228,66967708.2276,1685.23391091,36659621.8271,70403363.3376,4335.26464151,4326.57143403,0.0
0.993298782461,0.817876207347,9.51064538652e-06,-95419808.7881,1.51665724762e-05,0.0,5929691.89818,680.355377083,643.901763693,67185117.5874,1616.45607647,70281967.0571,70548381.7112,4123.183246,4114.906312,0.0
1.02278436033,0.969751332844,9.66130945991e-06,-71697365.3957,1.37662594115e-05,0.0,5941084.35168,678.124235257,645.794711853,67300024.6875,1659.03139485,50717586.1161,71061102.2735,4245.57787973,4238.34628674,0.0
1.22377046108,0.931251285749,9.75700506477e-06,13346176.6026,2.65578364763e-05,0.0,14665925.6219,689.496190524,658.595300515,65075822.7299,1909.73119198,58703256.6839,66442085.621,5079.87118394,5067.66341874,0.0
1.0828248815,0.959709570379,9.63809946988e-06,-29676024.7943,1.59320053009e-05,0.0,5789573.61789,680.786980048,649.577176797,66921543.1767,1737.92956248,35647251.3769,69430450.9889,4494.80608311,4486.27945364,0.0
1.12645863691,0.99813501459,9.92152204566e-06,-13108253.3249,1.90487656786e-05,0.0,5637725.73177,683.16678272,652.363536656,66487243.9085,1793.81937996,42320386.3916,68130164.5396,4675.92980181,4666.51860883,0.0
1.07354399174,1.03436788746,1.01148189729e-05,-31548365.1451,1.47488847367e-05,0.0,5788788.68697,679.865208799,648.951367476,66902151.9393,1725.01290523,35171649.672,69514300.0269,4456.28110971,4447.70849714,0.0
1.19685836057,0.943487587661,1.01903419346e-05,8593776.92731,2.45479374695e-05,0.0,10009068.0909,687.482321053,656.922883267,65505501.2916,1878.65252733,54956123.2513,66688148.439,4968.15905473,4957.07122401,0.0
0.994257916254,0.880762151454,9.89192916947e-06,-95370062.4773,1.4627548929e-05,0.0,5919241.97668,679.361865028,643.960088653,67162047.2247,1617.26163961,70238182.5651,70504284.1719,4127.16461037,4118.94944191,0.0
1.16120013404,0.993056263858,9.62036089802e-06,-1844054.57177,2.0308277799e-05,0.0,5471391.96569,685.661642568,654.695963984,65974593.014,1834.81531701,49168949.4319,68151415.7842,4820.1417564,4809.22308239,0.0
1.12893540913,1.09734390807,9.62770053436e-06,-12793990.2204,1.74700873587e-05,0.0,5642994.54271,683.566947955,652.600518292,66508141.7575,1796.65382379,42649518.3012,68142198.6318,4686.2108833,4676.63151048,0.0
1.0567235241,0.88367807064,9.66345926561e-06,-44295036.4251,1.5598236855e-05,0.0,5800051.80795,679.524664548,647.919613055,66914211.8603,1701.40269353,35621615.7253,70398595.1723,4386.45934854,4377.47314767,0.0
0.972214765824,0.953253095897,1.01887897871e-05,-94550977.9909,1.40921851664e-05,0.0,6030133.19418,681.896382724,642.561984399,67484964.5346,1611.4646526,69516956.7829,69750039.3528,4035.66349294,4029.13737896,0.0
0.996251326975,0.794693104899,1.02805890911e-05,-95314847.9098,1.52612077525e-05,0.0,5897197.43856,678.424072427,644.084653402,67105050.9974,1620.23861351,70189750.2697,70599010.8062,4135.43925827,4127.27238694,0.0
1.1463365304,0.949669581132,1.02958500414e-05,-7518330.01844,2.23050865159e-05,0.0,5570949.08052,684.247968067,653.712469752,66309221.7375,1820.27176462,45581674.5416,68513592.9294,4758.44293769,4749.10246769,0.0
1.21095753915,0.930554721948,9.7929800466e-06,10876477.2347,2.54201192898e-05,0.0,12208565.5416,688.561459673,657.735978282,65329332.0719,1895.28014936,56728010.2723,66780519.9495,5026.68474501,5014.99358949,0.0
1.13239109324,0.778389316576,1.00637815073e-05,-11349681.0856,2.28755121418e-05,0.0,5563884.10003,683.622540891,652.75460293,66248329.088,1800.61154719,43452341.3681,67489572.3878,4700.55542804,4690.6393516,0.0
1.16973989198,0.783447153631,9.88277886324e-06,68108.0166143,2.67786300037e-05,0.0,5413652.59188,686.214864187,655.23001661,65818281.2305,1846.90689307,49994369.3684,67643929.6368,4855.59029161,4844.88978018,0.0
1.13915332804,0.825005979999,1.00778677627e-05,-9597068.87973,2.29042996989e-05,0.0,5531462.01462,684.10606347,653.243780543,66150000.2827,1808.85066381,44599887.628,67970026.9258,4728.62546469,4718.46643318,0.0
1.22005420494,1.02404005653,1.01446833559e-05,12985394.7783,2.5030509274e-05,0.0,14174295.2546,688.96450193,658.355094296,65110582.2274,1904.84931016,58368744.9366,66421496.3468,5064.44500471,5052.36908582,0.0
1.16625793315,1.05734836519,1.02255329734e-05,801858.898378,2.02821554572e-05,0.0,5461841.121,685.491096288,655.005487294,65925222.0727,1841.62419715,50293815.3138,67565160.8271,4841.13668051,4830.59202564,0.0
1.06717261616,1.06826694957,9.81426046179e-06,-36388633.2854,1.38420242602e-05,0.0,5818948.63704,679.8016863,648.607270433,66987250.8182,1716.80968757,34691993.845,70267141.7748,4429.83352968,4421.35916171,0.0
1.17835753137,1.04215898414,1.0189387917e-05,3203595.44725,2.13233168077e-05,0.0,5390265.61452,686.292134864,655.725368164,65709193.0158,1855.86236343,51505156.6772,66970495.1183,4891.36211272,4880.26420772,0.0
1.06714239261,0.656723204162,1.01143753055e-05,-35121507.7989,1.86770412221e-05,0.0,5780288.09441,679.745967227,648.605824711,66863171.3848,1717.08089499,34658119.5927,69913861.7146,4429.70807172,4421.23417704,0.0
1.17106804042,0.969646022649,9.46306962191e-06,259043.118845,2.12189981209e-05,0.0,5465444.95199,686.335141468,655.316800456,65965338.0198,1848.23245685,50333350.3176,67899892.5081,4861.10343578,4850.35883359,0.0
1.00863539527,1.13505268964,9.78578907991e-06,-87776629.7913,1.21319799772e-05,0.0,5980214.99175,677.935459898,644.896500257,67377191.267,1639.92862765,63662763.6761,71047198.6386,4186.84552577,4179.8143631,0.0
1.15689112633,0.78040572373,9.61643853099e-06,-2778573.64459,2.35390469914e-05,0.0,5499203.61739,685.421826452,654.392987343,66061092.3229,1830.90276715,48805110.8779,68435340.037,4802.2550654,4791.85304774,0.0
1.01752820097,0.796946371658,9.91565665282e-06,-75617074.1728,1.50648761518e-05,0.0,5936506.90324,677.849003136,645.460003593,67276962.7813,1652.12503321,53706539.9454,70806211.7266,4223.75956223,4216.60270726,0.0
1.1514487233,0.748688790938,9.96449540245e-06,-5302973.08888,2.57343636676e-05,0.0,5519780.20943,684.941737628,654.063672535,66143611.1269,1825.66128032,47132394.5276,68612910.8506,4779.66365042,4769.81669736,0.0
1.0018878767,0.733045979031,1.00210377311e-05,-95826537.6742,1.58035673294e-05,0.0,5886958.09286,678.374420086,644.4424183,67076550.8834,1627.57048746,70639820.3916,70639820.3916,4158.83657618,4150.49746112,0.0
1.1537148254,0.821279574514,9.68460480932e-06,-5165102.54132,2.40255882094e-05,0.0,5528064.76871,685.21401331,654.208095569,66177761.5925,1828.3237846,47431947.133,68689068.1118,4789.07024024,4779.09312466,0.0
1.11198895421,1.15062289257,9.89946653417e-06,-17279342.2091,1.57300458886e-05,0.0,5698454.64386,682.334264795,651.540201338,66663257.3914,1775.00203666,40203329.446,69160581.6538,4615.86614893,4606.68909592,0.0
1.11462135782,1.14653087121,1.01365430758e-05,-15929087.424,1.60777041793e-05,0.0,5660018.70911,682.294620911,651.64937988,66539681.223,1777.4268074,40767752.0783,69432106.4715,4626.79325631,4617.27594772,0.0
1.18942274574,0.890626750782,9.87160868503e-06,5941885.00482,2.45759843909e-05,0.0,7558700.45434,687.234624818,656.433285695,65669322.0685,1870.33976994,53450287.9763,66848249.4352,4937.29381757,4926.31690053,0.0
1.12835405673,0.809837836096,9.98543853216e-06,-12294018.8255,2.1822721665e-05,0.0,5584779.88179,683.373993134,652.479524909,66322129.0744,1795.25094485,42994379.4515,67251026.1992,4683.79768949,4673.95041139,0.0
1.1050257046,0.978552030177,1.03213435734e-05,-18198820.8476,1.75372424377e-05,0.0,5668852.29267,681.749988917,651.103304404,66554322.682,1765.11024228,39563292.3859,68812043.4374,4586.96169979,4577.60393435,0.0
1.08857499148,0.854980816943,9.96111648569e-06,-26657576.8008,1.77965552692e-05,0.0,5749008.99469,681.115979999,650.070009424,66799413.2138,1745.54974892,36088473.6682,69284059.1024,4518.67478963,4510.05851582,0.0
1.15115997134,1.06382817571,1.00451007956e-05,-4856057.50042,1.89125992949e-05,0.0,5539924.18614,684.531634798,653.945121395,66183001.3596,1823.76656215,47357549.5815,68185534.789,4778.46504103,4768.27386198,0.0
1.13084893315,1.07826428233,9.67680883164e-06,-13387416.5653,1.81951476349e-05,0.0,5576889.5192,683.75675492,652.707606157,66306922.916,1797.28384898,42298490.2633,67757580.6745,4694.15392151,4683.72967027,0.0
1.20788734513,0.860770361287,1.01485322217e-05,10518432.9397,2.7315002362e-05,0.0,11834212.6619,688.268913629,657.528120745,65173149.0312,1890.56868779,56330059.8034,66685955.1372,5013.94036963,5001.98944294,0.0
1.08095436235,1.13987897265,1.04053207902e-05,-28152017.0333,1.43433402997e-05,0.0,5774984.74376,680.265174705,649.596847086,66865342.1805,1735.67472014,35719279.5633,69215017.5076,4487.04155811,4478.64075299,0.0
1.08306391269,1.09100632462,9.90857906003e-06,-28824464.0829,1.45778509298e-05,0.0,5782834.83975,680.757549029,649.735991331,66893582.4581,1738.14541543,35740188.7527,69368294.8886,4495.79830158,4487.26795326,0.0
1.0902216014,1.03101751327,1.01256822156e-05,-25629244.5558,1.59530971428e-05,0.0,5750412.40726,680.981701814,650.140846548,66806732.9196,1747.54399652,36272527.1084,69197800.806,4525.50986741,4516.86785222,0.0
1.15340425778,1.05644451761,1.00425789461e-05,-4260924.11238,1.91958987529e-05,0.0,5531001.57978,684.664293311,654.081983701,66155510.404,1826.59485947,47686669.5036,68579982.5538,4787.78107404,4777.55160453,0.0
1.09865255139,0.911180716316,1.02890268599e-05,-19367637.2924,1.77204749027e-05,0.0,5700276.71907,681.411908868,650.73105023,66640978.1429,1757.37307679,38951952.0671,68582227.7467,4560.50674082,4551.46679807,0.0
1.18511432828,0.899831040258,9.90514829189e-06,4303754.66225,2.40331999303e-05,0.0,6097297.91004,686.963889843,656.145398188,65657581.659,1864.89622439,52336996.5794,66966481.6481,4919.40957669,4908.31018661,0.0
1.01357238761,0.800288681665,1.01568460283e-05,-80411856.6968,1.54411557098e-05,0.0,5856541.22039,677.715830642,645.174812643,67003498.3543,1643.16448082,57513167.4151,70790616.6872,4207.33898097,4198.8086612,0.0
1.24149351926,0.780781065167,1.0494834829e-05,18549109.3577,3.37161635439e-05,0.0,20311096.9382,690.282078481,659.680008818,64747120.9269,1930.34023563,62892908.8459,65810150.575,5153.43959845,5141.46388629,0.0
1.24942139134,1.01831376179,1.0042286708e-05,19491249.9911,2.79199150811e-05,0.0,21200389.6419,690.845299257,660.168532518,64769944.5626,1939.03779113,63639734.7843,64769944.5626,5186.34819545,5173.95092305,0.0
1.06176974732,0.820095481392,9.78782886947e-06,-38930618.4767,1.62178400937e-05,0.0,5817173.55494,679.629651085,648.256877512,66971083.8193,1709.83104175,34743428.4523,69945932.2565,4407.40622113,4399.01628857,0.0
1.04058616088,1.04021508051,9.81204800613e-06,-52130174.7462,1.34124800175e-05,0.0,5844384.00243,678.584758057,646.9032334,67029382.9809,1679.88447734,38398088.5176,71020134.4641,4319.47315381,4310.75447449,0.0
1.25820350349,0.904420845663,9.74548475629e-06,20819362.1421,3.09958159693e-05,0.0,22685164.5076,691.693837323,660.709954667,64558021.915,1949.3968667,64738843.5968,65548591.2697,5222.80274299,5210.00798348,0.0
1.19545661233,1.00714384214,9.63858687029e-06,6153850.93395,2.26506151613e-05,0.0,7729705.14529,687.754350913,656.812625351,65531055.2591,1876.42766024,53461182.3664,66789382.118,4962.34039778,4950.61968049,0.0
1.04977381306,0.990845094329,1.00612557909e-05,-43139762.7678,1.41331853769e-05,0.0,5835122.31976,678.731762342,647.491932045,67008522.9709,1693.00279259,35410204.6031,70587372.5593,4357.61109801,4349.22772114,0.0
0.955177481903,0.810126863781,9.70660060028e-06,-93760018.0335,1.52808430097e-05,0.0,6082443.37271,686.19770627,641.467324759,67618505.8563,1615.6898952,68820552.7356,69042419.0017,3964.94172738,3958.64046619,0.0
1.05190341921,0.876763904282,1.02772267419e-05,-42043313.9937,1.55113829357e-05,0.0,5810860.5745,678.723995223,647.606201838,66946180.8585,1696.00716981,35147079.8938,70425738.9777,4366.45109314,4357.96220541,0.0
1.16129774045,0.907770567754,1.01023231413e-05,-613682.389836,2.21304817072e-05,0.0,5472658.37454,685.360617549,654.698876213,65958962.5332,1835.78857616,49582724.2003,67790627.2642,4820.54692061,4810.09956485,0.0
1.06432227591,1.1694343253,1.00750856091e-05,-35903277.8605,1.29263183438e-05,0.0,5821793.69836,679.400034743,648.422990193,66994133.1982,1712.81687866,34676421.6613,70213431.835,4418.0017673,4409.57228326,0.0
1.20494239609,0.923725203985,1.02444155104e-05,9419608.4217,2.57989427644e-05,0.0,10762858.3213,687.991971842,657.349945519,65232738.9409,1887.06698008,55484819.3217,66775879.3471,5001.71588617,4989.82023427,0.0
0.946012033713,1.12394132374,9.99614880457e-06,-93383713.658,1.23161735866e-05,0.0,6107958.63814,686.379241719,640.875443936,67682903.4201,1609.39028925,68489142.4852,68706485.0312,3926.89595194,3920.7198278,0.0
1.11315150447,1.2077934597,9.72972517071e-06,-19259841.7092,1.52661076945e-05,0.0,5708438.78884,682.542576858,651.627190773,66703590.9995,1777.02186837,39050592.0005,69081665.1008,4620.69189505,4611.58553502,0.0
1.08959959867,0.609731163055,1.00107662841e-05,-26089818.4883,2.1722870995e-05,0.0,5724215.05516,681.241758771,650.116913069,66724812.1516,1747.11963186,36178867.5001,69179524.2223,4522.92793408,4514.29564632,0.0
1.14561759258,1.06561386492,9.7864174171e-06,-7938736.55154,1.97557998653e-05,0.0,5608385.83737,684.403688314,653.635304972,66431959.8675,1819.24183767,45853229.8935,68500918.7081,4755.4586268,4746.13088628,0.0
1.04178123272,1.23966817522,1.03345759942e-05,-49101843.4983,1.18495640524e-05,0.0,5836594.54093,678.129430343,646.975802085,67009923.9553,1681.65564747,37132242.4112,70960891.5459,4324.43389702,4315.78181772,0.0
1.09079384636,1.29296429557,1.01233038339e-05,-25515510.4007,1.32177312665e-05,0.0,5764764.26871,680.912164822,650.171950188,66852098.7014,1748.10590425,36352036.1625,69239274.6116,4527.88525624,4519.23428782,0.0
0.898940648796,0.793231293788,1.03709069747e-05,-90952481.637,1.40712604147e-05,0.0,6133867.62923,691.729342916,637.825480472,67687875.5519,1591.32112727,66349521.7883,67687875.5519,3731.50263315,3725.14378817,0.0
1.13418138077,0.852707878328,9.9427102222e-06,-10553499.4575,2.21862164487e-05,0.0,5615599.94256,683.784260563,652.965946864,66434082.2361,1804.48893745,44200016.2777,67798090.515,4707.98691158,4698.76276708,0.0
1.15010522952,0.910522718809,9.80601736583e-06,-7056984.88619,2.22992992432e-05,0.0,5535562.73319,684.867286508,653.946250016,66190860.9098,1823.52488615,45995119.839,68672606.3582,4774.08680774,4764.048874,0.0
1.04328501722,1.03840561715,9.87218641382e-06,-52266300.4993,1.36597283241e-05,0.0,5885430.76194,678.56911184,647.080897445,67167700.7761,1686.36576453,38613383.5546,70983907.6672,4330.67610648,4323.15131518,0.0
1.15267927947,1.05324737089,9.75456864136e-06,-5362393.04303,2.00069117407e-05,0.0,5552582.24964,684.962719337,654.141295184,66253195.7581,1826.6807717,47263640.3995,68781604.6717,4784.77168908,4774.81196255,0.0
1.11617029628,0.853875651947,1.0389989645e-05,-15462176.1369,2.01996891473e-05,0.0,5568363.9439,682.449654484,651.723618173,66239928.7372,1778.04709667,40880238.7955,68658089.4378,4633.22289986,4622.91763639,0.0
1.28376942236,0.739435670205,1.03808706087e-05,26120134.9563,3.98082321509e-05,0.0,27675336.2294,693.149138234,662.291953552,63910813.1637,1976.78966617,67857509.9085,68811659.2821,5328.92687222,5315.73824894,0.0
1.11567103381,1.0644781545,9.98670241742e-06,-15993228.9597,1.71859735744e-05,0.0,5676576.19884,682.487744645,651.72714087,66589941.8813,1779.82313142,40815787.6912,69421680.0996,4631.15046135,4621.91474295,0.0
1.11247694294,1.13391198819,1.02158594667e-05,-16641456.1462,1.62878391681e-05,0.0,5678597.71088,682.135526219,651.541730232,66597280.3598,1775.4321347,40547369.3063,69256037.9398,4617.89179014,4608.70690263,0.0
1.0040112945,1.19467634949,1.00316860191e-05,-92417034.482,1.1829832714e-05,0.0,5909146.88637,678.008226501,644.580917389,67148152.0448,1630.09721059,67642823.9842,70785676.5554,4167.65088347,4159.27734483,0.0
1.0395673708,0.657907442362,9.97450494743e-06,-51918523.6887,1.70675557599e-05,0.0,5815761.95989,678.565761691,646.837302108,66941834.1777,1678.8260638,38286770.8528,70843434.5154,4315.24415619,4306.54217002,0.0
1.13259086476,1.05109886548,9.72163791536e-06,-12818935.8811,1.88164775113e-05,0.0,5563946.81248,683.866353567,652.825698111,66268993.7117,1799.48731276,42676267.4245,67465077.7256,4701.38467962,4690.90496171,0.0
1.02701275504,1.0438023383,9.94252849706e-06,-64169622.8594,1.31697271431e-05,0.0,5872262.67268,677.989911362,646.042250367,67093781.1436,1662.14420547,45357753.5322,70962799.1648,4263.12994617,4254.71687911,0.0
1.18675505967,0.654504185402,1.01373172088e-05,5656346.88136,3.07542264254e-05,0.0,7227607.57658,687.113490767,656.259866539,65544451.7446,1867.68399054,53050103.8397,66774716.072,4926.22025269,4915.39860443,0.0
1.05550766201,1.12593362083,1.00333730793e-05,-40609531.8358,1.27709952822e-05,0.0,5807863.17345,678.974452783,647.818168183,66927247.9899,1699.19814421,34985818.2362,69587203.4855,4381.412305,4372.39832409,0.0
1.01332316404,0.996000548683,9.66120693089e-06,-83140812.1451,1.34263496781e-05,0.0,5966437.66643,678.073624745,645.197824667,67340571.375,1646.29517232,59770397.6939,71088686.4923,4206.30445393,4199.20715221,0.0
0.986241929616,0.738883088092,9.9132318417e-06,-95231009.8556,1.51532427163e-05,0.0,5985855.00601,680.120251414,643.460480309,67348672.484,1612.63399838,70115486.2968,70358111.9986,4093.89024984,4086.75319611,0.0
1.21663467613,0.908190075708,9.91200869368e-06,12060596.5133,2.64606327326e-05,0.0,13307817.7693,688.922479546,658.132482576,65222976.7992,1902.011484,57640530.9237,66279648.7833,5050.25054062,5038.4588189,0.0
1.12917697998,0.821886385223,1.00590382974e-05,-11927666.9138,2.18073991086e-05,0.0,5579406.38476,683.373269832,652.535926628,66308738.0694,1796.26200972,43213376.6223,67336933.2766,4687.2136439,4677.35244085,0.0
1.24152118397,0.959937750186,1.03971192882e-05,18279528.6977,2.91008563728e-05,0.0,20025597.0342,690.182938661,659.686144395,64842766.374,1930.10394937,62716124.2584,66274260.8113,5153.55443466,5141.53452793,0.0
1.03773263979,1.0402792407,1.00361248085e-05,-52966263.1574,1.33717526091e-05,0.0,5842193.55793,678.253745529,646.700009462,67019716.7366,1676.11821399,38785408.3136,71110029.9584,4307.62818777,4298.95487269,0.0
1.15455498144,0.965608019719,9.68005837618e-06,-4994081.43569,2.15610037853e-05,0.0,5540268.02458,685.180374392,654.260754012,66215485.0367,1829.21312007,47507532.3076,68710527.5042,4792.55772796,4782.56649545,0.0
1.04728761495,1.07726363037,1.03121242034e-05,-44190970.4512,1.33250355122e-05,0.0,5832602.69214,678.411211961,647.333805515,67004102.9939,1689.71695376,35617897.2896,70479280.9106,4347.29088966,4338.87524601,0.0
1.05013917905,0.86266428867,1.01529824993e-05,-45906300.9585,1.56941210404e-05,0.0,5802560.29291,678.830978798,647.513157516,66923613.0633,1693.19674417,36095627.6868,70436007.0476,4359.12773224,4350.429794,0.0
1.18188967221,1.18501284169,9.49695133615e-06,3233432.1265,1.85662869302e-05,0.0,5454318.20639,686.80566177,655.973825441,65927262.1352,1861.31743533,51998542.5562,67213519.91,4906.02402934,4895.17726865,0.0
0.984465199518,0.963677033854,1.00402594045e-05,-94984405.4671,1.39352591159e-05,0.0,5993720.31077,680.638331627,643.345587788,67387748.9649,1615.26223321,69898480.423,70137962.0557,4086.5150432,4079.47982797,0.0
1.1695956679,0.877639860566,1.01378160865e-05,1118056.20241,2.36409826898e-05,0.0,5431030.14816,685.892710669,655.220497761,65840748.6769,1846.25580897,50382454.4384,67456969.8346,4854.99161745,4844.36519449,0.0
1.08009128526,1.06204950478,9.79542928593e-06,-30283807.6701,1.46524288372e-05,0.0,5797483.33231,680.468481269,649.394169992,66943930.3469,1734.2708682,35488347.9778,69411452.8638,4483.45892511,4474.97477759,0.0
1.14971804546,1.00152496797,1.02260729355e-05,-6770577.47393,2.16845279555e-05,0.0,5567147.87834,684.508848741,653.959296776,66300567.059,1824.54388155,46067228.1946,68677849.21,4772.4796067,4763.08496013,0.0
1.03272161495,0.843535605032,1.00175070258e-05,-59297215.8556,1.51781531712e-05,0.0,5846866.48343,678.194449176,646.404413356,67027727.1305,1670.07701883,42259905.1192,71040977.8998,4286.82742366,4278.40914576,0.0
1.12092646008,1.18837801665,9.67927269964e-06,-14992871.0957,1.56462405483e-05,0.0,5654588.9011,682.986812856,652.050892083,66527847.4504,1785.36625626,41427682.1685,69190163.1875,4652.96573579,4643.14416659,0.0
1.1295382951,1.08861085441,9.87257875773e-06,-12323869.1616,1.78279417513e-05,0.0,5629942.23243,683.45296235,652.643568815,66460263.8437,1797.39589238,42963828.7323,67607382.0075,4688.71346296,4679.1496289,0.0
1.10936696283,1.14721838249,9.69580063168e-06,-20408727.1976,1.56203436912e-05,0.0,5717664.71249,682.398684989,651.408381114,66726481.9579,1772.20745762,38412224.6393,68900695.1947,4604.98226271,4595.93750218,0.0
1.19962238501,1.00407954628,1.01283558109e-05,8130786.52277,2.34981233571e-05,0.0,9600113.47911,687.688940634,657.088457747,65461669.0265,1881.77819258,54700858.292,66658066.0068,4979.63252018,4968.25398434,0.0
1.05455710043,1.15619220603,1.0191125013e-05,-40835225.191,1.26190901521e-05,0.0,5839181.33815,678.79202087,647.773577974,67032807.1391,1700.06757774,34971013.5672,70117990.744,4377.46652388,4369.19020834,0.0
1.16482710119,1.04359184547,1.02440541386e-05,-944423.527538,2.07323256082e-05,0.0,5414901.20936,685.513503409,654.901698713,65778269.2542,1838.82505152,49063699.9546,67488885.9674,4835.19729704,4824.02406743,0.0
1.11978915707,0.851437902157,9.68780899344e-06,-15214617.4574,1.99593150274e-05,0.0,5629414.32198,683.082453129,651.977201768,66447754.9207,1784.24392668,41269689.5589,69236055.9409,4648.244791,4638.44251299,0.0
1.22463592433,0.913015312275,1.00104661841e-05,13793951.2312,2.74737683488e-05,0.0,15100994.1987,689.431329399,658.649848148,65009735.0143,1910.5271519,59048879.2604,66450190.7841,5083.46372189,5071.27433662,0.0
1.2150840939,0.890176656142,1.0011568864e-05,11881202.1044,2.68530985169e-05,0.0,13136966.0697,688.779477362,658.029204017,65195445.4698,1900.0720366,57471225.4246,66222036.3892,5043.81407378,5032.05082033,0.0
0.95541663175,0.875454383378,9.5576411475e-06,-93809650.3948,1.49137649782e-05,0.0,6090095.56174,686.582625165,641.483636392,67640363.6112,1617.34706094,68864239.4684,69086347.2456,3965.93443839,3959.62996259,0.0
1.07472447883,0.93360406238,9.62424344608e-06,-33152459.7037,1.56682856308e-05,0.0,5806550.14449,680.485541689,649.15099787,66959504.9446,1727.31749856,34932000.8405,69966991.6788,4461.18131162,4452.78031437,0.0
1.12003614851,1.00503686233,9.65357668136e-06,-15229101.2802,1.79297411233e-05,0.0,5643139.05973,683.040921523,651.993845952,66489882.0129,1784.4190847,41257405.3201,69283421.6797,4649.27005246,4639.46358621,0.0
1.11634405424,0.890677047519,1.0319157977e-05,-15283644.2854,1.97172438446e-05,0.0,5625256.84719,682.418454892,651.753882824,66421271.2068,1780.11818871,41061273.7603,68960198.3238,4633.94416915,4624.39691603,0.0
1.07102903779,0.804568520736,1.0170383599e-05,-32401445.9399,1.72673401382e-05,0.0,5777743.38625,679.79431606,648.804171478,66863721.3019,1721.88850701,35030559.172,69564626.1916,4445.84153587,4437.30698065,0.0
0.949869656688,1.04017874224,1.03115071402e-05,-93419884.8568,1.29630718386e-05,0.0,6064477.26394,685.086940086,641.116642496,67550137.5542,1606.74523202,68521122.9848,68739498.3955,3942.90894491,3936.36397385,0.0
1.02189991437,0.647666980947,1.01350677806e-05,-68657765.8095,1.68398294097e-05,0.0,5847906.69036,677.860316475,645.717318947,67011298.1608,1655.41519125,48462753.3166,70676967.9083,4241.90654455,4233.57589982,0.0
1.12177531493,1.01721564714,9.63037551597e-06,-14823635.9489,1.78735355095e-05,0.0,5639378.83739,683.163931563,652.107547475,66481755.3496,1786.64024877,41531811.3952,69079892.9434,4656.48933227,4646.65392798,0.0
1.23108634876,0.901022786915,9.63922275495e-06,15147396.8675,2.77008899424e-05,0.0,16606064.9014,689.978310759,659.085200728,65159161.7895,1919.85861339,60246934.3951,66762221.409,5110.2394337,5098.51434574,0.0
1.04562835475,1.00014173727,1.06280232119e-05,-45929901.6089,1.42924220621e-05,0.0,5800775.16869,678.280152917,647.298623822,66907512.6727,1687.17409228,36012617.9563,70287479.5847,4340.40330057,4331.77711112,0.0
1.07386264359,0.922270069565,1.00276479874e-05,-31699051.719,1.59946304185e-05,0.0,5783839.03635,679.99438155,648.9728172,66885750.2582,1725.52393511,35165719.4302,69555123.8626,4457.60383354,4449.02620685,0.0
1.12242219374,1.02095565652,1.00977463582e-05,-13672997.1931,1.83490130241e-05,0.0,5616709.5284,682.899035041,652.1618659,66412364.1533,1787.38258916,42129851.2062,68141047.1828,4659.17452621,4649.4273914,0.0
1.03215864337,0.904070656561,9.7958119084e-06,-59813442.8124,1.45292490471e-05,0.0,5908638.09173,678.263163988,646.394126098,67223541.3025,1671.57757383,42663762.1613,71059965.8606,4284.49052863,4277.12482142,0.0
1.11988651817,0.958126555196,1.03873976505e-05,-14226636.5279,1.92647033148e-05,0.0,5612317.34703,682.587233161,651.996586546,66389071.1628,1784.53416959,41672921.5745,68251253.5344,4648.64893692,4639.04267312,0.0
1.20170396778,0.923832575331,1.0036731253e-05,9702759.51855,2.49321011239e-05,0.0,11071183.4506,687.852277949,657.214975861,65479949.1991,1884.50774876,55806422.4248,66905088.3943,4988.27317025,4977.09783598,0.0
0.957932910048,1.02944426854,9.70705392337e-06,-93949382.389,1.32689690548e-05,0.0,6061746.89674,685.362552019,641.637490518,67535952.9547,1612.23225683,68987134.6162,69211960.2613,3976.37950961,3969.48462354,0.0
1.1687346929,0.827131401079,9.86174917025e-06,-566460.222169,2.61615720995e-05,0.0,5489385.07122,686.053770301,655.187986631,66065438.2238,1848.03763663,49713507.4758,67816548.7616,4851.41771023,4841.59347025,0.0
0.902113999068,0.796067623343,9.78302890024e-06,-91383977.6048,1.45675737564e-05,0.0,6181376.41555,693.041913548,638.041418066,67826602.1528,1600.05147836,66729040.6126,67826602.1528,3744.67521013,3738.78005557,0.0
1.10952805763,0.951989201917,9.57034444625e-06,-18772405.9122,1.75225030761e-05,0.0,5689954.6036,682.559069906,651.408495391,66624738.9969,1771.49516441,39439851.7949,68884823.7184,4605.65096722,4596.21734847,0.0
1.13510073461,0.850902369266,1.00666129048e-05,-11976084.2902,2.23082087674e-05,0.0,5519694.96966,683.94258365,652.99546896,66130227.4684,1803.08610519,43099638.2846,67455709.5633,4711.80314937,4701.32768017,0.0
1.21744224683,1.11657194352,1.02194700301e-05,12781609.6244,2.31262348948e-05,0.0,14022956.0182,688.493821181,658.120425,65345757.1096,1903.14343108,58282343.3116,66546563.1846,5053.60276659,5042.22545636,0.0
1.12311022642,0.993800694104,9.25873948898e-06,-15225738.384,1.79283771267e-05,0.0,5655981.81385,683.489633977,652.199392173,66542205.4726,1788.78751957,41314755.5606,69379784.8873,4662.03054987,4652.24628686,0.0
1.05686008107,0.770539469094,1.02243547346e-05,-39849959.713,1.66829310297e-05,0.0,5813287.32735,679.04012743,647.929452232,66951853.6667,1703.66414543,34820482.5864,69597593.1574,4387.02619652,4378.80660026,0.0
1.17743137772,0.868140133683,9.76577778549e-06,2351039.12741,2.38928365358e-05,0.0,5395535.01215,686.621926879,655.686250518,65736674.3717,1855.42924225,51269791.0829,66980937.9392,4887.51764892,4876.44953539,0.0
1.15871256545,1.04081904169,9.66898976466e-06,-4162303.1063,2.06318872555e-05,0.0,5532182.0417,685.405677531,654.515939529,66192583.1019,1834.41527795,47856632.3461,68497343.7448,4809.81585918,4799.72598002,0.0
0.926178061882,0.670987255368,9.8155730887e-06,-92383106.0077,1.64034241796e-05,0.0,6133466.84403,690.179749622,639.597265935,67733083.7555,1608.73482364,67608461.5637,67814130.796,3844.56513487,3838.67825525,0.0
1.09396210165,1.10177117168,9.93813114306e-06,-24989396.7449,1.52266058035e-05,0.0,5752632.3263,681.282016373,650.36792205,66817342.0385,1752.37723526,36560866.4863,69202106.2721,4541.03668395,4532.33607703,0.0
0.942462520834,1.06504240732,1.02471197399e-05,-93093106.9892,1.2619413852e-05,0.0,6087610.46909,686.314693805,640.640379641,67613994.9619,1605.68244526,68233387.4412,68448641.1264,3912.16192398,3905.74880117,0.0
1.1396158711,1.19904070412,1.00981407569e-05,-9556288.68425,1.73360788644e-05,0.0,5565842.22597,683.900798676,653.271045666,66257351.4117,1808.98748457,44679786.9789,68115687.8175,4730.54548094,4720.37848516,0.0
1.09600288711,1.06773356325,9.42818153424e-06,-25389091.6425,1.53216570378e-05,0.0,5763377.14647,681.769901365,650.501157027,66850743.9275,1754.90345692,36578866.4905,69432487.3079,4549.50798439,4540.67677364,0.0
1.11701247485,0.910399342997,9.97255825836e-06,-15579309.36,1.93587723049e-05,0.0,5660610.66272,682.652364349,651.811104998,66542814.8847,1781.70832334,40980936.9016,69336702.3369,4636.7187831,4627.46131707,0.0
1.03674697895,1.129030785,9.520123638e-06,-57918046.4075,1.24673725074e-05,0.0,5869286.44525,678.646988078,646.656086064,67095678.5173,1674.68078122,41524554.7807,71252421.649,4303.53670962,4294.88086925,0.0
1.09803432001,0.93779822626,9.99992279355e-06,-23189706.3683,1.75373864683e-05,0.0,5728923.45455,681.604179723,650.679663062,66750752.2718,1757.9708584,37072176.211,69089145.4692,4557.94046236,4549.17577244,0.0
1.01679456638,0.939250491775,1.04826914093e-05,-69279929.4322,1.39007681579e-05,0.0,5884077.35572,677.268668857,645.39683218,67110653.5145,1649.30974151,48916922.6528,70656389.558,4220.71424504,4212.86074822,0.0
1.13875905457,1.04674681356,9.79515303854e-06,-9320551.45377,1.909709358e-05,0.0,5604038.5414,684.072790242,653.252380912,66396351.7597,1809.27018993,45005368.2587,68078276.5101,4726.98883552,4717.35375417,0.0
1.1428702936,1.13688976842,9.96802935875e-06,-8883251.96641,1.81881200408e-05,0.0,5565658.58439,684.070605099,653.372548214,66266095.1215,1813.56835094,44929873.211,68306811.1366,4744.05458873,4733.935102,0.0
1.04528129077,0.819078360949,9.84356850553e-06,-50339793.5448,1.59544869368e-05,0.0,5806316.35139,678.872939039,647.204178241,66918147.8537,1685.69884413,37819797.774,70862111.9397,4338.96263799,4329.99221388,0.0
1.00289454072,0.717891322056,1.02400697251e-05,-93464662.7911,1.60171690695e-05,0.0,5876976.16069,677.99217151,644.507923387,67053470.1304,1629.14518907,68571604.0069,70577458.934,4163.01523853,4154.74373261,0.0
1.00271804023,1.20656960728,9.73640230984e-06,-95587999.5256,1.15659325018e-05,0.0,5999471.83584,678.290306722,644.515560342,67426839.2854,1631.90637125,70432074.2362,71035642.3276,4162.28258499,4155.33453087,0.0
0.965989065024,0.798831104423,9.82892021731e-06,-94194476.6492,1.52338413266e-05,0.0,6020205.53473,684.038930926,642.153979731,67425447.3631,1613.12811439,69202994.4263,69431262.1771,4009.82060891,4002.7299179,0.0
1.07460329427,0.985033214062,9.74244728447e-06,-32801172.5447,1.51909673629e-05,0.0,5808461.14036,680.231477928,649.042777248,66965966.3483,1727.12459949,34987020.6141,69883393.8729,4460.67827451,4452.27915094,0.0
1.01065844931,1.07699555251,9.9059906015e-06,-84077972.8337,1.26082048744e-05,0.0,5967523.09028,677.750711153,645.030119138,67344015.4656,1642.71852071,60547866.7353,71460180.8849,4195.24322309,4188.18354992,0.0
1.16735784449,1.18395217224,9.65211932242e-06,-417135.695549,1.78068070636e-05,0.0,5491709.11543,685.869544357,655.083178077,66045626.8387,1843.1825223,49892897.971,67883522.1555,4845.70241248,4835.00975097,0.0
1.12456251003,0.78149944879,9.8062662112e-06,-13588900.9843,2.17512055697e-05,0.0,5626141.12481,683.321599393,652.300771668,66453053.1914,1791.37552732,42085521.0929,68480590.0627,4668.05897913,4658.57713875,0.0
1.17135836516,0.81995727641,1.00824075383e-05,1472677.29258,2.48652558217e-05,0.0,5419893.12841,686.065165964,655.319981485,65806229.8709,1848.56333646,50616143.8102,67478819.1467,4862.30857378,4851.65143108,0.0
1.24153506147,0.875283435585,1.00084691879e-05,17669357.4267,3.01164585936e-05,0.0,19227155.8497,690.532541286,659.691260919,64751902.274,1930.08218799,62160590.9938,66905664.2857,5153.61204016,5141.12787239,0.0
1.12265574154,1.09195392498,9.65812464437e-06,-14552033.766,1.69356265295e-05,0.0,5642129.70037,683.159466102,652.16535868,66491557.0294,1787.68380648,41717206.1371,68910613.9242,4660.14398313,4650.29305264,0.0
1.22045473749,0.89406057275,1.03497691358e-05,13373435.3482,2.79587862629e-05,0.0,14595523.2777,688.975305521,658.382040966,65015207.9478,1905.50523099,58635241.7098,66384680.798,5066.10761532,5054.11401097,0.0
1.06009707954,0.892335438444,9.70611145468e-06,-42359813.6128,1.56916367864e-05,0.0,5790496.4848,679.635423196,648.113562092,66891668.9555,1705.90608071,35174273.621,69623411.2326,4400.46297717,4391.42073154,0.0
1.0425370918,1.27525624916,9.65575448814e-06,-51850152.8488,1.15008240792e-05,0.0,5859104.49653,678.715005436,647.029884263,67075806.4921,1682.2946984,38402692.2932,71036351.7324,4327.57146806,4318.82078633,0.0
1.1266580575,1.11189347209,1.0087795372e-05,-12585984.4684,1.74055806573e-05,0.0,5613628.52832,683.031006571,652.366314046,66409926.0108,1792.72195127,42768064.7578,67265877.1535,4676.75759668,4666.93899246,0.0
1.14536436868,1.04175462489,1.02788251982e-05,-7403673.79884,2.01359240442e-05,0.0,5531900.68605,684.078321691,653.534622028,66171750.5699,1816.65760123,45572448.8812,68516712.5001,4754.40749439,4744.24535284,0.0
1.2569083122,0.871567795628,9.77271422544e-06,20899846.6904,3.15752299244e-05,0.0,22756087.6,691.552796864,660.640165905,64696929.0194,1948.89311131,64829891.1516,65710216.5563,5217.42640394,5205.12288138,0.0
1.06742591924,0.961553907635,1.00909898323e-05,-34382150.9121,1.5215993801e-05,0.0,5800587.26452,679.641311464,648.624878145,66925047.3545,1717.02702151,34770836.7247,69946307.4332,4430.88499077,4422.4069498,0.0
1.00813190326,0.985109683679,9.93841065584e-06,-86827970.573,1.34004129543e-05,0.0,5967622.49032,677.776441677,644.863840745,67339976.9433,1639.37216728,62849292.0248,70895153.1346,4184.75553043,4177.73145572,0.0
1.11472117923,0.719759829351,9.75400014503e-06,-18411565.9314,2.18560259624e-05,0.0,5665802.96242,682.851385506,651.715070258,66575321.4434,1779.62227146,39477082.6129,69039140.3461,4627.20761498,4618.07686099,0.0
0.953314706561,0.718069986105,1.02608888449e-05,-93467291.833,1.55478833804e-05,0.0,6044985.18524,685.025047237,641.339327316,67502498.6591,1609.1773773,68562906.9943,68783736.4902,3957.20934693,3950.64572903,0.0
1.05023423174,0.907852425432,1.00601178296e-05,-44722606.2758,1.50692939466e-05,0.0,5810500.13417,678.845731691,647.519331257,66939434.698,1693.01796033,35719438.8793,70460478.5723,4359.52229595,4350.79098063,0.0
1.14049639358,0.980521109336,1.01278819625e-05,-9362665.135,2.07051286481e-05,0.0,5567867.80051,684.020313157,653.325700556,66289080.9677,1811.50272979,44738147.8944,68106149.6389,4734.20052975,4724.42804825,0.0
1.14768000184,0.730053830701,1.0203930335e-05,-7330873.44044,2.64675345865e-05,0.0,5549716.3055,684.517826245,653.807463654,66243104.5387,1822.27574729,45815652.3072,68520764.9738,4764.01968764,4754.65603359,0.0
0.921627077771,1.09895852741,1.00475301285e-05,-92125304.562,1.24897532761e-05,0.0,6110591.71613,689.813923298,639.289532217,67637238.826,1601.48111463,67381579.6801,67637238.826,3825.67399983,3818.95938231,0.0
0.939778379056,1.0942865667,9.49430581834e-06,-93205851.6798,1.27905433898e-05,0.0,6123946.45218,688.728354594,640.471495207,67703242.2237,1612.38384518,68332543.0016,68545774.0797,3901.02005146,3894.61489982,0.0
1.11783484482,0.958836168638,1.00713788419e-05,-15209608.7894,1.89216326981e-05,0.0,5656695.23569,682.617186217,651.859962485,66533790.451,1782.69274968,41245856.6746,69180711.5687,4640.13244085,4630.86070179,0.0
1.16441988103,1.00471224905,9.52472147408e-06,-2527855.53685,2.02608949854e-05,0.0,5459950.43782,685.942174548,654.896994824,65937281.1,1839.05540355,48728900.0795,68070732.8291,4833.50692616,4822.45113681,0.0
1.12968219493,0.932361091873,9.77495206878e-06,-13450526.7945,2.03447613302e-05,0.0,5561047.77102,683.713221311,652.630275958,66258225.667,1795.93622856,42180344.0874,67688556.9678,4689.31079115,4678.90716295,0.0
1.01605534087,0.830519988996,9.83304308568e-06,-78152476.5894,1.47871400687e-05,0.0,5945219.51506,677.910350965,645.371439617,67296040.9259,1650.12294064,55710683.7928,70920011.9204,4217.64571995,4210.50974833,0.0
0.9482965452,0.836276452557,9.89798744226e-06,-93451159.4975,1.47216168501e-05,0.0,6093726.38285,686.492210807,641.023032858,67641343.7417,1611.40502493,68548533.6823,68767242.533,3936.37895913,3930.16988585,0.0
1.06802483195,1.170346031,9.8842682564e-06,-35732511.6637,1.29603477552e-05,0.0,5819943.43573,679.757986345,648.662327078,66993259.7825,1717.859604,34701511.673,70179359.8442,4433.37107742,4424.88335957,0.0
1.0131699641,0.960152154709,9.73343365853e-06,-82585217.1161,1.36997186892e-05,0.0,5962753.85056,677.98975875,645.186275273,67328963.2413,1646.12925891,59307829.5313,70951383.5835,4205.66852098,4198.57338491,0.0
0.988173580714,0.838495530191,9.89399210603e-06,-95333316.8201,1.44842543031e-05,0.0,5985834.85301,679.836283517,643.584569263,67353896.967,1613.04644567,70205756.5449,70449476.834,4101.90853354,4094.74320848,0.0
1.00204343995,0.67743550156,9.89210885297e-06,-95864308.4271,1.60815205906e-05,0.0,5965000.08643,678.371559959,644.477742044,67324898.0665,1631.14322835,70673727.4903,70807093.6217,4159.48231923,4152.54376022,0.0
1.10261454813,0.784155517918,9.91179476691e-06,-21948754.4427,1.99188928385e-05,0.0,5706811.67685,682.033771481,650.993188745,66689239.2162,1764.10575911,37563306.5164,68497859.3607,4576.95298929,4568.11611723,0.0
1.19774116451,0.872598837457,1.02827847312e-05,7993628.82135,2.61374149165e-05,0.0,9432281.99451,687.583397383,656.970199302,65408645.6438,1879.6063905,54512352.5006,66533864.061,4971.82357388,4960.49936196,0.0
0.95790534158,0.996087283115,1.06027449417e-05,-93668352.2993,1.33649983891e-05,0.0,6030962.39172,683.231427051,641.631971305,67465725.7775,1606.04610454,68739886.2244,68961678.0365,3976.2650729,3969.60772389,0.0
1.09934065473,1.08116972937,9.77433612931e-06,-21864389.9321,1.54581873589e-05,0.0,5675623.47573,681.81122168,650.747731498,66560146.2409,1756.14354916,37966982.9163,68756114.3347,4563.36305778,4553.33703985,0.0
0.943770107158,0.918106410405,9.86941385893e-06,-93286274.0538,1.40663195352e-05,0.0,6108362.82059,687.130478374,640.731690603,67678603.853,1610.2696057,68403340.8586,68619835.1282,3917.58971481,3911.44342569,0.0
1.0446123169,0.889837424646,9.8839829817e-06,-47892804.2748,1.49685971649e-05,0.0,5829496.03864,678.705727296,647.165264468,66981297.5858,1685.34060003,36769484.8675,70818348.7457,4336.18572745,4327.54597789,0.0
1.15953837363,0.81616650414,1.00963874224e-05,-2246486.83567,2.3892070115e-05,0.0,5474278.76318,685.349163644,654.595688622,65987541.7836,1834.42169251,48598416.7531,67946550.6014,4813.24378894,4802.90913971,0.0
1.02849722503,1.08950866621,9.71974416942e-06,-64106928.8202,1.2765101464e-05,0.0,5930393.85814,678.145624101,646.151537216,67281717.3838,1666.56384903,45369260.0616,71011446.8012,4269.2919811,4261.97878119,0.0
1.16000564999,1.01247980965,9.96152939413e-06,-2871240.29342,2.02318939482e-05,0.0,5464361.80663,685.388680031,654.618228306,65962060.6007,1833.59212318,48175285.0497,67976348.5027,4815.18345311,4804.33523975,0.0
1.13102110186,1.13899972428,9.80510341372e-06,-11222144.4827,1.63956100266e-05,0.0,5589544.10574,683.580253634,652.722016546,66314257.4872,1797.09735321,43611393.8646,67572302.4752,4694.86859382,4684.43552576,0.0
1.07053816869,0.84096275528,1.01122570366e-05,-34165098.6857,1.70035036817e-05,0.0,5801016.23725,679.82601921,648.808195795,66942238.8808,1722.54010301,34766731.8059,69814840.8371,4443.80393823,4435.65709562,0.0
1.15263519098,0.899789696646,9.74916945922e-06,-5356000.74335,2.25748684448e-05,0.0,5537183.89786,685.05772206,654.139895038,66204821.4441,1826.82149715,47289246.9552,68733497.1115,4784.58867776,4774.6296913,0.0
1.05395287216,0.896699053818,1.00648042037e-05,-43846787.8301,1.57114506819e-05,0.0,5780265.70583,679.036360876,647.725581123,66858688.7107,1697.03028846,35505822.5877,70229390.4773,4374.95837234,4365.84261082,0.0
1.21564612294,1.22617767812,9.76670711836e-06,11865892.4616,2.05364516389e-05,0.0,13186261.0238,688.66021819,658.068326851,65476980.0566,1901.34759154,57583666.649,66528346.3414,5046.14705632,5034.73840041,0.0
1.05803644305,1.08944299783,1.03037422472e-05,-39030470.5522,1.35009285156e-05,0.0,5826315.26446,678.934969407,648.014867106,66995079.4219,1705.03250543,34749031.8928,69764064.2675,4391.9092751,4383.67156228,0.0
1.26392454625,0.808377631584,1.0271727708e-05,22287706.9971,3.46323895298e-05,0.0,24264524.5717,691.918652508,661.095753802,64277159.9207,1954.63369431,65629826.8681,66525142.5378,5246.55079148,5233.5644176,0.0
1.20430659553,1.0973596495,1.01071918736e-05,8998239.92077,2.22520707911e-05,0.0,10378926.8297,687.920180869,657.333995675,65339097.5779,1886.18737019,55213411.7767,66813540.546,4999.07667805,4987.19308036,0.0
1.11337019394,0.837276310227,9.60913980897e-06,-17503040.0541,1.93446449424e-05,0.0,5666463.57434,682.796977165,651.630793668,66559346.5319,1776.59647616,40036247.1975,69112308.5258,4621.59967504,4612.10264657,0.0
1.03787363936,0.953500495647,9.97166134191e-06,-53412466.2566,1.42251357308e-05,0.0,5838345.02522,678.356269605,646.71197854,67007489.0244,1676.36137302,39055386.1369,71206820.9302,4308.21347698,4299.53921461,0.0
1.11989727001,1.14734195328,9.79761160122e-06,-15073143.4069,1.61313558296e-05,0.0,5636300.58676,682.87603328,651.982405085,66463124.4179,1783.4715153,41307022.5824,69064549.3269,4648.69356781,4638.69313701,0.0
1.01660730712,0.786234523113,9.87228228297e-06,-77090761.7242,1.51427354877e-05,0.0,5940331.2169,677.881634497,645.402266378,67282577.6382,1650.88954044,54866839.0927,71321369.485,4219.93693186,4212.79296999,0.0
1.21127477847,0.906355533654,9.70308720576e-06,10742849.2615,2.57949899476e-05,0.0,12117759.3339,688.656820289,657.759236458,65340849.2246,1895.86648533,56646953.355,66887317.8884,5028.00160543,5016.30831681,0.0
1.19737435237,0.816799050672,1.01374276787e-05,8336157.16551,2.72591600652e-05,0.0,9755416.29714,687.690831671,656.951032901,65396659.0931,1879.13743633,54820025.5037,66559419.3769,4970.30093669,4958.96265046,0.0
1.00060628944,0.845690486541,9.87280475804e-06,-95968674.0602,1.46434519537e-05,0.0,5978276.46877,678.46149288,644.382641524,67362881.2548,1629.10765288,70764778.3256,70828591.9113,4153.51670747,4146.59825655,0.0
1.00137929226,1.01364285227,9.64169275473e-06,-96039600.4525,1.30348388382e-05,0.0,5961711.57562,678.674101333,644.425375187,67288319.4381,1628.0633564,70827223.1925,71044126.8562,4156.72544217,4149.11416364,0.0
1.04823640727,0.934086749304,1.00884030632e-05,-45739163.9892,1.47395756709e-05,0.0,5815838.21508,678.709393251,647.388842824,66951990.6596,1690.34463931,36150151.7633,70494076.332,4351.22932658,4342.53051649,0.0
1.05766148008,0.891760517595,1.02521099601e-05,-39379326.2205,1.54883886432e-05,0.0,5817269.69085,679.027596453,647.990582395,66965585.5264,1704.65184316,34771517.5809,69688923.1385,4390.35280381,4382.12086739,0.0
1.04231604685,1.13738972736,9.65469140455e-06,-53202326.5329,1.23817019503e-05,0.0,5905317.00181,678.670703439,647.030033027,67226289.1628,1685.07572914,39049908.661,71164376.9165,4326.65391047,4319.14293439,0.0
1.09715702013,0.783521130981,9.93946670242e-06,-23618015.7131,1.94469732245e-05,0.0,5721831.54719,681.65378342,650.608477273,66726206.2889,1756.97295693,36923343.6849,69063754.743,4554.29879056,4545.54789887,0.0
1.14783348295,1.08101401504,1.0069059731e-05,-7697663.13576,2.00051161194e-05,0.0,5588793.15929,684.408022503,653.803654964,66359499.5681,1822.14506008,45674549.007,68587775.2625,4764.65678773,4755.29235017,0.0
1.17675849285,1.01412958805,9.85898665766e-06,2303965.60852,2.13204369407e-05,0.0,5410789.57221,686.421065722,655.642405249,65784250.5882,1854.26968645,51201191.0652,67026829.611,4884.72450382,4873.65526825,0.0
1.19706106861,1.08035751035,9.75420567234e-06,6845573.90952,2.15293138501e-05,0.0,8380364.65725,687.745946609,656.94246995,65524180.046,1878.23605442,53824487.034,66667474.6389,4969.0004958,4957.35101196,0.0
1.24841110479,0.986666470667,9.64594005926e-06,19148084.9754,2.74384827564e-05,0.0,20723226.795,690.998771113,660.112335181,64833136.0574,1938.2355347,63324448.6295,65637089.1539,5182.15449598,5169.71138506,0.0
1.11491030461,0.961039992128,1.02136683726e-05,-15705371.9129,1.85150966506e-05,0.0,5639558.23586,682.347254547,651.664263197,66479206.5411,1777.87295345,40892594.31,69257316.8009,4627.99267444,4618.46958973,0.0
1.19290643099,1.09094253615,1.05214233484e-05,7518708.0533,2.18680958544e-05,0.0,8900028.09989,686.971102245,656.671795406,65525369.5458,1873.30658844,53950206.6718,66492312.9357,4951.75459504,4940.61452814,0.0
1.116653187,0.866957508706,1.03154916748e-05,-15168683.9439,2.00676303848e-05,0.0,5622443.23219,682.455312628,651.774705107,66413284.8653,1780.54680946,41091258.6228,68895995.2837,4635.22737924,4625.6758985,0.0
1.09226447918,1.04963789791,9.72694925586e-06,-25760349.4362,1.54562021949e-05,0.0,5760043.09089,681.381290546,650.281184355,66840230.3381,1750.01954117,36369344.8029,69354507.7619,4533.98985308,4525.21783046,0.0
1.09017502196,0.930737468947,9.87880424399e-06,-26367639.3775,1.69621163285e-05,0.0,5753539.10207,681.218365453,650.160562518,66813974.5981,1747.59370494,36193005.9212,69318559.335,4525.31651616,4516.67447912,0.0
1.06512902719,1.03249104785,1.01476243206e-05,-35992358.845,1.42667060004e-05,0.0,5808669.13219,679.455889571,648.474614073,66947051.5197,1714.15990981,34658793.9897,70081526.0726,4421.35059187,4412.90820153,0.0
1.11435809001,1.15492266894,1.03637451274e-05,-15747233.9691,1.61463279529e-05,0.0,5651655.10749,682.136351308,651.627829697,66500529.3808,1777.31243183,40779963.5799,69268496.056,4625.70043163,4616.18619727,0.0
1.16484571415,1.28591894886,1.0024093413e-05,-281466.312155,1.68174545868e-05,0.0,5467573.12843,685.442990452,654.910848898,65941319.5759,1838.72398615,49816515.1332,68341473.8819,4835.27455944,4824.31627911,0.0
1.10647374491,0.781535271494,1.03474522343e-05,-17657793.5207,2.03567725535e-05,0.0,5645199.92739,681.917865028,651.18669635,66484571.843,1767.20165185,39773293.5153,68846911.0568,4592.97251512,4583.59083821,0.0
1.13620996251,0.890836211098,1.01969077911e-05,-10718644.9392,2.22449927615e-05,0.0,5606028.46973,683.746378267,653.096715706,66401286.9742,1807.53456486,43910188.1509,67865961.1527,4716.40755438,4707.25340847,0.0
1.05766213976,0.944194754044,1.0146815098e-05,-39459170.6463,1.48269635044e-05,0.0,5820900.11832,679.083559918,647.986162793,66981909.9625,1704.33831368,34769741.8802,69727375.4935,4390.35554214,4382.03101665,0.0
1.09507009061,0.866260329148,1.01621031004e-05,-23881594.887,1.8355618014e-05,0.0,5722768.31945,681.338865181,650.48053939,66716108.9233,1754.02049443,36827358.3432,69433791.5049,4545.63594612,4536.91702685,0.0
1.07268911944,0.938698153206,1.01311261024e-05,-31825949.7702,1.57992090254e-05,0.0,5783811.06098,679.843143783,648.894312309,66885244.8777,1723.97039828,35147919.4312,69527653.127,4452.7325348,4444.1718899,0.0
1.08873139085,0.915692216349,9.8457492488e-06,-27032540.8695,1.69959426391e-05,0.0,5757914.53712,681.18653093,650.084992702,66823822.3765,1745.70709606,36132830.5498,69340503.3058,4519.32400342,4510.70528597,0.0
1.04049987419,0.847585692414,1.01050074387e-05,-52698760.6171,1.53886565749e-05,0.0,5873749.54096,678.294482304,646.888855416,67130092.8116,1682.80710039,38776544.1491,70752694.4515,4319.11497776,4311.63050352,0.0
1.15938210074,1.18616550324,1.01891030034e-05,-2357928.08872,1.79357997133e-05,0.0,5508486.59463,685.06390549,654.585890175,66095531.0148,1833.82879975,48470819.6758,67972442.8607,4812.59510017,4802.2633643,0.0
1.15363399636,0.892719127627,1.00499850001e-05,-4317318.90985,2.34655360946e-05,0.0,5536674.15244,684.902186001,654.199591509,66194340.1511,1828.64403168,47740823.7735,68564546.9808,4788.73471889,4779.06002045,0.0
1.01410357854,0.9915091734,9.84257781932e-06,-80428980.0376,1.34428844783e-05,0.0,5957048.75951,677.835050944,645.23012663,67315698.9095,1647.38867499,57544694.2639,70819742.1802,4209.54395452,4202.43561635,0.0
1.28298749913,0.888994721189,1.01036012657e-05,25505796.6572,3.42127413895e-05,0.0,27134060.541,692.991282953,662.193775228,64048658.0486,1975.63733121,67595580.945,68474138.1491,5325.68110889,5312.34334479,0.0
1.11268269518,1.02448577678,9.90664472503e-06,-17040784.1433,1.74176523544e-05,0.0,5686261.94965,682.474754007,651.58680678,66629982.9925,1776.00391143,40337435.6189,69189673.8844,4618.74586769,4609.55759871,0.0
0.991866072695,0.871262857228,1.02246532078e-05,-95166099.0227,1.46739452668e-05,0.0,5914187.57521,679.01064751,643.805430446,67149640.2281,1614.36623234,70058664.9722,70305236.622,4117.23606776,4109.13984263,0.0
1.01350683805,0.879784723994,1.01653072855e-05,-80434224.4355,1.47870734766e-05,0.0,5860864.63227,677.675807078,645.170860528,67016735.2382,1643.02714246,57532042.1867,70805522.3346,4207.06688475,4198.53779782,0.0
1.01563417849,0.826075032508,9.80586364369e-06,-78919742.5338,1.48248047639e-05,0.0,5947269.93152,677.937263114,645.346195939,67298153.8545,1649.5445824,56324213.0419,70954323.1671,4215.89747491,4208.76747007,0.0
1.09290301044,0.963773057003,9.89359678401e-06,-25437057.1234,1.68285156865e-05,0.0,5747063.17799,681.314739571,650.301757789,66799113.1459,1751.11502714,36426688.1021,69247933.1734,4536.64039634,4527.9563956,0.0
1.09144489169,1.1480276964,9.55892387603e-06,-26577376.2797,1.42138094667e-05,0.0,5775737.085,681.438477875,650.256430435,66884397.1168,1748.87591552,36254989.2258,69486892.3111,4530.58774541,4521.82867719,0.0
1.17647805251,0.914233593455,1.01434594134e-05,2743345.48318,2.34305819439e-05,0.0,5383961.39578,686.303147586,655.616236839,65686466.6344,1853.81536149,51269690.2872,66913844.2287,4883.56039597,4872.49618548,0.0
1.06496644265,1.00487134749,1.00105267219e-05,-35909761.7499,1.4304515194e-05,0.0,5776824.55894,679.707479811,648.531543862,66844803.4817,1712.13589315,34585038.2023,70128105.8065,4420.67570344,4411.52023989,0.0
1.06267662411,0.983834022357,9.94304990651e-06,-37925157.7648,1.45939125534e-05,0.0,5819303.10053,679.497258601,648.315588842,66982148.3589,1710.96012851,34692150.1249,70046722.0624,4411.17066668,4402.76658572,0.0
1.13880672892,1.07857947232,9.66918128251e-06,-10363084.2985,1.85143062815e-05,0.0,5613063.07813,684.170477821,653.254676695,66423080.2358,1809.60399308,44240503.9726,67934712.8012,4727.18673175,4717.54768927,0.0
0.988319525959,1.23923244434,1.00985663303e-05,-95340426.1483,1.13826034491e-05,0.0,5998896.85753,679.3100731,643.592965237,67401290.016,1612.42975237,70211788.3645,70453724.9313,4102.51435226,4095.43052393,0.0
1.08573846967,0.945402786493,1.0314242467e-05,-26720656.1527,1.68711684491e-05,0.0,5753138.29933,680.668859616,649.890055237,66804123.7547,1742.10112275,36021226.5563,69188714.1608,4506.9003876,4498.42582318,0.0
1.01070154864,0.997561602841,1.00812314374e-05,-83587988.6976,1.37522772632e-05,0.0,5877851.71119,677.763784662,645.00172736,67063184.331,1639.17579126,60014620.427,70716634.4769,4195.4221284,4186.93911507,0.0
1.16255362137,1.19422864868,1.05128793236e-05,-1629855.72871,1.93930568624e-05,0.0,5417181.18443,685.148133705,654.75436861,65775396.8079,1835.67769264,48537145.6398,67372589.4396,4825.76008231,4814.59588175,0.0
1.04658665302,1.01384262246,1.02214640674e-05,-47063799.7291,1.40501807473e-05,0.0,5816013.95369,678.539608664,647.281548039,66954708.1301,1688.1960104,36386248.7171,70189155.6502,4344.38119669,4335.65214902,0.0
1.0304087325,0.979372302547,1.01172533155e-05,-59762931.9225,1.38559540273e-05,0.0,5854428.90208,677.960815694,646.258774103,67046431.2136,1666.72723101,42526479.4931,71041875.2456,4277.22664861,4268.75886094,0.0
1.03534619973,1.05773346472,1.01749359165e-05,-54873744.4273,1.3222150048e-05,0.0,5846801.86692,678.062452076,646.574279868,67028695.12,1673.22369524,39790910.8384,71060665.6824,4297.72207508,4289.17447246,0.0
1.12478378318,0.751589139573,1.00165243218e-05,-13143761.49,2.23986934204e-05,0.0,5587111.44847,683.257479474,652.317814767,66321192.883,1790.74710245,42510286.7912,67692260.2294,4668.97748398,4659.19052899,0.0
1.13988605851,0.931661187119,9.75945551413e-06,-9065152.38397,2.09463968722e-05,0.0,5590893.19677,684.230015186,653.321195065,66358315.1622,1810.85034071,45179881.2382,68119115.1851,4731.66702888,4722.01334447,0.0
0.982186837116,1.02694201852,9.61792163052e-06,-94992427.1003,1.35542476212e-05,0.0,6019667.71446,682.113430023,643.202420682,67454766.022,1618.99858759,69905371.5621,70144097.8099,4077.05756087,4070.05505623,0.0
1.13416883169,0.906026861834,1.02498619716e-05,-11088157.1641,2.18555970962e-05,0.0,5611623.31373,683.578000514,652.965125075,66417246.4671,1804.89049192,43640731.0751,67756417.5849,4707.93482035,4698.8130112,0.0
1.0528468487,0.680800061573,9.58806578502e-06,-44582510.5536,1.71578424933e-05,0.0,5811634.59681,679.43282214,647.689813918,66938579.3446,1696.70985597,35730519.3053,70620393.9721,4370.36726895,4361.59168453,0.0
1.19467381274,0.812045598411,9.98714269968e-06,7228514.45397,2.68348933166e-05,0.0,8666720.31046,687.635280386,656.801343239,65477847.829,1876.16787862,53989081.4646,66547754.9569,4959.09099668,4947.80412381,0.0
1.09215899562,0.765672019558,9.67159572412e-06,-25889330.8666,1.87774707185e-05,0.0,5719355.13643,681.577243813,650.270887552,66706187.4688,1749.19044156,36224614.2147,69136336.7577,4533.55199082,4524.394282,0.0
1.11884410322,0.806134291695,1.01423766882e-05,-14484554.3186,2.09809383684e-05,0.0,5610707.82753,682.742303359,651.918405926,66388668.0265,1782.97520433,41638518.6235,68657785.5794,4644.32187247,4634.63403254,0.0
1.11953056133,0.661275701121,9.7971239098e-06,-16833100.5484,2.36128670556e-05,0.0,5640490.13874,683.105529796,651.97499253,66491725.7473,1785.92681609,40344851.3626,69257812.4885,4647.17136008,4637.96318255,0.0
1.109049982,0.936169325703,1.03873374421e-05,-17425993.3274,1.87554542172e-05,0.0,5598375.27401,682.021709278,651.315948482,66322831.8648,1768.72038752,39870584.9974,68865074.8886,4603.66647528,4593.47141759,0.0
1.1599216446,1.01295230598,1.01143995249e-05,-1723693.15729,2.03867088823e-05,0.0,5462804.37208,685.26191082,654.608565665,65930795.7925,1833.51313047,48898125.3247,67666345.6422,4814.83474673,4804.07888019,0.0
1.20194750962,0.974200212719,1.04099671489e-05,9298631.04001,2.46484507438e-05,0.0,10614731.9785,687.612630807,657.198031088,65431077.9196,1884.75633921,55325290.9873,66817899.4563,4989.28411243,4978.10629002,0.0
1.00705562398,0.913985553882,1.04195110784e-05,-84857771.7827,1.45060955988e-05,0.0,5870513.24013,677.439017307,644.769698899,67042318.1464,1634.611682,61194088.2816,70556547.6203,4180.28789514,4171.94790065,0.0
1.07666901518,0.981651670956,9.56138555065e-06,-31584147.031,1.48896804465e-05,0.0,5776524.7032,680.492542175,649.148150586,66854243.901,1727.93296319,35079020.7971,69642501.6904,4469.25308201,4460.08705718,0.0
1.0484012069,0.833677334746,1.01093790207e-05,-46905622.1528,1.58957175796e-05,0.0,5806757.66724,678.792299839,647.398469646,66932548.8144,1690.90677174,36374110.5462,70236357.3691,4351.91340984,4343.24368011,0.0
1.21462070903,1.21831320238,9.89457476819e-06,11785876.2681,2.07136871099e-05,0.0,13067193.1024,688.540048955,657.998102724,65423126.9481,1899.58104712,57473497.5913,66485019.4113,5041.89056318,5030.36052085,0.0
1.11507938399,1.20784356902,1.01778985533e-05,-15789586.3161,1.53952726183e-05,0.0,5660243.19092,682.265311236,651.676158778,66542706.9428,1777.8746695,40857735.6955,69366649.1593,4628.69452294,4619.16862763,0.0
1.07085015935,1.02667310256,9.86234970851e-06,-34075027.0101,1.4700905162e-05,0.0,5814075.56362,679.96721137,648.841296022,66973823.4028,1722.14925932,34794451.4209,70024403.9708,4445.09901146,4436.75759612,0.0
1.13649288803,1.14067868772,9.88822810248e-06,-10877100.9136,1.77193474541e-05,0.0,5608724.94974,683.877324575,653.103385931,66404167.558,1806.36606931,43978465.2187,67782620.6537,4717.58197821,4707.87620541,0.0
1.13197110602,0.769890109428,9.79278935028e-06,-11667658.2045,2.28190547157e-05,0.0,5594984.85373,683.840622485,652.806462499,66353218.0481,1800.84025397,43365106.2594,67453245.2333,4698.81206109,4689.18243745,0.0
1.06144291587,0.976211962371,9.77603179365e-06,-39181951.1535,1.45371850324e-05,0.0,5828125.24698,679.560091998,648.236726891,67003839.6592,1709.28276354,34810057.3994,69946818.5751,4406.04954378,4397.66470781,0.0
1.05462692313,0.819399388213,1.0098302282e-05,-40421580.2345,1.60210130793e-05,0.0,5812390.8455,678.976946509,647.772254062,66948740.2255,1699.58757954,34883363.7547,69877894.7408,4377.75635791,4369.29507437,0.0
1.06132695969,0.866944713859,1.04474145746e-05,-36095959.7056,1.61340286435e-05,0.0,5799632.72174,679.076191027,648.229603538,66921041.843,1709.41018082,34595282.8411,70034941.3182,4405.56820967,4397.27998431,0.0
1.0745998572,0.810157205311,1.01652960533e-05,-32300580.6393,1.77152568461e-05,0.0,5786705.99578,679.985505459,649.029509786,66907703.3811,1727.88131407,34953480.7001,69517604.0094,4460.66400724,4452.45714722,0.0
1.10576591266,1.08124013198,9.71659432321e-06,-20108720.5733,1.60338781306e-05,0.0,5654511.131,682.240423461,651.160054136,66506272.9649,1764.39949884,38808372.8551,68671807.4295,4590.03430345,4579.89562574,0.0
1.04392056851,0.972064533301,9.75695089958e-06,-50657522.3987,1.42039407132e-05,0.0,5833893.66035,678.782293322,647.091253242,67003032.8116,1684.34999923,37866782.3339,71065274.2429,4333.31427989,4324.54087556,0.0
1.24526239801,1.01605448232,1.03610505662e-05,18874607.9062,2.83400890498e-05,0.0,20580966.9253,690.448735438,659.899316598,64695160.8521,1933.17596344,63127309.3969,64908946.9888,5169.08421414,5156.53621569,0.0
1.17342768564,0.859866250132,1.00895173652e-05,1764233.78382,2.43602765796e-05,0.0,5365632.91179,686.226902588,655.423255374,65626816.3501,1849.45328241,50765618.7479,66910980.6175,4870.89832309,4859.57687409,0.0
1.19698916228,0.902580105902,9.67927080881e-06,7123682.31216,2.46902175762e-05,0.0,8662781.93171,687.858499096,656.951567732,65611127.1335,1879.85671098,54182446.8749,66769261.3099,4968.70201262,4957.60228778,0.0
0.982422662684,0.979868240327,9.77379143875e-06,-94990628.6892,1.37215696457e-05,0.0,6009768.40358,681.464395051,643.215726243,67420658.3656,1616.02404822,69903813.7384,70143602.473,4078.0364728,4070.94806876,0.0
0.989883291187,1.05851543272,1.02819232096e-05,-95109497.9294,1.30817358664e-05,0.0,5927493.74551,679.04490399,643.678189022,67188183.1862,1611.81756118,70008794.9865,70254181.3337,4109.00554172,4100.94108652,0.0
1.04472701543,0.754170572204,1.01171477724e-05,-48677713.9448,1.65113777854e-05,0.0,5810309.87856,678.646467373,647.172563625,66935480.2808,1686.08532178,37085199.8026,70876309.6376,4336.66184105,4328.05162419,0.0
1.02877994257,0.763157285866,9.69682644347e-06,-63896614.3736,1.57294152182e-05,0.0,5914321.01176,678.285597454,646.167852363,67233518.4486,1667.12013222,45222705.4605,70960063.3762,4270.46554161,4263.14829303,0.0
1.10281353552,1.08319522339,1.02347373551e-05,-21362046.3224,1.63641450483e-05,0.0,5712593.92404,681.678034628,650.998305987,66701700.4206,1763.89498878,37801000.222,68631953.659,4577.77898594,4568.93908545,0.0
1.15501131412,0.938349379506,9.9560896344e-06,-4147863.1526,2.11418193109e-05,0.0,5467666.47714,685.083330876,654.257854643,65962585.1195,1827.14939361,47539992.6382,67867031.5259,4794.45196491,4783.57832767,0.0
1.06621602154,0.982034090687,1.04079960328e-05,-34865285.7416,1.51406772348e-05,0.0,5795479.26335,679.346037882,648.546741193,66918073.8179,1715.94123265,34666918.3642,69793492.2521,4425.86270541,4417.49709879,0.0
1.21123298608,1.00097905533,9.86354057174e-06,10809827.2199,2.43240330532e-05,0.0,12134775.3109,688.511560245,657.742747205,65272839.0996,1894.94096568,56696387.2047,66601334.7749,5027.82812522,5015.91652152,0.0
1.00475033676,1.10468755207,9.84697889053e-06,-91900388.5112,1.23303212203e-05,0.0,5985514.12695,677.991197406,644.651473711,67388323.0759,1634.72075352,67194627.3068,71194405.495,4170.71864789,4163.74209811,0.0
1.22451454406,0.938277967297,9.86217360521e-06,13568462.0181,2.67159798534e-05,0.0,14895471.2089,689.483695017,658.643610291,65048713.4043,1910.56507775,58886607.4379,66463124.0339,5082.95987239,5070.77276582,0.0
1.12673031526,0.875845868002,1.00332265057e-05,-13124921.6764,2.13125975417e-05,0.0,5643731.97802,683.235418582,652.469011603,66517684.5447,1795.30691996,42528595.6209,68138219.2614,4677.05753864,4668.05492477,0.0
0.969375534134,0.924437251743,9.73747883994e-06,-94378648.8226,1.44304398466e-05,0.0,6050712.91073,684.0025394,642.380428704,67539072.2007,1617.83782285,69365091.7396,69595970.8309,4023.87784219,4017.30480702,0.0
1.0906685245,0.911022998445,1.01216318165e-05,-25469816.2356,1.74052622965e-05,0.0,5740122.91323,681.056981651,650.164230409,66777340.7261,1748.23109127,36333717.2484,69164979.5534,4527.3650452,4518.71603786,0.0
1.19173258961,0.905466155485,9.30159309373e-06,5027179.89829,2.37790438146e-05,0.0,6728448.6166,687.759816635,656.563191002,65629078.099,1872.65020986,53068559.9895,66977670.3873,4946.88197947,4935.32937063,0.0
1.20515610086,0.913411523958,1.00512877004e-05,9193784.84272,2.5738142761e-05,0.0,10581946.2839,688.142383395,657.381567055,65256407.8156,1887.58345542,55361691.1473,66780296.9838,5002.60297467,4990.70354022,0.0
1.05433194522,0.792872045251,1.01263038014e-05,-40476321.1724,1.62821913817e-05,0.0,5810385.62608,678.948650235,647.752586817,66934055.2877,1699.20925549,34894047.3106,69895324.577,4376.53190461,4368.07670297,0.0
1.13783137853,1.20207865023,9.44636964206e-06,-11017853.3682,1.65904606105e-05,0.0,5637166.11576,684.197202111,653.198860683,66506573.5497,1808.34405637,43893395.9095,67854317.6022,4723.13805228,4713.51335856,0.0
1.13590949677,1.09718264066,1.04075220764e-05,-10363462.8703,1.92015915604e-05,0.0,5614030.6541,683.485446415,653.068222367,66429811.7987,1806.87010807,44007023.2677,67932185.2999,4715.16032109,4706.01093826,0.0
1.04732631843,0.894856178708,1.02880423702e-05,-44236282.9911,1.5101430325e-05,0.0,5822268.25488,678.503246256,647.336133222,66972224.0148,1689.89650492,35633784.6953,70453479.5282,4347.4515478,4339.03529109,0.0
1.06744480472,0.725518070873,1.01704132762e-05,-34009057.5536,1.79328806482e-05,0.0,5782160.3691,679.675483742,648.622674416,66870121.3966,1717.22759726,34769132.3284,69803848.48,4430.96338439,4422.48504761,0.0
1.01611356481,1.07438613089,9.5736316534e-06,-79636746.6806,1.27760098664e-05,0.0,5957397.37051,678.095225742,645.356413344,67323076.3451,1649.39576413,56912819.0935,71770208.9608,4217.88740753,4210.57373211,0.0
1.21831063155,0.934412281026,1.02917470354e-05,12788548.6794,2.67558138118e-05,0.0,13983545.7032,688.812972068,658.254406806,65151978.3849,1903.7101963,58218150.3779,66368814.7014,5057.20743156,5045.47537805,0.0
1.1139262661,0.953635462486,9.66178159221e-06,-18932842.1755,1.83277301667e-05,0.0,5693113.96646,682.752719581,651.677031613,66656982.2398,1778.35762226,39245335.5843,69064970.0337,4623.90793058,4614.78994797,0.0
1.10944389716,0.937569941095,9.90199129803e-06,-17779083.2188,1.81516053842e-05,0.0,5640955.11317,682.355455992,651.37142562,66471342.726,1769.87307664,39765143.7082,68959373.156,4605.30161711,4595.38364987,0.0
0.930992541428,0.989418275651,9.46243702574e-06,-92848180.5882,1.35866539002e-05,0.0,6140637.09176,689.994083201,639.905934432,67732786.8484,1609.89629877,68017691.9765,68226563.3405,3864.55003947,3858.26649488,0.0
1.23975538948,0.887945354333,9.81621405097e-06,17204748.3336,2.92325157244e-05,0.0,18774417.3253,690.434268233,659.532580853,64795188.2688,1927.66488046,61807515.4889,66838644.8845,5146.22462173,5133.6571797,0.0
1.04908973046,0.833526725417,9.78930149835e-06,-47176823.7768,1.55982983606e-05,0.0,5821438.36712,679.071113664,647.447201813,66971920.0042,1691.8824127,36516673.4666,70489051.0418,4354.77147114,4346.09028633,0.0
1.06191340186,1.17452279926,9.91598414385e-06,-38424750.0846,1.26756297207e-05,0.0,5833640.16215,679.404536599,648.266141828,67024411.1163,1709.80669821,34732905.8767,70040498.8108,4408.00253112,4399.61035803,0.0
1.1647714598,0.961950501647,1.00724744748e-05,-1421300.41718,2.16214405481e-05,0.0,5431578.53548,685.642555854,654.906995292,65832462.7208,1839.40385101,48957026.7896,67615765.9616,4834.96632963,4824.00717385,0.0
1.00311122267,1.05350463849,1.01938816946e-05,-91984587.0701,1.2852985002e-05,0.0,5969202.6065,677.611183938,644.541833111,67344680.2121,1632.44961821,67267109.4607,70841563.4094,4163.9146853,4156.96389382,0.0
1.25019321293,0.781290119317,1.02341867397e-05,20032046.5337,3.42351055003e-05,0.0,21770553.6402,691.029124861,660.205798287,64551001.7491,1939.66956911,64000820.9211,64860793.6054,5189.55202687,5177.02880576,0.0
1.09345319287,0.764332289299,9.92315339903e-06,-25097189.6668,1.94465796158e-05,0.0,5729788.4492,681.416721775,650.336051454,66745572.0812,1752.01798003,36490652.5928,69157071.4453,4538.9242036,4530.23082372,0.0
1.20955352575,1.07251902968,1.0228719315e-05,10881106.4636,2.31995355244e-05,0.0,12148946.1777,688.142227549,657.647098453,65303110.4188,1892.64750865,56660308.9424,66336691.3304,5020.85668539,5009.09218913,0.0
1.10377064736,1.15592351162,1.00189866207e-05,-21411622.754,1.5326192436e-05,0.0,5727046.63326,681.857546623,651.066487632,66741369.5656,1765.26411688,37798596.2833,68678923.6074,4581.75195719,4572.89682743,0.0
0.978726375405,0.962214727601,1.01382617687e-05,-94725729.9647,1.38093641564e-05,0.0,6003865.93,681.20040747,642.976258107,67410665.6551,1613.08843259,69670649.9077,69907020.7591,4062.69318431,4055.74281393,0.0
1.04711403848,0.854571715762,9.65488112761e-06,-49287813.0207,1.54468337646e-05,0.0,5822628.41253,679.097396402,647.328583867,66969134.2872,1688.66346868,37284556.5405,71017610.6147,4346.57037373,4337.74442875,0.0
1.17077339432,1.0225037398,1.00455811695e-05,1412211.86549,2.10078681516e-05,0.0,5416653.32053,685.943161574,655.274479545,65791810.3762,1846.32746656,50569575.9794,67484827.7936,4859.88035982,4848.81564023,0.0
1.18024895581,1.03143460859,9.88379943978e-06,3134478.48088,2.12879696991e-05,0.0,5398754.72486,686.599890927,655.849963789,65754052.5862,1858.50807193,51617223.3755,67021638.0514,4899.21341557,4888.09479374,0.0
1.0638346014,1.0532063918,1.00121293401e-05,-37126070.8832,1.39190080937e-05,0.0,5818546.9552,679.475464118,648.390099542,66983144.7204,1712.45767001,34657706.5811,70122403.8712,4415.97743041,4407.55601359,0.0
1.04309212259,0.954625085974,9.92233227221e-06,-51103871.4494,1.44905749223e-05,0.0,5833692.62877,678.624378243,647.039720647,67000695.8446,1683.74469107,38024693.4108,70950738.4394,4329.87540087,4321.291612,0.0
1.21414452325,0.83381127748,9.67748316968e-06,11717853.7473,2.75719111634e-05,0.0,13084244.8671,688.894154507,657.957640106,65321798.6739,1899.72955087,57402528.4209,66453912.2679,5039.91391601,5028.36505788,0.0
1.0082153034,1.31315744322,9.96039816329e-06,-88237143.3186,1.10442928057e-05,0.0,5907522.70566,677.888380139,644.849200251,67148693.2994,1635.61007524,64058898.6582,70892288.3867,4185.10172441,4176.65946097,0.0
1.25896896984,0.979027059833,1.05742179191e-05,21777701.0669,3.16601342351e-05,0.0,23791917.6288,691.250261898,660.784324488,64540295.9805,1949.60878751,65438357.4202,66329643.6024,5225.98019381,5213.58676166,0.0
1.25177570768,1.16493492077,1.01287115179e-05,19954253.3813,2.53873717962e-05,0.0,21789392.3224,690.82477652,660.315020185,64812526.3089,1941.65538956,64110728.8452,64986970.1695,5196.12096258,5183.79561551,0.0
1.04796674286,0.968392941634,9.72854143948e-06,-48578371.4283,1.43770428856e-05,0.0,5825011.22258,679.024525442,647.377368287,66979270.7577,1689.71769807,37018435.4483,70747589.2447,4350.10994961,4341.26995422,0.0
1.20557242487,0.914948964944,9.54709734982e-06,9515845.76954,2.48251319156e-05,0.0,10905317.5912,688.432101077,657.456384963,65451524.9708,1889.07998741,55776030.6793,66952936.0851,5004.33113564,4992.74387854,0.0
1.12660141806,0.769979902937,1.00743604294e-05,-13060164.2815,2.30045354785e-05,0.0,5632280.36315,683.260282961,652.45987645,66482984.9409,1795.22110489,42564553.61,68071480.9189,4676.52248637,4667.52094199,0.0
1.20649744627,0.951178601251,9.84867147713e-06,10385500.6711,2.48256170672e-05,0.0,11755037.7567,688.193381034,657.476222781,65496870.288,1890.70322188,56410018.7312,67141376.9451,5008.17089947,4996.98889347,0.0
1.08123826817,0.950031111058,1.02163800712e-05,-28376954.6069,1.6289510268e-05,0.0,5753577.22785,680.495001786,649.612285084,66795145.9828,1735.18050351,35552234.5757,69203196.9085,4488.22005117,4479.52603202,0.0
1.11385467382,1.04769759813,1.00244906326e-05,-16288419.578,1.72375500289e-05,0.0,5629799.30382,682.430172073,651.607768415,66433021.0203,1775.42686657,40661103.019,69273518.5977,4623.61075103,4613.61660603,0.0
1.06107586696,0.823292713297,9.9500430944e-06,-38618971.368,1.62065368075e-05,0.0,5812995.03053,679.468337764,648.212241012,66960158.428,1708.94295752,34736790.6199,69927784.3933,4404.52592375,4396.14681,0.0
1.07584720373,0.805694301677,9.92038293919e-06,-31604241.4267,1.7434854663e-05,0.0,5786448.45266,680.232716877,649.110137494,66904374.4761,1728.89351136,35156735.8195,69602911.2141,4465.84174268,4457.4233784,0.0
1.11893805144,0.805376170669,1.02999611768e-05,-14582817.5671,2.121168525e-05,0.0,5606237.24924,682.647208536,651.932494259,66366094.8109,1783.53082764,41445703.5212,68501440.0816,4644.71185153,4635.12232073,0.0
1.06671472788,0.713930243643,9.91330376039e-06,-36118260.0568,1.7853141416e-05,0.0,5793091.84686,679.846363873,648.577017351,66908518.3166,1716.47894957,34647179.0814,70124258.7943,4427.93283543,4419.46563669,0.0
1.15045522072,0.933894045999,1.01502881605e-05,-6705873.2585,2.27910457497e-05,0.0,5562355.5311,684.639104119,654.007134014,66285562.7478,1825.58790175,46119155.3938,68674186.4087,4775.53962121,4766.13314717,0.0
1.21430480996,0.876028442781,9.93415671453e-06,11939596.2211,2.6957946147e-05,0.0,13217729.9595,688.740247996,657.980163584,65286116.9387,1899.65766505,57535921.9837,66344383.3963,5040.57926614,5029.05486981,0.0
1.0818792756,0.908140122815,1.00732040398e-05,-28663771.5005,1.67247858592e-05,0.0,5766581.2121,680.653210383,649.661799799,66844508.8388,1736.73232853,35681959.6835,69273835.0573,4490.88087302,4482.36894875,0.0
1.08839850367,0.836614256158,1.00083948036e-05,-26567269.7442,1.80569961631e-05,0.0,5746210.21183,681.07867802,650.056223644,66790837.6949,1745.33207485,36089676.9273,69259334.9054,4517.94218873,4509.32867208,0.0
1.15291666168,0.969406894178,9.9731573655e-06,-6466745.2094,2.2215107919e-05,0.0,5565324.33153,684.884589638,654.16461927,66294505.5847,1828.75847081,46417353.386,68693575.987,4785.75706263,4776.30936546,0.0
1.12868937773,1.20992652955,9.86402329352e-06,-12530341.7164,1.621605939e-05,0.0,5642668.78612,683.345153888,652.586601722,66497581.4998,1796.2004503,42774303.3406,67817305.2524,4685.18960696,4675.63978188,0.0
1.02872006824,0.877467216207,1.03001113056e-05,-61201469.0126,1.48779013555e-05,0.0,5840983.62217,677.788672869,646.150214958,67003050.0831,1664.39990345,43401764.1744,70730073.5314,4270.21700326,4261.77675959,0.0
1.10931815167,0.96493703588,1.03409917187e-05,-16912315.4859,1.81177341156e-05,0.0,5652793.01203,681.972042426,651.349543732,66512398.4678,1770.69604241,40174712.7875,69066743.2443,4604.77964758,4595.35092979,0.0
1.12488878458,1.08594975472,9.9394898277e-06,-13515083.9041,1.75708038016e-05,0.0,5596248.69492,683.163968559,652.318163908,66347131.7871,1789.61526279,42128798.3987,67879774.8995,4669.41334479,4659.2285334,0.0
1.12606023449,1.04815789134,1.0280414692e-05,-12930605.5503,1.83611125552e-05,0.0,5603658.31169,683.012347287,652.406052191,66371396.8908,1792.29410311,42518053.422,67178500.0818,4674.27603337,4664.56744657,0.0
1.07965942868,0.705723606478,1.01916834621e-05,-30017671.3407,1.95857755667e-05,0.0,5760986.648,680.516738195,649.512869919,66837630.6045,1734.5679779,35295515.0615,69188505.2629,4481.66628845,4473.38252807,0.0
0.985191587111,1.04276523475,9.66269859725e-06,-95109910.522,1.34102172144e-05,0.0,6010584.21248,681.548225777,643.395198088,67435576.9517,1619.16977145,70009028.207,70249474.3965,4089.5302781,4082.4846205,0.0
1.17283334587,0.629065052091,1.04670742386e-05,1660053.98993,3.25240138266e-05,0.0,5398225.61944,686.096034751,655.405123174,65718194.8683,1852.36711278,50646000.7418,66774663.8756,4868.43121871,4858.34770835,0.0
1.19613096636,0.858242371474,9.81110959677e-06,6975046.67251,2.55495323984e-05,0.0,8473895.47996,687.785985625,656.88889124,65518394.1499,1878.24270365,53849129.019,66617249.9066,4965.13964136,4953.83780147,0.0
1.1480806606,1.04220914735,9.87287301982e-06,-8035534.32153,2.04373316203e-05,0.0,5594116.59856,684.543858632,653.798704837,66374936.3913,1822.61221411,45541916.2276,68552745.1305,4765.68282215,4756.31274871,0.0
1.03206254845,0.828948442358,1.01196820603e-05,-59247346.9014,1.5431742201e-05,0.0,5836882.84098,678.083986495,646.358524039,66993019.3747,1668.7881674,42230012.4266,70975207.3509,4284.09163862,4275.57582739,0.0
0.962226723151,0.771276307705,9.78713239325e-06,-94046686.6843,1.53910405574e-05,0.0,6029787.27588,684.686266259,641.912118114,67448256.7027,1612.67507183,69072850.5178,69299111.2422,3994.2031278,3987.16992005,0.0
1.03564538394,0.917209678855,1.03287882781e-05,-54173998.2338,1.43833010599e-05,0.0,5840275.89683,677.969633187,646.574350586,67013778.279,1674.26816366,39397434.2176,71021534.3319,4298.96398873,4290.58607206,0.0
1.13237208985,0.746345499731,9.8612800959e-06,-11433580.529,2.33464210273e-05,0.0,5587517.8248,683.841391642,652.835009604,66330543.342,1801.36336434,43501109.1862,67483168.5653,4700.47654497,4690.84027584,0.0
1.03891842278,1.05679927455,1.02023548236e-05,-52363193.3661,1.32052289163e-05,0.0,5846360.74868,678.184219984,646.80248534,67037470.1007,1678.52458435,38541965.7031,70919145.5352,4312.55037296,4304.12024657,0.0
1.09872860471,0.994015433596,1.04890352338e-05,-21803644.9139,1.70198613392e-05,0.0,5647383.27794,681.375564961,650.714689488,66468895.216,1756.09334585,37447523.6173,68230537.6983,4560.82243815,4551.00384908,0.0
1.09319840022,0.909356086399,1.00714197792e-05,-24778594.5015,1.75954418781e-05,0.0,5735009.79238,681.234553939,650.321243861,66764305.2875,1751.53798431,36542178.8147,69083386.683,4537.86655931,4529.17792827,0.0
1.06468302691,1.05904606331,9.8792972811e-06,-37264224.9643,1.38432144673e-05,0.0,5821768.20498,679.620509651,648.444391689,66992689.6619,1713.54632395,34680258.8265,70166791.9419,4419.4992447,4411.06382671,0.0
1.16818666458,0.859234064956,1.01138587966e-05,1181958.60878,2.37547409155e-05,0.0,5402963.21633,685.857146582,655.116525172,65746149.2824,1843.22739707,50483105.2734,67459951.8131,4849.14284467,4838.12707347,0.0
0.975810696683,1.12381823723,1.03006995138e-05,-94706769.3242,1.25191934826e-05,0.0,6026227.95998,681.01360086,642.79244185,67480721.2432,1611.07859756,69654149.4766,69888837.5585,4050.59020193,4044.0149787,0.0
1.00454466133,0.888519814639,1.02733829631e-05,-89109717.2591,1.47255587787e-05,0.0,5880617.7971,677.767632893,644.612383926,67067205.6911,1631.2461332,64770778.8339,70697388.3557,4169.86488918,4161.56560271,0.0
1.1367792256,0.780266766071,9.56115557253e-06,-10814804.3712,2.29525732281e-05,0.0,5596871.33048,684.273206972,653.127430767,66375983.7814,1807.15255812,44013101.1203,67745100.3355,4718.77056547,4709.1604372,0.0
0.968983590875,0.900009128285,1.01954637935e-05,-94143568.5736,1.4600389015e-05,0.0,6018007.94938,683.052857877,642.348363815,67448103.8284,1614.11344868,69158164.4999,69387190.0231,4022.25088572,4015.46734532,0.0
1.07048198996,0.896530040455,1.02551078187e-05,-32708822.9559,1.63344183985e-05,0.0,5786021.3985,679.669768375,648.772085683,66894040.3145,1721.43096177,34921187.9066,69587985.274,4443.57074032,4435.13912104,0.0
1.19005010549,0.915427145042,9.80153849827e-06,5897226.98253,2.39905315396e-05,0.0,7484553.30129,687.33813269,656.459297238,65572056.4744,1870.04496291,53359764.9368,66840568.7583,4939.89798789,4928.4800937,0.0
1.1515496205,1.21584369175,1.01724243769e-05,-6517166.31387,1.84749443927e-05,0.0,5581913.55025,684.546413364,654.073994111,66348613.0747,1826.6737508,46302687.9528,68685434.0307,4780.0824747,4770.65843063,0.0
0.991603174932,0.746578031992,9.75225740006e-06,-95300822.1034,1.59388063084e-05,0.0,5977409.95862,680.482400873,643.805833113,67342902.5889,1619.7463202,70177004.3118,70421114.8376,4116.14477914,4109.00666595,0.0
1.0743869773,0.894122972053,1.02696700915e-05,-30866538.4614,1.66346269001e-05,0.0,5770845.98355,680.056183862,649.144136763,66842360.9048,1726.56931156,35203623.269,69325684.1057,4459.78034277,4451.2878824,0.0
1.10696749312,0.864198779734,1.02657843984e-05,-18022509.1338,1.9024682708e-05,0.0,5607365.95784,682.015574679,651.202669595,66359662.8905,1765.90253,39561224.7724,68754534.5928,4595.02206394,4584.87962183,0.0
1.10667655666,1.04251047086,1.02482427803e-05,-18093980.4619,1.67331728688e-05,0.0,5648178.49612,681.88796636,651.197673102,66487624.4372,1766.26298714,39591873.9024,68866058.3219,4593.8143867,4584.04140435,0.0
1.00447470582,0.837750827527,9.86739401366e-06,-89687670.1088,1.40912579056e-05,0.0,5941195.39522,677.959190215,644.617399457,67230938.886,1632.61720011,65297679.5138,71100965.9166,4169.57450386,4161.91607576,0.0
1.11163361525,0.964652944117,9.99743964271e-06,-16940080.4801,1.81309812473e-05,0.0,5631030.26824,682.39400982,651.49579037,66432536.6985,1772.65787121,40305221.4317,69092160.9176,4614.3911369,4604.43538013,0.0
1.01521952027,0.937412292765,1.02069002959e-05,-76873489.4289,1.38745289197e-05,0.0,5863932.9579,677.568097009,645.28713878,67037847.5676,1645.41157813,54672915.2289,70521947.0595,4214.17622864,4205.6186522,0.0
1.14947811427,0.922997019882,9.69646337906e-06,-7460400.6211,2.19048592274e-05,0.0,5544954.79928,684.869124536,653.8880716,66215988.0439,1822.78022414,45830725.036,68633280.2696,4771.48365233,4761.45632753,0.0
1.08674757103,0.850987195142,1.00952979131e-05,-26867447.1735,1.78068859416e-05,0.0,5748264.00931,680.921519537,649.955466688,66795838.9134,1743.1529799,35991719.7812,69238586.9087,4511.08916735,4502.50142469,0.0
1.04072966734,0.987687140355,9.85464413593e-06,-51709328.1259,1.38980783644e-05,0.0,5840292.7452,678.581438698,646.914302173,67015837.0361,1680.15994721,38301583.0336,70908697.0236,4320.06884913,4311.34771932,0.0
1.07954834386,1.03223817591,1.03556521658e-05,-28785774.1859,1.54327829925e-05,0.0,5773767.23429,680.267497637,649.513273523,66872232.9327,1733.9173005,35586172.162,69212219.9598,4481.20517536,4472.82599713,0.0
1.05304090815,0.948766296054,9.50394832691e-06,-45974761.3343,1.47442232092e-05,0.0,5820502.07051,679.430096647,647.695804606,66970542.0199,1696.2890959,36143626.7343,70740951.8433,4371.17280973,4362.24760792,0.0
0.996106609859,0.872281776283,1.0110525219e-05,-95362815.4379,1.47957476536e-05,0.0,5907716.14668,678.78910296,644.076853921,67134962.5823,1619.94151841,70231898.04,70595343.2746,4134.83853752,4126.67399489,0.0
1.14385625995,0.677840616042,9.34420366478e-06,-9291059.11065,2.55182927256e-05,0.0,5502886.79756,685.028140396,653.552018794,66085315.8905,1814.4255871,44924341.1213,68018282.1183,4748.14733505,4737.5160127,0.0
1.03606990367,1.24772211266,1.04072010838e-05,-53067738.1122,1.18730037206e-05,0.0,5838923.98684,677.801700365,646.59253717,67013614.2053,1673.67276689,38859232.2522,70894776.461,4300.72617013,4292.08034826,0.0
1.0677926447,1.06276950726,1.01515716532e-05,-34016322.9945,1.41432966594e-05,0.0,5803923.18934,679.570833072,648.643952539,66936510.8018,1717.42335698,34816156.8243,69870874.2004,4432.40726815,4423.92348218,0.0
1.03866837535,1.05193361424,1.01112204757e-05,-51932525.5571,1.32905993512e-05,0.0,5837820.11556,678.244767933,646.77840595,67009730.1034,1677.35283759,38333584.2319,70845992.1514,4311.51242608,4302.82379853,0.0
1.07918035897,1.17200365148,1.04711892966e-05,-28501925.6681,1.39194316761e-05,0.0,5768031.85457,680.106224008,649.481061438,66845603.4009,1732.62793529,35560295.2222,69181757.7384,4479.67767008,4471.11178209,0.0
0.988506242952,0.815133190923,9.90236075097e-06,-95341922.9968,1.464558749e-05,0.0,5983271.12963,679.771917585,643.605744731,67348166.6949,1613.03436489,70213312.9244,70457010.0458,4103.28941449,4096.11925167,0.0
1.08076904691,1.13337133697,9.63576793677e-06,-29988361.086,1.3646653276e-05,0.0,5788755.28752,680.583827605,649.43130044,66907375.8908,1733.84543304,35478750.6734,69485850.4709,4486.27231372,4477.39444334,0.0
1.02413188096,1.22017952437,9.88180196915e-06,-67964804.508,1.16509756538e-05,0.0,5941100.86313,677.854096249,645.887557326,67307660.8336,1660.71023456,48013523.2005,71058359.4479,4251.17143787,4243.92063102,0.0
1.12102702032,0.97674422842,1.01881616014e-05,-13880412.1381,1.89477454681e-05,0.0,5612974.99461,682.77676129,652.069580821,66400379.2279,1785.60452191,42011424.7205,68236526.9655,4653.38316135,4643.65854183,0.0
1.12267157212,0.738020153372,9.59196674388e-06,-14552246.7845,2.19062981499e-05,0.0,5612080.74948,683.404010605,652.166426955,66397974.6716,1788.12336001,41661566.3107,68882579.2187,4660.20969587,4650.35849643,0.0
1.20228898624,0.834489500919,1.03819824768e-05,9178006.02917,2.77436877827e-05,0.0,10519325.9986,687.840975451,657.195571318,65199958.5848,1883.8787609,55227056.0994,66631720.2775,4990.70158188,4978.86212772,0.0
1.13691210092,0.946813371569,9.91621127548e-06,-11788692.2412,2.09483484369e-05,0.0,5528985.82656,684.096999164,653.112120055,66156057.4392,1805.29862903,43324811.8441,67559027.5325,4719.32213092,4708.78982284,0.0
1.10152323158,1.03407888373,9.84077941828e-06,-22592542.492,1.65002990301e-05,0.0,5733022.42585,681.894029967,650.922753543,66766468.9847,1762.45958199,37399147.4455,68813154.137,4572.42293429,4563.60328275,0.0
0.92659352953,1.13638763842,1.01581471122e-05,-92302011.035,1.22198544137e-05,0.0,6096265.79547,688.907649537,639.608639394,67602282.8418,1602.02126905,67537134.4981,67742872.9934,3846.28974108,3839.50018958,0.0
1.21910121972,0.761252651725,1.05460781041e-05,13429175.9111,3.1569747094e-05,0.0,14661836.503,688.912004853,658.294858052,64929836.543,1904.02650975,58631993.2577,66282161.8524,5060.48916306,5048.54836549,0.0
0.982721589969,1.19418267632,9.96003547146e-06,-95159467.9479,1.14546743336e-05,0.0,6015206.54307,680.351932401,643.234228834,67433884.5569,1611.33634207,70052450.1499,70293341.617,4079.27731996,4072.19108417,0.0
1.09171276394,0.737906841508,1.03653786995e-05,-24538363.2935,2.02000759865e-05,0.0,5719212.37072,681.031081079,650.23554855,66709831.4766,1750.07887369,36545161.1007,68942548.4399,4531.69968311,4523.13263766,0.0
1.13737824482,0.729037853346,9.84850735604e-06,-9376543.01294,2.426039569e-05,0.0,5567534.75673,684.154727957,653.160169422,66277631.6742,1807.56464547,44906110.8572,67921941.5561,4721.25709425,4711.54011513,0.0
1.14194208712,0.840110926473,1.01796541226e-05,-8820417.87946,2.35255274708e-05,0.0,5575661.30143,684.087985208,653.404813297,66305699.6862,1814.50212473,44953744.9213,68188183.4035,4740.20160364,4730.82371488,0.0
1.14472367488,1.04241814267,9.99656669326e-06,-8216934.27139,1.98746778462e-05,0.0,5537702.85661,684.319935123,653.554351258,66177230.0773,1815.69003565,45371454.1544,68433211.933,4751.74797443,4741.49453415,0.0
1.17304783343,0.992789966548,9.85315624983e-06,1695532.94216,2.13063867965e-05,0.0,5440292.49435,686.184176935,655.42689664,65879222.0904,1850.16170588,50890790.6425,67425688.9477,4869.32155657,4858.53591669,0.0
1.00788552037,0.939384617247,1.00743225251e-05,-87389585.1833,1.42253792065e-05,0.0,5881487.38764,677.870339761,644.82517947,67070030.2689,1635.45373297,63331628.1746,70760020.0184,4183.73279506,4175.29593088,0.0
1.13813916877,0.866845050179,9.7148893411e-06,-11364061.5726,2.19203968821e-05,0.0,5533905.24035,684.331320518,653.194975502,66174709.2912,1807.15182285,43495690.1339,67654881.8982,4724.41568956,4713.9623806,0.0
1.01094058998,1.03646145746,9.7177066096e-06,-85565776.6565,1.30080263878e-05,0.0,5972383.83698,678.005508702,645.039934985,67356994.5909,1643.07308584,61795257.8,71024969.5604,4196.41438901,4189.35073576,0.0
1.18963858211,1.0092297479,9.98839351399e-06,5917029.80368,2.2385755099e-05,0.0,7441213.24856,687.120378124,656.446866936,65638921.1201,1869.81748564,53294115.1709,66804074.7506,4938.18975434,4927.01348646,0.0
1.0514005462,0.70452511354,1.00052613027e-05,-43076179.7866,1.69741457792e-05,0.0,5816653.83564,678.979778005,647.592940241,66955230.5299,1695.53310775,35359576.3222,70527136.6692,4364.36366728,4355.95412607,0.0
0.965704189135,0.805620398436,1.06332992216e-05,-93945109.367,1.48340487362e-05,0.0,6002606.58813,682.208748537,642.133381683,67393098.3898,1608.16360631,68983523.6372,69208839.3174,4008.6380891,4001.87089436,0.0
1.01881111078,0.991585998766,1.025968801e-05,-70561658.7604,1.37108216601e-05,0.0,5870730.99333,677.552503751,645.523066541,67074903.7144,1651.08013928,49851776.657,70869368.5999,4229.08492085,4220.80372152,0.0
1.13392917833,0.977600512373,1.00525283487e-05,-10276740.2646,1.95779305642e-05,0.0,5571682.62876,683.693634096,652.933176022,66284538.0256,1801.89147669,44364755.4868,67791566.539,4706.94001925,4696.91556752,0.0
1.1499498481,0.868170615565,9.77102087847e-06,-7147912.58742,2.29743093952e-05,0.0,5533515.63936,684.903715576,653.933264317,66183679.2023,1823.40012629,45930149.9977,68647898.1307,4773.44181946,4763.40651473,0.0
1.08725835796,0.783218266104,9.96900962705e-06,-26850701.054,1.86479492653e-05,0.0,5745744.7185,681.073288819,649.988543889,66782934.787,1743.79381756,36026282.0368,69272115.922,4513.20944389,4504.56500531,0.0
1.12486958853,1.011071719,1.04719140129e-05,-12707161.9126,1.91344745896e-05,0.0,5594068.28965,682.838565873,652.326637575,66340952.9204,1790.78773394,42641813.6266,67142649.0744,4669.33366199,4659.61995516,0.0
1.24075684961,0.829959399356,1.00901352389e-05,17960734.6686,3.12549035278e-05,0.0,19557979.3856,690.413139748,659.652296604,64848981.9478,1929.9103718,62410714.1315,66990983.7414,5150.38168273,5138.34697975,0.0
1.12701082641,0.918247567901,9.79554059366e-06,-13013386.4813,1.99664414832e-05,0.0,5627545.95193,683.426323068,652.473691712,66463576.4388,1794.36084648,42471349.4306,68142559.0426,4678.22194043,4668.69979081,0.0
1.07390726614,1.05584781968,9.65687898567e-06,-33415141.2216,1.42806574442e-05,0.0,5818281.08753,680.245318594,649.017121212,66994146.8456,1726.1511684,34914640.8794,70039042.4266,4457.78906175,4449.40069639,0.0
1.09662628616,1.09787317245,1.00032138031e-05,-23918992.1299,1.5520361496e-05,0.0,5741933.4635,681.43268172,650.573505243,66789921.2069,1755.85069519,36859480.6494,69082217.2996,4552.09571385,4543.35327613,0.0
1.12955047243,0.851875880185,1.02639976338e-05,-11835215.4951,2.15180179737e-05,0.0,5577172.19347,683.354101384,652.642884843,66293196.4556,1797.12986548,43238513.6273,67347857.7322,4688.76401106,4678.99590775,0.0
0.966906423079,1.11116129271,1.01848470407e-05,-94100451.058,1.27436690256e-05,0.0,6034269.69692,683.269723697,642.214837263,67495344.4111,1613.5009382,69120233.1208,69348191.0912,4013.6285622,4006.87435399,0.0
1.01774104147,0.975031912708,9.7525189448e-06,-76913187.5082,1.36364825053e-05,0.0,5950443.67374,677.970639225,645.472716606,67315455.1492,1652.29548667,54730161.3517,70921029.9693,4224.64306314,4217.4831882,0.0
1.2490861582,0.842122705448,9.65889063782e-06,19234866.8258,3.09154370515e-05,0.0,20837037.9196,691.17369449,660.153761347,64735416.5572,1939.42991932,63391754.0233,65262038.4721,5184.95664269,5172.50044834,0.0
1.02630126216,1.08764340311,1.00441235541e-05,-65426219.4379,1.2992790831e-05,0.0,5867759.25085,677.875146588,645.990959746,67081665.8541,1660.97593119,46213004.3343,70962745.0203,4260.17653923,4251.77523184,0.0
1.17618668978,0.958028643558,1.01798037099e-05,2717489.93021,2.27003894395e-05,0.0,5388355.33654,686.231713042,655.596142354,65700185.6859,1853.34929734,51233143.6985,66909374.0206,4882.35094928,4871.29188066,0.0
1.15572706903,1.02699269439,9.9558474616e-06,-4005563.24034,1.97828520443e-05,0.0,5478112.53927,684.937977894,654.211174555,65995928.9585,1827.92022099,47603123.0729,67891980.6669,4797.42306354,4786.53640049,0.0
1.06889159729,0.887968094657,1.01696633194e-05,-33395071.1302,1.61512143537e-05,0.0,5788851.99683,679.675640281,648.699845485,66893359.7619,1719.01093017,34869793.5195,69727617.1569,4436.96902035,4428.46800901,0.0
1.13768885132,0.956576009595,1.00707761197e-05,-10051913.2609,2.06656507106e-05,0.0,5551530.77763,683.963189257,653.172394207,66210203.7949,1806.88524964,44364988.1202,67892272.4613,4722.54642183,4712.42524471,0.0
1.13418781605,1.03608264138,1.00107009627e-05,-10505393.5293,1.94271879507e-05,0.0,5627213.2655,683.654334811,652.967570043,66471161.6213,1804.29647076,44264111.544,67859700.713,4708.01362442,4698.78937711,0.0
1.18665464132,1.03313094142,1.01241787003e-05,5322216.94167,2.20920114151e-05,0.0,6915073.43385,686.803389773,656.251480079,65729314.1087,1866.96118484,52901361.4262,66836358.6167,4925.80341612,4914.98801334,0.0
1.04604072878,1.06301224334,9.73890976696e-06,-50409159.8471,1.35646930164e-05,0.0,5824911.68417,678.890475803,647.254002802,66975392.5786,1686.49379344,37741202.9822,70976676.8379,4342.11506517,4333.13194557,0.0
1.24597138724,1.04675284642,1.00382482673e-05,18882656.0563,2.68748430677e-05,0.0,20505169.3668,690.584557685,659.96589537,64884043.9155,1935.61723145,63213853.6214,65862647.625,5172.02722843,5159.89651331,0.0
0.976606780702,0.934802184595,9.89352128921e-06,-94820144.4574,1.41613065306e-05,0.0,6030127.43028,681.927990108,642.845543814,67480913.8144,1614.1517278,69753699.9928,69990454.6654,4053.89474669,4047.22569478,0.0
1.10175405578,0.873969717395,1.01808356271e-05,-21747413.0292,1.88818288808e-05,0.0,5702492.06227,681.75492695,650.936567243,66668009.9052,1762.72704868,37599575.0504,68524951.4372,4573.38108554,4564.55726672,0.0
1.04657183353,0.793216524306,9.9076483994e-06,-47315167.8419,1.59937959693e-05,0.0,5817929.00306,678.833707994,647.284960465,66951457.27,1688.2002037,36628066.4095,70468014.0502,4344.31968098,4335.64653035,0.0
1.02935069634,1.00759781496,9.65545333169e-06,-63668808.4021,1.35493934184e-05,0.0,5926248.01215,678.261988523,646.201600088,67271215.6203,1667.74138274,45082074.2348,71019437.043,4272.83474051,4265.50931551,0.0
1.13908185756,0.894563344418,9.65599280655e-06,-10277002.7088,2.13607905583e-05,0.0,5596101.92246,684.286790855,653.271946438,66370345.7067,1810.17525343,44312287.3112,67901455.7727,4728.32879073,4718.6852786,0.0
1.07631718017,0.882157531648,1.01054921291e-05,-30541081.6011,1.66731966702e-05,0.0,5767112.29923,680.290474726,649.269607047,66840580.3424,1728.78240302,35338651.2436,69281533.8877,4467.79261489,4459.17632493,0.0
1.05630114511,0.957715649137,1.00277770992e-05,-40602302.5866,1.45833900868e-05,0.0,5829609.12417,679.081195178,647.883215594,67003313.8894,1702.50359522,34933051.9555,70001515.814,4384.70605335,4376.40123073,0.0
1.23077554292,0.961254008443,9.51834396244e-06,14835929.104,2.61886796261e-05,0.0,16198287.6242,690.009598131,659.063298958,65145037.0767,1919.06473053,59975172.9194,66713199.5373,5108.94927866,5097.00197027,0.0
0.999999998324,0.894816505791,9.68730489372e-06,-95915459.9942,1.43288020319e-05,0.0,5988951.84791,678.884511909,644.352336363,67391759.0893,1628.24116031,70718166.5288,70985267.4522,4150.99999304,4144.09001764,0.0
1.17620185201,0.671116295261,1.0141479523e-05,2972088.62777,2.89054162603e-05,0.0,5355885.60738,686.478402084,655.599805699,65607005.9406,1854.06136383,51531926.3531,66826552.7016,4882.41388769,4871.46161053,0.0
1.10671406582,1.16793061865,1.03449426484e-05,-17718163.9319,1.53591074141e-05,0.0,5677160.98771,681.736886987,651.202089532,66582935.8223,1767.12758993,39785274.6654,68955608.3798,4593.97008722,4584.58443953,0.0
1.01710734213,0.917497072867,9.79757266386e-06,-77188847.5283,1.40844147184e-05,0.0,5947734.76702,677.931419405,645.433650609,67306759.0028,1651.46260148,54948136.8413,70890715.8645,4222.01257718,4214.86169213,0.0
1.17028767384,0.945788705532,9.80487956768e-06,855720.365851,2.19420950825e-05,0.0,5430770.49727,686.105054726,655.256952482,65853172.3731,1846.32318981,50496457.3345,67668705.233,4857.86413411,4846.91216243,0.0
0.992510994519,0.989965097252,9.54666298605e-06,-95414663.3951,1.36581925289e-05,0.0,5940673.36046,680.303357465,643.850384601,67218070.118,1615.61582731,70277389.4585,70523597.0734,4119.91313825,4111.64904664,0.0
1.19200024428,0.857931200495,1.05777657326e-05,7519937.83714,2.64540725839e-05,0.0,8907940.31265,687.055866786,656.61420127,65404884.9626,1872.53270205,53892348.2404,66374400.0562,4947.99301401,4936.86908698,0.0
1.15072602631,0.997159268822,9.89770382233e-06,-7249058.35726,2.14741312124e-05,0.0,5579461.866,684.759535198,654.006851212,66333403.7366,1825.99609066,45989665.7246,68722612.9989,4776.66373521,4767.25123263,0.0
1.04680168462,1.17052987673,1.02130272147e-05,-47035298.2572,1.25443722973e-05,0.0,5826130.58335,678.492280746,647.295182525,66985888.8436,1688.36570126,36402987.0362,70241496.8694,4345.27379286,4336.54123291,0.0
1.09222826986,0.826768597862,9.96699990656e-06,-25400576.6544,1.84682403071e-05,0.0,5736088.61743,681.287186277,650.259146789,66764689.5571,1750.34835523,36397113.2766,69190393.9985,4533.83954819,4525.16612039,0.0
0.936274159233,0.989159595772,9.61747101444e-06,-93021217.7603,1.36106389414e-05,0.0,6121364.16744,688.880176209,640.244904311,67689350.7821,1609.97107038,68170027.026,68381259.4955,3886.47403498,3880.11718328,0.0
1.11378760229,1.07607517036,9.60856142866e-06,-17461477.8351,1.6332380239e-05,0.0,5684469.28319,682.702050759,651.655969765,66615233.6381,1776.91242374,40077706.5622,69196681.2209,4623.33233711,4613.82837776,0.0
1.04170051054,0.881883854415,1.03415049398e-05,-49011770.2065,1.50963905627e-05,0.0,5814712.94983,678.258807695,646.971212781,66942685.5843,1681.79582171,37067395.2855,70889126.4313,4324.09881925,4315.44805369,0.0
1.02627433781,1.11985510322,1.00354215436e-05,-65522000.3198,1.27148849572e-05,0.0,5870008.83669,677.870177805,645.988862434,67088377.843,1660.91747383,46281304.9454,70981853.9529,4260.06477625,4251.66390187,0.0
1.18670403257,0.947978332039,1.00197416311e-05,5200903.93743,2.35654098741e-05,0.0,6814937.67889,686.92505005,656.254288072,65716580.764,1867.29107813,52862137.2003,66981164.1425,4926.0084392,4915.20576848,0.0
1.25262515622,1.09918830868,1.04030080869e-05,20171456.5182,2.7690984696e-05,0.0,22122797.1884,690.85142029,660.354441267,64583188.7297,1941.13977143,64219135.2466,65045703.3974,5199.64702347,5186.85132472,0.0
1.11947182673,0.686728304081,1.00976544233e-05,-14319232.6595,2.31169059001e-05,0.0,5596533.28462,682.898121849,651.959370982,66345125.8244,1783.96645254,41682179.695,67945613.704,4646.92755276,4637.22915997,0.0
1.13046769238,1.04843002484,9.99829687145e-06,-11730248.7535,1.85404835042e-05,0.0,5598224.97168,683.376704904,652.622531382,66369237.4236,1797.67940149,43320993.9433,67458998.8287,4692.57139107,4682.6883317,0.0
1.03373839124,0.879168155837,1.02144156664e-05,-56033724.2013,1.48061268369e-05,0.0,5837816.695,678.03056514,646.467667693,67002173.2012,1671.21496272,40411939.7774,70837233.3154,4291.04806204,4282.52767728,0.0
1.08768257628,0.961878962796,1.03611112365e-05,-25920300.7028,1.68761616332e-05,0.0,5746766.37148,680.714134624,649.989722456,66788319.2294,1744.62312224,36167420.7528,69135279.0797,4514.97037414,4506.46576056,0.0
1.09113461327,0.746517432538,9.97269747019e-06,-25731650.176,1.95564990721e-05,0.0,5732852.9916,681.270248813,650.200064694,66752982.2339,1748.99051339,36290009.4699,69203562.0994,4529.29977968,4520.64347789,0.0
1.17005485515,1.32230185836,1.00089913149e-05,804929.585881,1.67390521891e-05,0.0,5481412.96397,685.740823409,655.250385805,65992478.7557,1846.39315707,50374590.087,67671741.2899,4856.89770373,4846.26328155,0.0
1.11069213387,0.959835703951,9.70497035436e-06,-18059835.6514,1.77904193125e-05,0.0,5653078.74261,682.547412801,651.459433572,66512313.1468,1771.72718399,39647836.0119,69015898.0469,4610.48304769,4600.64084696,0.0
1.05544193066,1.10426578336,1.01477705424e-05,-40391062.5299,1.32746316786e-05,0.0,5825275.31198,678.865091307,647.832367262,66984252.5979,1700.30922946,34935156.5497,69793780.7588,4381.13945417,4372.69387387,0.0
1.05869143768,0.935593783147,9.44096329949e-06,-42148442.4165,1.47221988073e-05,0.0,5820002.31451,679.699412851,648.035948188,66973597.7776,1704.2679532,35221289.3893,70324883.161,4394.62815781,4385.75699463,0.0
1.13526475119,0.859095506443,1.02274301596e-05,-10889053.5795,2.26957666156e-05,0.0,5604997.61001,683.684420789,653.036511315,66397873.1797,1806.34878751,43795789.1599,67812534.6445,4712.48398219,4703.34481667,0.0
1.20753307993,0.986262017283,1.04845262955e-05,11219857.0401,2.51157048212e-05,0.0,12458001.7452,687.892793195,657.538320223,65340619.8978,1891.0253888,56861877.4024,66467003.4303,5012.46981479,5001.17138022,0.0
0.978651705497,0.779667167257,9.84571247799e-06,-94891204.8482,1.54255472925e-05,0.0,6020115.70279,681.810265944,642.977330184,67453689.3853,1615.09055433,69816449.1731,70054370.4866,4062.38322952,4055.68565767,0.0
1.22346174296,0.938364818631,9.86261810952e-06,13613380.0893,2.64566849549e-05,0.0,14989128.3783,689.378168457,658.583662356,65138580.3006,1909.69339274,58922319.2791,66526358.3423,5078.58969503,5066.64728482,0.0
1.28214030507,0.931363625975,1.00043373701e-05,25328873.9847,3.28081496719e-05,0.0,27013203.6201,692.955909228,662.201165624,64230314.3907,1975.87417327,67682834.8154,68561101.8848,5322.16440635,5309.2034447,0.0
1.11707700833,1.03689114379,1.04047043801e-05,-14937264.329,1.79241378457e-05,0.0,5628153.10367,682.347954068,651.811077494,66432898.1514,1780.87842244,41254557.8429,68722774.4002,4636.98666158,4627.42812747,0.0
1.03574336683,0.94001292705,9.92392994557e-06,-57446429.052,1.43982927434e-05,0.0,5849377.85682,678.354078527,646.597549009,67038025.288,1674.01447548,41181415.4752,71036156.0402,4299.37071571,4290.90394538,0.0
1.20688064073,1.23557749878,1.03845300072e-05,10830923.7205,2.05482935924e-05,0.0,12109235.2968,687.72630924,657.477995595,65458842.5897,1890.01665591,56603110.7224,66821193.4746,5009.76153967,4998.47474669,0.0
1.0252813411,1.08955380401,9.78014008785e-06,-67520283.1892,1.27081515908e-05,0.0,5936158.23893,678.01759891,645.956106512,67293871.499,1662.2946433,47704103.5922,71081998.9773,4255.94284691,4248.67563312,0.0
1.24012179529,1.04138518611,9.93523286547e-06,17533623.0938,2.59948379237e-05,0.0,19003516.6116,690.281545644,659.623416136,64988932.3281,1928.86934518,62130216.5334,67047815.5242,5147.74557225,5135.68650263,0.0
1.0150123171,0.888417845219,1.00828153048e-05,-77112833.7849,1.43225819248e-05,0.0,5934140.81459,677.611254591,645.296566759,67255767.1104,1648.36569457,54878241.3375,70926883.8621,4213.31612828,4206.10655111,0.0
1.06991605402,0.804209401662,9.92500911698e-06,-33831354.0919,1.70667712902e-05,0.0,5790514.42425,679.958368613,648.778079778,66896118.1741,1720.4211807,34841562.8157,69882033.6626,4441.22154024,4432.70445834,0.0
1.07013814172,0.715189307307,1.03114945718e-05,-32605439.088,1.84670553879e-05,0.0,5773122.19854,679.678603051,648.747230865,66854816.538,1721.10801389,34904418.153,69510767.99,4442.14342628,4433.71715568,0.0
1.24102670682,0.932788957771,1.02532660542e-05,18094690.065,2.92400293594e-05,0.0,19751400.858,690.25766002,659.654885618,64835317.5923,1929.46279386,62511657.3443,65843779.405,5151.50186001,5139.37484668,0.0
1.14018370361,0.900015255778,9.81239371206e-06,-8929461.29199,2.15326892634e-05,0.0,5584321.75912,684.223005774,653.331293603,66339598.2307,1811.24543626,45300826.5177,68153205.6463,4732.90255369,4723.24395375,0.0
1.07040067063,0.873469982533,9.37478902062e-06,-35011685.3742,1.56926513829e-05,0.0,5819632.85048,680.358759876,648.816467652,66987165.1396,1721.02712128,34760732.7629,70384185.9077,4443.23318379,4434.70973072,0.0
1.17505162339,0.99384946221,1.0020877467e-05,2182732.61262,2.17634541861e-05,0.0,5406146.17662,686.231687466,655.533293079,65771388.7704,1852.06253914,51031852.9775,66997547.2511,4877.63928869,4866.60062398,0.0
1.03600225334,0.90629487506,9.72441509042e-06,-57766519.0519,1.46262925004e-05,0.0,5901772.68432,678.463858473,646.636050613,67207153.5371,1676.68083725,41488187.5597,71159612.5019,4300.44535361,4293.02579174,0.0
1.12018479181,1.02195307995,1.01326218826e-05,-14219681.0751,1.81680513345e-05,0.0,5625749.1971,682.719630236,652.006153479,66437590.1992,1784.49237635,41845033.7046,68498146.5094,4649.8870708,4640.17760251,0.0
1.03727756012,0.966133038884,9.94472151107e-06,-55965997.9546,1.4211728106e-05,0.0,5846586.10534,678.392496553,646.701979321,67033301.0665,1676.03194101,40377215.869,71076627.2547,4305.73915206,4297.24908893,0.0
1.24615926521,1.07413700865,9.53482276073e-06,18320607.5417,2.54018485769e-05,0.0,19866675.7482,690.868387588,659.979863294,64906686.8571,1935.85011868,62719572.1272,67191379.1842,5172.80710989,5160.34516191,0.0
1.07038873648,1.12545512575,9.46396231614e-06,-34156684.3151,1.29717728704e-05,0.0,5798871.97685,680.214430555,648.799375692,66913106.1191,1718.97053034,34778512.7077,70250380.5053,4443.18364513,4433.93867923,0.0
1.0239798249,1.06438613109,9.85814654147e-06,-68334508.1033,1.29075880606e-05,0.0,5935075.71565,677.920046622,645.875594028,67287976.3726,1660.59132105,48279326.7763,71015722.2288,4250.54025316,4243.29161552,0.0
1.19642526531,0.934507345395,9.72548051415e-06,6537788.49287,2.41757874814e-05,0.0,8076868.28159,687.844299404,656.89289806,65466843.806,1877.60611975,53628035.8929,66655243.6498,4966.3612763,4954.6225967,0.0
1.16682752104,1.09407053367,1.00014133653e-05,-958662.105187,2.11058259875e-05,0.0,5517927.60229,685.686933704,655.065862252,66132747.7288,1845.19388703,49442712.1817,67919526.4369,4843.50103984,4833.70809408,0.0
1.05524021674,0.8682485607,1.00542343162e-05,-41942237.4201,1.56926872446e-05,0.0,5840271.71189,679.01303826,647.824084342,67045634.7364,1701.92966678,35197937.0303,70103841.1552,4380.30213969,4372.41466402,0.0
1.2315531408,0.821376698142,1.03904843698e-05,16023433.2995,3.10855399539e-05,0.0,17598355.0596,689.623666212,659.080950093,64990940.3614,1919.77632079,60910511.6522,66661935.1086,5112.17708746,5100.56883868,0.0
1.16563622789,0.915377931457,1.0236925923e-05,757468.209769,2.26880030972e-05,0.0,5447507.75021,685.537310373,654.967341918,65875033.0511,1841.02469472,50276051.0906,67527564.1399,4838.55598197,4828.02107961,0.0
1.01330746064,0.911140628607,1.01926557017e-05,-80390842.4937,1.45108913233e-05,0.0,5862085.25427,677.628125196,645.157333045,67020731.2504,1642.74630639,57491287.0941,70805316.8827,4206.23926912,4197.71346004,0.0
0.972103034773,0.946034623325,9.74120088287e-06,-94537197.9862,1.40645833865e-05,0.0,6035401.31093,683.244072932,642.553335724,67487423.7628,1615.59410058,69504645.2473,69737895.3958,4035.19969734,4028.34139258,0.0
0.995340403694,0.980388369947,1.00504084129e-05,-95396722.5807,1.37677099244e-05,0.0,5915956.34485,678.832757449,644.027244799,67155898.6388,1618.67581287,70261642.5843,70559398.3194,4131.65801573,4123.42530814,0.0
1.15016345478,0.805814956996,9.62633923565e-06,-6705875.57775,2.42848148074e-05,0.0,5571869.17168,684.96345999,653.960470583,66316403.8228,1825.07917844,46609414.7727,68728215.9473,4774.32850079,4764.83416288,0.0
1.1649201976,1.05526208854,1.02373878521e-05,-2146815.38456,2.20621981009e-05,0.0,5400639.78582,685.598267737,654.907391762,65752975.1036,1839.25591496,48287094.7642,67682829.0685,4835.58374024,4824.3451687,0.0
1.15874977723,0.727132419883,9.85143184657e-06,-3235077.08362,2.51482231956e-05,0.0,5437298.43281,685.594293034,654.54244038,65873508.3136,1832.48669476,48017599.6574,68036521.594,4809.97032528,4799.11887052,0.0
1.09918179775,0.761592887138,1.00327242851e-05,-22894388.9651,2.01058164842e-05,0.0,5707468.86982,681.751403729,650.767732203,66673496.2151,1759.48682432,37145513.3371,68797690.0801,4562.70364246,4553.92100327,0.0
1.11177788866,0.828553737086,9.96938072362e-06,-18772352.8592,2.02067104796e-05,0.0,5679373.72392,682.468781953,651.53513707,66610322.9466,1775.7566287,39156990.0571,68990777.0308,4614.99001583,4606.00184109,0.0
0.994495023104,0.75414002856,9.99182834548e-06,-95333413.7567,1.55307159404e-05,0.0,5908382.20755,679.144738595,643.973664674,67130293.045,1617.66504085,70205883.9777,70460066.7781,4128.1488409,4119.92983198,0.0
1.05008104408,1.13651091071,9.69817130557e-06,-45776468.3223,1.24819447094e-05,0.0,5843978.58541,679.006836248,647.502759795,67034334.2366,1692.69651997,36104568.0008,70678481.8827,4358.88641398,4350.15730775,0.0
1.14184380932,0.884464805442,1.04845531317e-05,-5077824.95339,2.12365161945e-05,0.0,5516181.51653,683.855250296,653.416029447,66079052.8978,1811.06788802,47215627.5444,68237571.1426,4739.79365249,4729.56864366,0.0
1.11979120287,0.87933122043,1.02819761841e-05,-14453185.9876,2.01986234939e-05,0.0,5611228.4214,682.686862905,651.990206354,66383083.8256,1784.52773849,41527960.1453,68441862.425,4648.25328311,4638.64860898,0.0
1.15338573882,0.831831398912,9.7901426699e-06,-5003297.81696,2.39212807868e-05,0.0,5525083.92964,685.118967158,654.183942996,66170094.8286,1827.83904396,47414822.4641,68646071.5741,4787.70420184,4777.7334537,0.0
1.14041813357,0.938742786358,1.00017856908e-05,-8247826.34263,2.14535972634e-05,0.0,5588862.1731,684.038908509,653.320387245,66345356.8562,1811.73452788,45709571.1367,68301320.1227,4733.87567245,4724.41546678,0.0
1.07419999379,1.07717955934,1.02216854982e-05,-31341905.6602,1.44334983445e-05,0.0,5800031.20899,679.955687901,649.141307635,66942816.5036,1726.68335928,35151922.5277,69335211.2956,4459.00417422,4450.81152769,0.0
1.1953940516,0.921024830927,1.03509991638e-05,7859378.19759,2.50512399135e-05,0.0,9243971.56817,687.343523484,656.82724027,65459202.2694,1876.78448853,54243940.709,66523266.7517,4962.08070819,4950.90990923,0.0
1.11872011722,1.12790319923,1.04650570971e-05,-14403608.1783,1.69090071882e-05,0.0,5627385.66391,682.374036225,651.920275747,66434831.7913,1782.85216939,41543106.8893,68364320.1069,4643.80720658,4634.22130767,0.0
1.15857313606,0.8131438622,1.02817817498e-05,-2075203.82257,2.40726779816e-05,0.0,5467918.02896,685.175397816,654.530658752,65934194.8177,1833.07533824,48562388.3767,67831952.9863,4809.23708779,4798.91898118,0.0
1.09103610885,1.00723778001,9.84527293761e-06,-26226066.0735,1.6143406987e-05,0.0,5757780.19657,681.254173994,650.211240114,66827731.5908,1748.65297889,36258164.6754,69340533.7593,4528.89088784,4520.23612788,0.0
1.2539990344,0.972842227611,9.87453353393e-06,20153182.5312,2.92053016171e-05,0.0,21896130.8364,691.291246216,660.443941438,64638186.512,1944.1737952,64192031.2561,65054880.019,5205.34999179,5192.63548532,0.0
1.16184824801,1.15558525256,9.85005786236e-06,-2664630.00528,1.80994627888e-05,0.0,5476785.5231,685.482698117,654.73429478,65998527.9224,1835.7141447,48386489.4785,67833492.3042,4822.83207749,4811.92525663,0.0
1.09409644439,0.956383992388,1.01416781375e-05,-24285540.718,1.71850376698e-05,0.0,5732680.46898,681.236420904,650.394517597,66744306.1621,1752.65319058,36670288.4454,69004155.2457,4541.59434066,4532.89162637,0.0
1.0447568531,1.05936774348,1.05260702475e-05,-45315670.8333,1.32990581668e-05,0.0,5825298.44794,678.124967072,647.163211609,66977064.3368,1686.25832202,35911206.0644,70263000.8213,4336.78569722,4328.31925988,0.0
1.21904777345,0.854230336456,9.84907796628e-06,12407150.0562,2.77791323193e-05,0.0,13660354.3953,689.202506331,658.294329226,65110759.7405,1904.50014054,57934776.9716,66250929.7815,5060.26730759,5048.21383475,0.0
1.13633886647,0.871134196503,1.04774833662e-05,-10027193.3395,2.28873771179e-05,0.0,5590450.43708,683.558641172,653.081168979,66359990.9683,1807.61392296,44132799.1106,67907345.7705,4716.94263472,4707.78644507,0.0
1.10279026045,0.981953844868,9.98662257392e-06,-21754619.7504,1.74328274954e-05,0.0,5718872.09153,681.898868321,651.005924057,66713388.4577,1764.141742,37681289.2654,68577094.7363,4577.68237113,4568.84272512,0.0
1.13495339365,0.936028753254,9.77954763739e-06,-10976781.373,2.05096623997e-05,0.0,5600413.93018,683.955326363,653.007959808,66373883.9337,1804.48764955,43870425.9978,67667393.5361,4711.19153704,4701.51162517,0.0
1.17086360102,1.06592461234,1.04065112932e-05,2256391.98769,2.05640516773e-05,0.0,5420565.91598,685.664659861,655.270726436,65785436.7621,1846.57431416,50888756.1509,67053744.5973,4860.25480783,4849.42594278,0.0
1.22155202321,0.920156015611,1.03724953875e-05,14015384.6269,2.7587679619e-05,0.0,15214302.393,688.807500896,658.381227154,65186378.4729,1907.89543713,59233872.7224,66577335.6488,5070.66244834,5059.21544352,0.0
1.25723764117,0.936383119334,9.98462617239e-06,21011545.788,3.06163993665e-05,0.0,22835650.7944,691.457319348,660.662131281,64613206.0476,1948.18932407,64828677.2623,65638469.4896,5218.7934485,5206.24833201,0.0
1.02585998567,0.900264702924,9.89242900462e-06,-65634460.9006,1.43912632127e-05,0.0,5920724.67653,677.973502081,645.985102271,67249324.3519,1663.19075842,46386789.3696,70980974.7117,4258.34480052,4251.06932141,0.0
1.01311349196,1.12845233446,9.6455559274e-06,-83620140.8989,1.2245985758e-05,0.0,5974627.27897,678.049993219,645.186305906,67365375.4822,1645.92918304,60172856.3086,71307979.5229,4205.43410513,4198.33976729,0.0
0.997587366945,0.882617877618,9.85123819147e-06,-95478553.9171,1.48868776275e-05,0.0,5913724.0431,679.2445298,644.174467298,67152229.4531,1621.81184931,70333754.5059,70555837.5626,4140.98516019,4132.79930896,0.0
0.930544724775,1.08947244699,9.85416036177e-06,-92797634.6932,1.23238605245e-05,0.0,6148259.71125,688.75321147,639.879939509,67771583.7347,1605.71364244,67973164.4748,68183404.3529,3862.69115254,3856.71717881,0.0
0.946287787139,1.00636208745,1.0098306087e-05,-93351143.2603,1.3318892144e-05,0.0,6096924.76732,686.102206621,640.892523335,67650451.7824,1608.45525048,68460538.8703,68678234.3628,3928.04060441,3921.85848082,0.0
1.11229632559,0.900903685074,1.01250156621e-05,-16653087.9255,1.90326948453e-05,0.0,5622924.35706,682.355116305,651.521982207,66416674.4542,1773.75218006,40419050.3108,69159050.7767,4617.14204752,4607.2714705,0.0
1.17745599122,0.890729228396,9.49674167874e-06,2351682.40831,2.32349621546e-05,0.0,5386799.97808,686.787111728,655.689174462,65725120.2457,1854.62805316,51421599.3267,67016624.5788,4887.61981955,4876.23292209,0.0
0.978656829851,0.993242319634,9.58385952599e-06,-94848031.2673,1.38609390003e-05,0.0,6027941.26093,682.723732225,642.975843383,67472720.4681,1618.57323808,69778220.448,70015330.6748,4062.40450071,4055.45239435,0.0
1.1041028798,0.761735058125,9.57871776752e-06,-22217068.7973,2.00184498483e-05,0.0,5709034.08227,682.367433529,651.089367606,66688122.6278,1765.76318658,37564025.5541,68620732.6868,4583.13105405,4574.16949016,0.0
0.962911685574,0.893644959855,1.01475931014e-05,-93906542.8984,1.45601211929e-05,0.0,6034827.73948,684.034030595,641.957983481,67486015.8922,1613.09323053,68949596.308,69175353.1421,3997.04640682,3990.34845676,0.0
1.02000673226,0.860703398929,1.0156585996e-05,-70297260.348,1.48192364574e-05,0.0,5864998.1977,677.715784438,645.598070098,67058917.8205,1652.73199024,49662718.441,70888285.6272,4234.04794561,4225.74762101,0.0
1.0654157061,1.00830977843,9.57516502013e-06,-37508989.2492,1.41037886965e-05,0.0,5831575.49393,679.906338825,648.494449076,67018898.4298,1714.58399072,34705895.5961,70228169.1214,4422.54059602,4414.09477703,0.0
1.05263577956,1.0232077109,1.03144561053e-05,-42343731.6678,1.40447010927e-05,0.0,5816269.45146,678.690762893,647.652600606,66966015.4893,1697.01780587,35185575.0243,70404477.4348,4369.49112095,4360.99049772,0.0
1.08284193175,1.08629795329,9.64613392166e-06,-29699007.8033,1.44589818859e-05,0.0,5798056.27313,680.728054713,649.578403444,66947581.5584,1737.85492321,35659689.3847,69458047.8393,4494.87685869,4486.34996398,0.0
1.05982190425,0.877285226429,1.00257758826e-05,-39804457.4976,1.57289615945e-05,0.0,5797026.43065,679.356832449,648.122829674,66912393.1741,1706.39016372,34846096.8457,69730473.1427,4399.32072454,4390.61265847,0.0
1.09440027282,0.806825651467,1.03905007578e-05,-23052561.8976,1.91649267617e-05,0.0,5693348.32429,681.195778647,650.441746565,66627233.4871,1752.30995038,37031482.225,68936643.8794,4542.85553248,4533.85481359,0.0
1.06220797089,0.88083246085,1.00386599437e-05,-37735210.1718,1.56858134117e-05,0.0,5810434.4602,679.439028629,648.284805917,66955681.1751,1710.43198326,34655746.5396,70003669.1966,4409.22528716,4400.828519,0.0
1.16112292585,1.19579399803,9.97965146762e-06,-2637403.07198,1.76115218551e-05,0.0,5478363.26518,685.333680753,654.687057199,66007571.1297,1834.73102656,48298234.1501,67773423.1966,4819.8212652,4808.95312269,0.0
1.0508346077,0.90411395729,9.97885214042e-06,-44813727.3409,1.51127985664e-05,0.0,5811942.52659,678.940704119,647.55850185,66943335.4868,1693.80318013,35796247.5454,70493007.2715,4362.01445656,4353.27336338,0.0
1.17573483063,0.872959843502,1.04189133319e-05,3153954.34591,2.46386146515e-05,0.0,5341910.10268,686.136927532,655.54483178,65521397.1553,1851.86122936,51370619.1334,66840368.9226,4880.47528195,4869.13915128,0.0
1.11442445452,0.87166670026,1.01551375242e-05,-15886134.1712,1.9637087637e-05,0.0,5636972.11746,682.407279488,651.636531534,66468926.1946,1777.42584896,40783371.4974,69357570.7835,4625.97591071,4616.46096103,0.0
0.994912906809,1.17062235401,9.92034215756e-06,-95453305.2257,1.20064256622e-05,0.0,5934728.97202,679.08774011,644.00136928,67211120.683,1617.92079034,70311343.4484,70559449.1738,4129.88347616,4121.65769694,0.0
0.974029040342,0.923780849105,9.37319640042e-06,-94612689.1769,1.45416407613e-05,0.0,6001634.49764,683.950945099,642.668444366,67375380.9697,1617.05233999,69571202.3893,69807069.3416,4043.19454646,4035.53808642,0.0
1.15853122733,0.761841686937,1.01016716185e-05,-2647514.26056,2.47906633091e-05,0.0,5471857.48441,685.320889908,654.534491808,65980324.4112,1833.36546625,48396073.4895,67983555.5823,4809.06312465,4798.74596966,0.0
1.2041735079,0.9810541546,1.00064795068e-05,9490849.77617,2.43367748879e-05,0.0,10828877.0101,688.050842269,657.328231608,65300988.9718,1886.10219583,55604417.1853,66829207.3855,4998.52423129,4986.6426056,0.0
1.00744454231,0.758014159011,9.56792303607e-06,-91420069.9874,1.55078151887e-05,0.0,5906984.89941,678.64124391,644.806473873,67130902.1021,1635.34768122,66787856.7054,70952692.7224,4181.90229513,4173.68958927,0.0
1.03716930452,0.800172574677,9.86686310937e-06,-56645594.4211,1.57468174724e-05,0.0,5839677.04626,678.520095388,646.692687787,67009853.2459,1675.97740423,40752456.4877,71009040.5261,4305.28978306,4296.80146097,0.0
1.02421499682,1.18532697948,1.01624739068e-05,-64747699.3494,1.19962113003e-05,0.0,5921733.63341,677.577076491,645.878052884,67249493.5317,1660.47579199,45772929.1879,70912321.0569,4251.5164518,4244.17474447,0.0
1.09933419287,0.887072012918,9.84575084311e-06,-23218515.5434,1.81394040139e-05,0.0,5728135.62606,681.810675331,650.765123167,66746937.5071,1759.73160704,37114410.3141,69207282.7073,4563.3362346,4554.55108388,0.0
1.06645015386,0.983065613873,1.02793168553e-05,-35264102.238,1.5081179256e-05,0.0,5800080.15516,679.460156655,648.563648397,66930050.6823,1716.2599077,34659347.3306,69885535.8766,4426.83458867,4418.46535117,0.0
1.04992652599,0.945259683414,1.01213526616e-05,-44633693.573,1.47258306368e-05,0.0,5811121.16647,678.764556727,647.497846384,66941503.2924,1692.59335901,35701679.7729,70442393.4403,4358.24500938,4349.51870372,0.0
1.01569432131,0.797227350945,1.04018678098e-05,-72791569.5233,1.51998970383e-05,0.0,5865037.82869,677.43945981,645.322285889,67050481.9582,1647.21024948,51550945.1232,70492957.4542,4216.14712776,4208.0002949,0.0
1.24883071205,1.00936528735,1.02994109396e-05,19622294.3532,2.86263622397e-05,0.0,21438139.8679,690.692613487,660.122943474,64687173.2077,1937.5148412,63761442.1325,64687173.2077,5183.89628572,5171.39685319,0.0
1.12279060657,1.08712840048,9.7522770777e-06,-14357001.6014,1.69189227263e-05,0.0,5613311.09336,683.128385531,652.164609997,66400129.3239,1786.82673096,41677232.7686,68555077.1886,4660.70380787,4650.47475914,0.0
1.10957359184,1.02181173139,9.99605242896e-06,-17507066.2552,1.71970494025e-05,0.0,5643283.70922,682.253766543,651.375103281,66481248.6556,1769.93719432,39899143.8604,68996596.0581,4605.83997973,4595.91977583,0.0
1.0544497457,0.929646251502,9.8802547309e-06,-44471074.4675,1.5085557716e-05,0.0,5800847.10651,679.220513935,647.776047026,66916014.0228,1698.40689724,35645537.2722,70349514.4591,4377.0208944,4368.07238917,0.0
1.20041416807,0.943457319981,9.66336005244e-06,8663581.84863,2.41379416453e-05,0.0,10114916.6892,688.019623209,657.158454636,65579230.9793,1883.47002028,55210703.294,66847334.3428,4982.91921166,4971.73395718,0.0
1.00565412537,1.05556621521,9.89808338985e-06,-90293683.3537,1.27461781106e-05,0.0,5978897.97414,677.893609663,644.708743104,67370321.439,1635.97708614,65815834.3493,70933264.3472,4174.47027441,4167.48103621,0.0
1.14886505387,0.981518299788,1.015506571e-05,-6159123.0024,2.18744243482e-05,0.0,5571255.0536,684.489657446,653.904557282,66291278.3753,1823.23964551,46625057.0868,68756399.3565,4768.93883861,4759.56077688,0.0
1.06784212893,0.71705245437,9.64326643245e-06,-36026594.4859,1.78013401263e-05,0.0,5812269.237,680.089240945,648.653966546,66963031.4707,1718.45530302,34674353.0013,70309714.6823,4432.61267719,4424.31781793,0.0
1.10315756184,1.12741175956,9.76729279233e-06,-20656194.699,1.52186964665e-05,0.0,5666959.44917,682.034705375,651.004484248,66540210.3447,1761.05280039,38509084.3471,68547197.2219,4579.2070392,4569.11557943,0.0
1.1714594011,0.809803323774,1.01061523237e-05,1545266.98206,2.51147399848e-05,0.0,5416885.45231,686.063468837,655.324528952,65798243.9285,1848.68532995,50642389.1577,67299228.0376,4862.72797397,4852.06906939,0.0
1.00399819419,1.0118047083,9.86123509979e-06,-92629395.6677,1.31421353664e-05,0.0,5981880.37909,678.042613763,644.600418835,67376850.5681,1633.7614044,67830483.6363,70953813.5004,4167.59650408,4160.63050622,0.0
1.09291427951,1.14911131656,1.00985084986e-05,-24865620.3827,1.47114203848e-05,0.0,5751740.65031,681.090617665,650.301179524,66817024.4743,1750.95623693,36533740.6885,69123805.0395,4536.68717425,4528.00299689,0.0
0.980180893075,0.950408592609,1.01058996078e-05,-94792195.1097,1.39330449668e-05,0.0,6000915.25649,681.074742308,643.069963432,67404094.9837,1613.67656807,69729284.2943,69966925.4762,4068.73088715,4061.75712845,0.0
1.16102139776,0.833079681461,1.01466313481e-05,-3437853.7904,2.58048568691e-05,0.0,5512081.52244,685.416401312,654.708774948,66140481.2302,1838.87223753,47806694.7247,68206401.9798,4819.3998221,4809.8212662,0.0
1.18105363264,1.03220154501,9.72850699031e-06,3424740.63221,2.11429427949e-05,0.0,5593651.17012,686.699901264,655.910790222,65860413.5809,1860.27761741,51983190.3516,67127845.346,4902.55362909,4891.74169018,0.0
1.03861213269,0.943757708181,1.0305379596e-05,-51897112.4479,1.42584653681e-05,0.0,5836173.10185,678.125915968,646.781122047,67007071.9849,1678.19223781,38306091.0098,70783154.0718,4311.2789628,4302.85510759,0.0
1.0534508226,0.971566465211,9.84725295411e-06,-45149551.4366,1.46026476273e-05,0.0,5807548.63322,679.18548763,647.720575484,66933850.862,1697.03890576,35853432.3636,70473199.1867,4372.87436461,4363.9423999,0.0
1.05599508014,1.14871275811,1.03912622268e-05,-39635328.696,1.28759684757e-05,0.0,5830997.26695,678.729024167,647.875864866,67007115.9475,1702.27584694,34798647.6953,69641136.8197,4383.43557766,4375.22929237,0.0
1.0112081308,1.0287727751,9.77002236427e-06,-84720349.0357,1.30728236164e-05,0.0,5969156.561,677.93335297,645.058066013,67347932.0551,1643.45346166,61086339.3346,70929418.7576,4197.52495095,4190.45752271,0.0
1.11023380683,0.971036304398,1.00464371904e-05,-17416889.5267,1.80272819574e-05,0.0,5683491.28455,682.222828137,651.430095618,66602874.6617,1772.86589335,40059533.8293,69056498.9385,4608.58053215,4599.43275084,0.0
1.13551997359,0.94487921981,9.72820417667e-06,-10915169.1433,2.03808833603e-05,0.0,5601759.3186,684.017826323,653.044099395,66377698.9243,1805.22410835,43893825.2976,67700600.8934,4713.54341037,4703.85408812,0.0
1.0853016154,0.854640531247,9.89426048273e-06,-28001364.1038,1.74964822693e-05,0.0,5761023.56281,680.993277856,649.876484541,66830149.991,1741.26591414,35852397.3387,69321282.9889,4505.08700553,4496.52181082,0.0
1.04827129825,0.622183625241,1.01019382825e-05,-46946220.6465,1.81743943019e-05,0.0,5792346.9305,678.886613553,647.390308714,66888197.7064,1690.90890303,36383620.4363,70176227.7423,4351.37415904,4342.70653632,0.0
1.03656346543,1.1508917135,9.60461442148e-06,-58095040.5751,1.23988728269e-05,0.0,5914874.61861,678.618348245,646.748154777,67246736.6595,1677.25586594,41676231.0326,71248075.9047,4302.774945,4295.34729649,0.0
1.03363318591,1.05249049161,1.01165161558e-05,-56913082.7396,1.32255782264e-05,0.0,5852296.65597,678.042031543,646.459046394,67044893.5943,1670.94977147,40876910.3165,70980878.4855,4290.61135471,4282.09147752,0.0
0.972594641675,0.827696207945,9.98584818455e-06,-94353243.3814,1.52458332234e-05,0.0,5981327.93965,682.820241395,642.573347205,67323949.9388,1613.07781122,69342888.1776,69574907.6904,4037.24035759,4029.76373958,0.0
1.07845085175,0.945573064705,9.90277618874e-06,-30580962.8291,1.59507006384e-05,0.0,5789448.2485,680.345162166,649.284909975,66918359.5275,1732.2105689,35402119.6999,69352108.0638,4476.64948561,4468.19078973,0.0
1.18740393227,0.944420235669,1.0043721878e-05,5389651.42368,2.37168596699e-05,0.0,6994234.44023,686.961239045,656.301408631,65704102.8535,1868.11595043,52972498.952,66950852.6017,4928.91372285,4918.09883846,0.0
1.1203249561,0.808935938717,9.62545781344e-06,-15138451.243,2.0556944983e-05,0.0,5626393.26926,683.182298287,652.011782797,66437649.4295,1785.00166765,41267027.4199,69215959.5141,4650.46889277,4640.65752829,0.0
0.895347493819,1.02027843071,9.90274120544e-06,-91038860.0506,1.25136644912e-05,0.0,6160287.38668,693.12455043,637.594315415,67751801.2631,1592.35782675,66425340.1141,67751801.2631,3716.58744684,3710.00490726,0.0
1.16220436125,0.86246985011,1.03046655707e-05,-323208.114082,2.34712035195e-05,0.0,5458396.37527,685.327530621,654.755953428,65907561.2305,1837.31094699,49549572.8501,67653839.8323,4824.31030355,4813.93208329,0.0
1.02145091353,0.905889367706,1.01724206964e-05,-68117919.6736,1.43030916271e-05,0.0,5914579.98569,677.593564562,645.705342722,67221283.9157,1656.94807738,48101754.885,70807348.2063,4240.04274206,4232.74082797,0.0
1.06842377744,0.935758724185,9.55834410386e-06,-35292961.4921,1.51497542154e-05,0.0,5815492.59546,680.107608437,648.686041103,66969995.4183,1718.10064138,34726898.7687,70359992.2977,4435.02710015,4426.44116726,0.0
1.04803294269,0.803300566368,9.71311460095e-06,-48584271.1994,1.60365824135e-05,0.0,5814316.52442,679.112763144,647.381797991,66946205.1504,1689.9281671,37013306.2529,70724170.3316,4350.38474511,4341.54365853,0.0
1.1741525735,1.11562796146,1.01695307345e-05,2359448.81806,1.9805863053e-05,0.0,5423768.94176,685.991067649,655.477815418,65814782.3978,1850.80213176,51138109.8068,67059774.067,4873.9073326,4862.99145298,0.0
1.20974732651,0.875032311978,1.03458107444e-05,11533843.3062,2.73475122932e-05,0.0,12785036.7098,688.206215186,657.687743541,65290821.9065,1894.0548265,57126753.5001,66315148.4046,5021.66115234,5010.33710653,0.0
1.11579213924,1.11281550755,9.81384828441e-06,-18017010.4006,1.65223488564e-05,0.0,5692702.4914,682.666352077,651.775874228,66646200.8654,1780.60189065,39707109.3601,69217271.0159,4631.65316999,4622.5051981,0.0
1.16448824421,0.96796050627,9.58420289171e-06,-2352041.09647,2.26320384532e-05,0.0,5533074.44171,685.887536148,654.933672836,66205935.4502,1842.70863524,48925342.7401,68429296.3131,4833.79070172,4824.0088578,0.0
0.945887375671,1.10623200482,9.94553603687e-06,-93386637.4493,1.249663372e-05,0.0,6109366.98487,686.552768635,640.86773554,67686426.3791,1609.92935537,68491725.9363,68709123.1315,3926.37849641,3920.20403283,0.0
1.22461405168,1.11799928651,1.01723744591e-05,14150121.2292,2.35420056141e-05,0.0,15498062.4999,689.120473305,658.662529122,65206795.6756,1910.94236832,59402610.3227,66682189.1168,5083.37292852,5071.66203267,0.0
1.13336086368,0.822392829542,9.73867781435e-06,-11439035.565,2.2047577886e-05,0.0,5597936.85661,683.934906124,652.899895284,66379193.9989,1802.57899844,43529994.6756,67537777.0386,4704.58094514,4694.92746413,0.0
1.18256094642,1.08720835659,1.00072905021e-05,4472444.08409,2.06860637068e-05,0.0,6191187.73678,686.563162604,655.98640423,65811536.7798,1861.915432,52454664.5543,67106064.6941,4908.81048859,4898.06891459,0.0
1.08546349759,1.24007356119,1.02214699094e-05,-27002272.9951,1.34030904612e-05,0.0,5771983.85527,680.601838457,649.874085151,66869095.5021,1741.16591798,35958016.1437,69278306.2867,4505.7589785,4497.19126064,0.0
1.18874892346,0.959510625144,9.93059556778e-06,5779851.61787,2.31888891165e-05,0.0,7350747.92124,687.144365734,656.376378575,65592699.3012,1868.30341485,53184037.0639,66822112.09,4934.49678128,4923.12254961,0.0
1.13167727727,1.10226555977,1.0442086033e-05,-10974812.8668,1.82868926394e-05,0.0,5578852.88827,683.14648048,652.70339462,66301181.1561,1799.19874734,43635701.3547,67648396.368,4697.59237795,4687.68840637,0.0
1.25128185067,0.719619975987,9.9156577973e-06,20033152.818,3.54027641306e-05,0.0,21727010.1512,691.313645688,660.283191046,64595049.4993,1941.92037973,64026272.9219,64954013.617,5194.07096213,5181.64261406,0.0
1.12720175731,1.07071832568,9.74434327856e-06,-13310085.8277,1.77501987976e-05,0.0,5595501.22447,683.440986882,652.471614617,66344964.3848,1792.5880468,42278562.165,67873565.3943,4679.01449459,4668.78928504,0.0
1.04118262875,1.0615321317,9.86591829992e-06,-51689659.6285,1.32257865333e-05,0.0,5842202.29643,678.557613905,646.940978915,67024941.1608,1680.65960669,38287692.1932,70887001.1474,4321.94909194,4313.22063336,0.0
1.07090306797,0.888808451689,9.64337893045e-06,-33476525.0646,1.57716648947e-05,0.0,5797786.83316,680.179870019,648.839301238,66917175.34,1721.05642046,34955043.3095,69987258.7412,4445.31863514,4436.59992823,0.0
1.13410528076,0.999993389908,9.72734982089e-06,-11314716.9924,1.94593584563e-05,0.0,5611404.0562,683.897106341,652.948934982,66421678.4918,1803.35150504,43655779.4228,67627003.1714,4707.67102043,4698.00518811,0.0
1.14907380226,0.980626023378,9.88993216835e-06,-7719006.60824,2.15884114782e-05,0.0,5584151.3112,684.652816742,653.884968409,66345456.3736,1823.92532448,45747709.7643,68607598.4054,4769.80535318,4760.41935982,0.0
1.15598549888,0.995025688541,9.99387673085e-06,-2284711.1547,2.03830527319e-05,0.0,5512084.33273,685.056311256,654.378341189,66098207.3233,1829.44955135,48861060.7145,68135197.4738,4798.49580585,4788.22627177,0.0
1.12235582318,1.00191217628,1.03874006744e-05,-13601979.2258,1.89101664986e-05,0.0,5607449.28482,682.725585219,652.159517176,66378170.4785,1787.65269338,42063988.4704,67761157.0397,4658.89902202,4649.252462,0.0
1.03883298369,0.908329356719,1.01702462523e-05,-52640108.8744,1.45635290711e-05,0.0,5838867.45625,678.261519487,646.793279033,67013086.0563,1678.51080283,38675284.9756,70932375.3637,4312.1957153,4303.76695346,0.0
1.01799944386,1.16698247616,1.03431396762e-05,-72725044.2212,1.20739164451e-05,0.0,5931498.41041,677.312922872,645.484905277,67271038.7638,1652.43020097,51476537.7759,70791569.0128,4225.71569146,4218.55242982,0.0
1.04463262145,0.781583255247,1.0113239962e-05,-48800243.2896,1.62308369663e-05,0.0,5812393.46473,678.633912391,647.166723483,66941772.4937,1685.93640866,37097980.288,70908499.4819,4336.27001164,4327.66132155,0.0
1.11361970153,1.17604663017,9.9155153876e-06,-16587770.0316,1.55155341825e-05,0.0,5646922.11684,682.437332508,651.60749497,66498262.8993,1775.02656864,40531920.7493,69264180.1157,4622.63538105,4612.64619095,0.0
1.05375004048,0.625992219147,1.00995882981e-05,-43701132.3579,1.87394354952e-05,0.0,5758608.87474,679.130272633,647.711493006,66792048.9307,1697.01026807,35440348.5864,70139360.0435,4374.11641803,4365.00406812,0.0
1.20682336727,1.09637718558,1.03500096183e-05,10846283.8427,2.27080165288e-05,0.0,12081393.114,687.826482547,657.476212152,65418962.0416,1890.16866878,56579590.376,66824668.2168,5009.52379754,4998.23802627,0.0
1.05617552011,1.00033414307,9.94479397173e-06,-41989201.2175,1.42460288614e-05,0.0,5814269.22801,679.282299255,647.957799416,66957129.1861,1701.4507522,35126215.766,70226366.1859,4384.18458398,4375.53525538,0.0
0.948139268916,0.931153624465,1.04558515509e-05,-93301524.197,1.3661055974e-05,0.0,6057776.34074,684.919072633,641.004224091,67528699.0776,1604.66507172,68416950.769,68634502.8407,3935.72610527,3929.20522634,0.0
1.05612450429,1.15525523419,1.02879002089e-05,-40804067.1331,1.28807420966e-05,0.0,5817388.02435,678.829355402,647.867702328,66965703.7115,1701.56031879,34943795.2568,69619300.4683,4383.97281731,4375.41663633,0.0
1.04951350228,1.00355018335,9.71141138901e-06,-45958019.5877,1.37757517958e-05,0.0,5835890.17881,679.027213149,647.467981283,67009112.6067,1692.04164094,36124483.1322,70592028.8256,4356.53054796,4347.81068031,0.0
1.07790775801,1.07239042823,1.01301403626e-05,-31104493.2172,1.48253178569e-05,0.0,5792314.11299,680.295565066,649.385978567,66929647.4675,1731.99864913,35158192.2855,69284704.64,4474.3951035,4466.13800032,0.0
1.04743329302,0.705001334376,1.0165671517e-05,-47071803.2889,1.71744825815e-05,0.0,5798548.83718,678.754387035,647.337040775,66906467.5628,1689.72890246,36388889.1983,70143637.9258,4347.89559933,4339.24156348,0.0
1.11198987015,0.948678996131,9.94554145842e-06,-17117579.7732,1.83702060603e-05,0.0,5680971.04271,682.398413981,651.538421848,66611242.1786,1775.17933655,40269271.1352,69143555.4017,4615.86995099,4606.69380584,0.0
1.17050848517,1.02229863813,1.01087068499e-05,1210959.61107,2.11078397956e-05,0.0,5446157.30585,685.865585201,655.273262818,65887039.5635,1847.20224917,50504210.1528,67523234.9509,4858.78072194,4848.13839504,0.0
0.95959274874,0.642188038795,9.94083605535e-06,-93852433.1594,1.67816885578e-05,0.0,6052737.97525,685.039271014,641.75006561,67538127.1212,1614.66197341,68901944.5056,69125806.9962,3983.26950002,3976.908927,0.0
0.912370140217,1.12053397571,9.82397923302e-06,-91922355.3843,1.2225909403e-05,0.0,6189400.97067,691.3504913,638.708168969,67878967.4196,1602.30104645,67202855.6302,67878967.4196,3787.24845204,3781.54029557,0.0
1.10302825788,1.13834861241,1.01987721046e-05,-21398674.3041,1.566857316e-05,0.0,5717938.15796,681.692305115,651.011438198,66716053.2529,1764.15110407,37791954.4422,68651607.7329,4578.67029846,4569.82636779,0.0
1.09388408417,1.07052971239,1.00650298258e-05,-24613770.7697,1.56885502767e-05,0.0,5745236.15137,681.21468515,650.372321018,66797174.375,1752.29728903,36606701.4859,69106059.6077,4540.71283339,4532.0134502,0.0
1.13620166291,0.850736640822,1.02643247926e-05,-10549917.5797,2.29763962874e-05,0.0,5599393.90622,683.723113714,653.095559637,66383614.1824,1807.54003422,43921800.7845,67865694.5298,4716.37310274,4707.21908841,0.0
1.14769376443,1.13321401509,9.61198990455e-06,-7513588.77728,1.85498238407e-05,0.0,5611045.09648,684.629818144,653.797659162,66434297.1353,1821.59058264,46161016.5884,69106987.688,4764.07681615,4754.62239077,0.0
1.06844021214,0.972035543407,1.00098968145e-05,-35027835.8303,1.50490998562e-05,0.0,5801697.25668,679.766327084,648.690082372,66929454.0226,1718.54197117,34714601.8076,69995778.329,4435.09532059,4426.60109273,0.0
1.0524359909,0.87192408627,9.97313519444e-06,-42725718.0687,1.5301947323e-05,0.0,5825554.24152,678.988527052,647.654852568,66984140.4518,1696.78854572,35318489.8971,70586524.8644,4368.66179823,4360.23611333,0.0
0.978539069164,1.02529699543,1.03721109478e-05,-94780663.0956,1.34540047028e-05,0.0,6011118.49681,680.487648745,642.967259763,67440672.8873,1611.12608546,69719282.176,69954813.7598,4061.9156761,4055.30569965,0.0
1.12707829636,1.0152624472,1.03849400197e-05,-11254380.0752,1.84319083248e-05,0.0,5599151.51259,682.8904472,652.397670574,66345019.3067,1793.36179636,43485896.5632,67468797.4979,4678.50200819,4668.71489777,0.0
1.18740526628,0.93482364281,1.01055376939e-05,5539325.17195,2.39801106104e-05,0.0,7088738.23242,686.930747703,656.300927043,65690823.0361,1868.0664153,52969508.3056,66912125.347,4928.91926033,4918.10435265,0.0
1.05630281241,1.06305845089,9.91196184681e-06,-41137538.9785,1.34446139893e-05,0.0,5840711.32619,679.123430748,647.886012289,67034262.8224,1702.40370227,35043440.2942,70311782.0159,4384.71297431,4376.40812579,0.0
1.13963383279,0.76549095088,9.95175733082e-06,-9052754.45007,2.43903120513e-05,0.0,5586447.27467,684.153197938,653.2969551,66350671.054,1811.51260522,45140662.2773,68078755.9601,4730.62003991,4721.28232673,0.0
1.06631775174,0.827653288075,1.02644673092e-05,-35351006.5326,1.67291461433e-05,0.0,5791699.26472,679.521988515,648.55490891,66903594.3872,1716.19771825,34645232.4668,69871903.8744,4426.28498747,4417.91780332,0.0
1.1393070508,0.773562345767,9.96902058623e-06,-8714030.17821,2.38133221443e-05,0.0,5559564.47304,684.143569446,653.261999862,66259255.5827,1809.90201576,45316908.7573,68111075.82,4729.26356787,4719.5144912,0.0
1.19224548573,0.954919222069,9.8945301512e-06,5873709.90239,2.37017106662e-05,0.0,7432441.57041,687.450078436,656.607440996,65483947.3547,1872.32935593,53155650.6579,66730323.4845,4949.01101127,4937.33651052,0.0
1.16390276044,0.690492270504,9.89240534198e-06,-735440.325605,2.66067330644e-05,0.0,5407548.54432,685.89479634,654.854852702,65771146.0174,1838.6325201,49468816.0705,67649753.8037,4831.36035859,4820.41736307,0.0
0.982013992847,0.822927972985,1.05447946867e-05,-94681499.9875,1.46188682883e-05,0.0,5925095.38191,679.577034932,643.171184689,67168828.8684,1606.56470807,69632026.3859,69871320.5553,4076.34008431,4068.40348899,0.0
1.08532130096,0.846376613182,1.02516848232e-05,-26882474.5335,1.78750061705e-05,0.0,5745229.40703,680.728497935,649.863114811,66787141.5963,1741.2762888,35948806.8365,69175210.7451,4505.16872028,4496.60321877,0.0
0.95019748805,0.703364402694,9.47126468016e-06,-93592937.102,1.62234536782e-05,0.0,6098996.46649,687.58113245,641.147877135,67655404.2606,1616.87211918,68673326.6494,68892970.4506,3944.2697729,3938.03529051,0.0
1.19148279294,1.25042709941,9.92973161622e-06,5621094.75763,1.88557840664e-05,0.0,7180886.74649,687.176050428,656.556234646,65598630.6831,1870.9401668,53009959.3968,66854092.9861,4945.84507349,4934.18469376,0.0
1.28632071879,1.12716834419,9.94543955445e-06,25808200.648,2.83965989894e-05,0.0,27403035.0456,693.021332238,662.399804219,64223399.2935,1979.76043413,67818678.783,68704363.7469,5339.5173037,5326.29541711,0.0
1.06082581036,0.927181979767,1.02453042048e-05,-37921131.714,1.53147410774e-05,0.0,5811967.76879,679.192567407,648.195459627,66954943.9286,1708.8580141,34659839.9134,69935197.714,4403.4879388,4395.20574349,0.0
1.09713406738,1.1978967316,1.00881757924e-05,-23496190.2483,1.44977091143e-05,0.0,5743445.34687,681.376619371,650.619710812,66782158.8708,1756.44174816,36975969.257,69065418.0085,4554.20351369,4545.45233572,0.0
1.03065196581,0.974624344586,9.97481522017e-06,-61474963.4034,1.39770284171e-05,0.0,5860402.69613,678.125131928,646.279966105,67064057.5085,1667.24521937,43603648.6274,71027539.6504,4278.23631008,4269.85118026,0.0
1.080620274,1.19762750336,9.66223972967e-06,-30590023.9007,1.31873141592e-05,0.0,5809859.16697,680.539066573,649.427545899,66980408.2231,1734.85526841,35475041.357,69463816.1358,4485.65475737,4477.1623958,0.0
1.0789715846,0.733067061516,1.01167147271e-05,-29519177.0672,1.87637028236e-05,0.0,5760929.91941,680.50606238,649.457416301,66822961.8444,1733.04916715,35498127.1666,69238373.2518,4478.81104767,4470.34427592,0.0
0.92734992608,0.965084133667,1.03767475208e-05,-92232414.852,1.35172986025e-05,0.0,6059291.36684,688.209697691,639.652056213,67493616.2545,1598.9947878,67476062.0358,67682343.8042,3849.42954316,3842.33937028,0.0
0.976165419459,0.753558672116,1.03439026535e-05,-94646769.9194,1.54963136507e-05,0.0,6005730.45292,680.984335923,642.814816966,67419064.4558,1610.95075982,69601399.7114,69836061.8335,4052.06265617,4045.48257992,0.0
1.19330805006,1.11851990507,1.01145765889e-05,6349655.565,2.10909378208e-05,0.0,7839863.42907,687.287407288,656.695263248,65478578.6959,1873.12102855,53307994.4428,66597632.653,4953.4217158,4941.74744295,0.0
1.13167697367,0.826765973213,9.49059624776e-06,-12393898.138,2.14914101472e-05,0.0,5624215.33401,683.960855525,652.784957599,66457087.982,1800.82875139,42894832.1384,67946729.2096,4697.5911177,4688.06866993,0.0
1.17461710748,0.887949993662,9.94461359774e-06,2505049.1943,2.34634283335e-05,0.0,5399188.94623,686.309461669,655.507135554,65746771.3347,1851.48996367,51309867.8091,67014266.4792,4875.83561315,4864.80873295,0.0
1.11588765965,1.11375114795,9.51862027037e-06,-16738769.2723,1.59995122067e-05,0.0,5673031.56754,682.868554123,651.776603861,66585289.4697,1779.04185913,40438347.2726,69351786.2161,4632.04967521,4622.31346079,0.0
0.999366956341,1.17173968305,1.01824406808e-05,-95571982.4928,1.22130477933e-05,0.0,5914610.00242,678.199774914,644.283325101,67161830.0104,1624.14001301,70416164.9625,70662049.9406,4148.37223577,4140.15516436,0.0
1.16217958984,0.896347173994,9.6206795035e-06,-2607609.47441,2.34414551935e-05,0.0,5504232.29835,685.797662856,654.778009984,66106884.2739,1838.68705272,48672829.5904,68155978.3349,4824.20747743,4814.06090996,0.0
1.03229701482,0.88826793122,1.00676691893e-05,-58263695.7677,1.46736135187e-05,0.0,5897216.16038,678.006722436,646.387879022,67190711.8102,1671.81469335,41731876.1428,70954639.2234,4285.06490852,4277.69721383,0.0
0.947152882101,0.930200987812,9.9714673127e-06,-93402369.1637,1.39879737915e-05,0.0,6096959.9001,686.388020274,640.948952217,67650319.4484,1610.16627388,68505579.734,68723484.7439,3931.6316136,3925.43780548,0.0
1.23657827136,1.08075568668,1.01113137259e-05,17070090.9072,2.55310616418e-05,0.0,18660972.1578,689.828220846,659.364618481,65122094.9549,1925.4643206,61819668.7304,66989032.9449,5133.03640442,5121.42492729,0.0
0.975233301947,1.10896582225,9.9108183009e-06,-94793091.5861,1.25717725356e-05,0.0,6041561.35044,682.010617086,642.757360719,67515245.1386,1613.61036817,69729998.1866,69965722.0233,4048.19343638,4041.54575217,0.0
1.10685535438,0.896967951,1.02367604421e-05,-18131651.3146,1.87686248838e-05,0.0,5663935.40832,681.948258778,651.217968454,66547244.2451,1767.75730889,39650745.9439,68867725.6134,4594.55657603,4585.26672829,0.0
1.07774550574,0.891860286948,1.03964451432e-05,-31088101.7924,1.71357903756e-05,0.0,5691191.3222,680.285581628,649.352759377,66601030.0791,1728.47534437,34956076.8617,68902605.8671,4473.72159433,4464.05726212,0.0
1.11490483851,1.26017004313,1.04893280577e-05,-15333097.1603,1.51509050953e-05,0.0,5651254.5279,682.045035274,651.659927333,66502423.2614,1777.88012464,40952564.951,69030834.5687,4627.96998466,4618.44757847,0.0
1.17898951244,1.00486093818,9.87011362112e-06,2982553.74374,2.13822520213e-05,0.0,5403176.95262,686.540415286,655.776399835,65761493.5571,1856.9543025,51554751.5646,67021552.2501,4893.98546614,4882.8862972,0.0
1.09391985052,0.827446265162,1.01468810089e-05,-24293948.1054,1.87505732787e-05,0.0,5723531.6818,681.278680031,650.381684362,66717101.7889,1752.54278763,36657190.9853,68965338.528,4540.86129951,4532.16135532,0.0
1.12623063748,0.800302811558,1.00852593481e-05,-13139784.386,2.2471395207e-05,0.0,5636265.87601,683.210202154,652.435505983,66494785.4102,1794.71252033,42511736.6086,68102930.8428,4674.98337618,4665.9886287,0.0
1.18708798629,0.927511640935,9.64271561036e-06,4782185.2097,2.33985556069e-05,0.0,6501806.25982,687.19163236,656.281627389,65765668.2107,1867.85915823,52806688.3315,67079726.2036,4927.60223109,4916.6775518,0.0
0.999630064787,0.926852626642,1.01281759308e-05,-95655473.3302,1.42094002494e-05,0.0,5899053.37865,678.268408643,644.298280186,67112213.7131,1624.4698905,70489046.7107,70603530.2763,4149.46439893,4141.16203931,0.0
1.12462844866,1.13025209149,1.01118845278e-05,-13574617.8096,1.7511441117e-05,0.0,5666632.12342,682.932411706,652.329586713,66586380.0998,1792.33031294,42253936.2869,68391088.6944,4668.33269039,4659.36314707,0.0
1.03866862844,0.868923604098,9.85793981291e-06,-55478461.1053,1.51301294045e-05,0.0,5840784.76879,678.560053792,646.787664496,67016476.1502,1677.91967113,40120949.0311,71141450.2579,4311.51347665,4303.00102861,0.0
1.15024363404,1.07865106924,9.45401206353e-06,-7063472.73071,1.93978002123e-05,0.0,5603953.63911,684.908131028,653.949168421,66425112.7789,1824.9124387,46506376.9471,68781721.5416,4774.6613249,4765.14021483,0.0
1.17175149271,0.858405571566,9.8605182643e-06,1223159.46156,2.36486655318e-05,0.0,5411402.47947,686.227607799,655.350534384,65778453.197,1848.32882949,50629065.8666,67520642.2992,4863.94044624,4852.96261324,0.0
1.03394190644,1.02496132049,1.00026642525e-05,-58437047.9115,1.35785510098e-05,0.0,5855532.96986,678.177618009,646.478150491,67056501.8458,1671.58371232,41755982.4661,71091922.8888,4291.89285363,4283.45500635,0.0
1.10442916251,0.896556518159,1.06042680727e-05,-18394215.1426,1.89540157936e-05,0.0,5612295.20992,681.623521746,651.043963616,66370241.6885,1763.21944034,39370525.5003,68662254.3761,4584.48545358,4574.56006126,0.0
1.03326332703,0.69675759928,1.04693209435e-05,-55302604.4147,1.64288986976e-05,0.0,5809515.71681,677.824534255,646.429188767,66911528.2385,1670.05482186,40013175.3776,70811618.4291,4289.0760705,4280.44569652,0.0
1.085911552,0.923152694381,9.72286245177e-06,-28348874.0801,1.66096168791e-05,0.0,5771242.11567,681.122669537,649.920117601,66872302.4273,1742.01112745,35856155.3474,69387425.9798,4507.61885235,4499.04414937,0.0
1.22504090265,0.77998630327,9.76384298351e-06,13752850.2238,3.01603527827e-05,0.0,15113025.3641,689.716490223,658.677137641,64975984.7289,1911.45790312,58978939.4055,66391133.0973,5085.1447869,5072.91331821,0.0
1.03052304903,0.896077801396,9.95724277371e-06,-60762555.1849,1.45365698042e-05,0.0,5855132.93943,678.145425501,646.270188901,67045938.2586,1666.90408508,43174628.9392,70928133.292,4277.70117652,4269.23149279,0.0
1.21582504267,0.861733915615,1.02759374712e-05,12813950.7953,2.80307766942e-05,0.0,14050105.0783,688.673164193,658.099432941,65228508.3559,1901.21220087,58196025.7525,66387356.2919,5046.88975212,5035.43234952,0.0
0.973825604157,0.721681759396,9.88485233349e-06,-94672034.2395,1.57673088772e-05,0.0,6027007.77853,682.436115343,642.666673099,67467443.9189,1613.80704636,69623338.4645,69858127.6254,4042.35008286,4035.72182843,0.0
1.06126192433,0.93623237207,1.02019638211e-05,-36964263.1565,1.53115325172e-05,0.0,5827660.0165,679.217779376,648.229120703,67006343.0462,1710.05198435,34651338.0316,70045507.4028,4405.29824789,4397.28356559,0.0
1.1935505277,0.994246259768,1.03387381858e-05,7419700.33094,2.349532519e-05,0.0,8827117.6738,687.191552016,656.719818782,65511876.2772,1874.47828437,53942076.8554,66517853.4754,4954.42824048,4943.29028466,0.0
1.0395502124,0.787740193058,9.56522810919e-06,-54917612.1791,1.59996891992e-05,0.0,5828407.77672,678.87337368,646.838724684,66976792.8115,1678.04021955,39889862.1621,71376835.2477,4315.17293167,4306.29808284,0.0
1.07508723751,1.17686218249,9.72106397784e-06,-32711999.2857,1.31217330216e-05,0.0,5820256.24519,680.191901179,649.069592662,67003415.469,1727.6159242,35000166.4082,69910257.5879,4462.6871229,4454.28051588,0.0
1.10855551359,0.9741150299,9.75061792286e-06,-18642764.9812,1.7340828508e-05,0.0,5686610.08534,682.366768622,651.342381492,66615876.8613,1770.18785256,39477402.2014,68863449.2555,4601.61393691,4592.19670753,0.0
1.20600383193,0.860996335124,9.79301549521e-06,9147290.69047,2.63907863436e-05,0.0,10528812.9419,688.346848533,657.472952393,65436019.824,1890.35010614,55406238.7179,66876350.7625,5006.12190634,4994.74835601,0.0
1.06077950704,0.807258779492,1.03265076455e-05,-37598095.013,1.65914103505e-05,0.0,5801882.94105,679.170245096,648.191012731,66925641.607,1708.87004733,34614523.8915,69913483.2817,4403.29573372,4395.01571267,0.0
1.06150911286,0.759363226082,1.0407421331e-05,-36912949.6159,1.71915272854e-05,0.0,5794342.04879,679.166515947,648.240188057,66904461.0978,1709.88677391,34587710.9199,69940433.2269,4406.32432748,4398.03157734,0.0
1.02691590478,1.03837317152,1.00802867199e-05,-64543861.9512,1.34535006157e-05,0.0,5861940.25077,677.883836142,646.036435487,67064225.527,1661.84643301,45613106.0934,70887782.6088,4262.72792074,4254.31672617,0.0
1.0173448556,0.978774507067,1.01250539555e-05,-73837158.5351,1.3648798471e-05,0.0,5929976.67341,677.574986585,645.446151007,67253471.4931,1651.45146448,52328888.8166,70816116.291,4222.9984956,4215.75552484,0.0
1.02119685251,0.970273314851,1.0414265148e-05,-67747954.7344,1.39698849057e-05,0.0,5860275.39941,677.442717014,645.668162036,67054803.872,1654.46618923,47815678.0345,70702259.355,4238.98813477,4230.75408487,0.0
0.976815026439,0.95833630676,1.00281450994e-05,-94669885.5141,1.38770572103e-05,0.0,6012891.60772,681.785402126,642.854181664,67432336.2934,1613.81224969,69621424.5004,69856664.7878,4054.75917475,4047.83610494,0.0
1.0272048074,0.953209988197,1.03506703008e-05,-63726924.3435,1.42082064493e-05,0.0,5825352.36073,677.67064302,646.043601546,66956762.1622,1661.05784829,45068128.5759,70623854.5454,4263.92715552,4255.08753,0.0
0.999685057686,0.954453011223,9.92047051511e-06,-95581676.6648,1.40686262175e-05,0.0,5908360.39814,678.694552731,644.305737963,67137377.8103,1624.47047913,70424708.9942,70844314.6092,4149.69267445,4141.38942037,0.0
1.15129116058,1.00538115181,9.77611462062e-06,-6816274.5739,2.08136158919e-05,0.0,5542480.84356,684.912757358,654.030778966,66213604.6969,1824.91233783,46134465.7738,68758817.1459,4779.00960757,4768.95159919,0.0
1.13226884439,0.75620798072,9.51242630532e-06,-12058260.9524,2.27090966904e-05,0.0,5556835.7473,684.117435478,652.809658928,66241055.5195,1799.60870098,43015139.7777,67572805.8356,4700.04797306,4689.70928177,0.0
1.09238203654,0.757322681239,9.59979143019e-06,-26021173.8675,1.90607830862e-05,0.0,5742854.01442,681.619147052,650.295586124,66785414.0909,1750.43167635,36322402.5655,69358947.0376,4534.47783368,4525.70395231,0.0
1.11261229219,1.01165136258,9.76832239362e-06,-17237667.3766,1.72734866302e-05,0.0,5650299.62833,682.578342971,651.569180807,66506613.3774,1774.24101863,40161122.726,69140670.2631,4618.45362488,4608.57840924,0.0
1.0653788177,1.19894657904,9.97379294852e-06,-36602962.4018,1.2639060162e-05,0.0,5824426.37573,679.53684605,648.489778546,67003184.0905,1714.37420855,34675522.0212,70227048.3122,4422.38747227,4413.94117592,0.0
1.12234843179,0.692074473318,1.04224637731e-05,-13436926.8312,2.37625514786e-05,0.0,5574451.52345,682.887975992,652.158571972,66277159.2334,1787.99619732,42114245.4166,67567267.1948,4658.86834036,4649.22098027,0.0
1.02979636032,0.846460562691,9.84141569166e-06,-61253521.2684,1.49782426478e-05,0.0,5910168.8287,678.162266752,646.244246394,67223175.9446,1668.46093597,43440943.4477,71069316.3933,4274.68469169,4267.35287956,0.0
1.05788597626,0.966776357026,1.02378563703e-05,-39329513.6492,1.47591341853e-05,0.0,5821518.57988,679.024527153,648.005749685,66978792.2416,1704.90856432,34776880.6993,69718564.1335,4391.28468746,4383.04784005,0.0
1.22469768425,0.86231094425,9.76297179193e-06,13632658.9437,2.80940864615e-05,0.0,14958895.2116,689.612020521,658.654603495,65024019.5705,1910.83553291,58928529.7506,66427876.6223,5083.72008732,5071.48124804,0.0
1.10800044963,0.877078079333,9.60723488131e-06,-19594017.6736,1.86912471026e-05,0.0,5633741.23821,682.553266264,651.295994919,66443442.6131,1767.52586155,39039362.5701,68734491.7192,4599.30986641,4589.13270563,0.0
1.01840121189,0.962800129568,1.02784268404e-05,-72816885.3656,1.38945238597e-05,0.0,5922657.1323,677.458191644,645.51209952,67243936.4414,1653.07263615,51544183.5002,70789002.2475,4227.38343056,4220.21446594,0.0
0.999691118415,0.758364540309,1.02252623425e-05,-95518055.6419,1.56392127625e-05,0.0,5888313.05562,678.249058297,644.303075393,67082247.0512,1624.84580962,70368528.5503,70578648.7505,4149.71783254,4141.49553098,0.0
1.06377254663,0.809006365168,1.01198619771e-05,-36666611.4971,1.66068833282e-05,0.0,5798889.47969,679.49053684,648.386275713,66913832.5872,1712.54938001,34628672.0385,70070582.7739,4415.71984106,4407.29864933,0.0
1.09231261931,0.974571319495,1.00773759668e-05,-25106698.7025,1.67908649658e-05,0.0,5741842.6819,681.150028447,650.262447971,66784011.9067,1750.32816094,36482504.5913,69120770.6513,4534.18968276,4525.51493352,0.0
1.01795822327,0.862588030226,9.63189399593e-06,-77752787.1463,1.4595505943e-05,0.0,5949856.50674,678.143940888,645.492721768,67314420.4253,1652.61053258,55398659.8188,71007386.6021,4225.54458479,4218.38162772,0.0
1.14357721515,0.993455248342,1.0012593163e-05,-8674413.75977,2.05006795806e-05,0.0,5546653.50079,684.158718808,653.402964299,66210172.8405,1814.62068808,45171330.5114,68326037.5279,4746.98902009,4736.85750147,0.0
1.0103578059,0.849010866828,9.92349456114e-06,-84222216.1067,1.45071261174e-05,0.0,5956950.27469,677.793235839,645.002801968,67310680.1076,1642.43506703,60666772.0104,70831827.2642,4193.99525229,4186.93981915,0.0
1.10100062578,1.12081673073,9.6439677323e-06,-23172039.3949,1.52441638744e-05,0.0,5743263.76283,681.943357905,650.870297469,66788315.3693,1761.37450974,37261178.5358,69277189.5146,4570.25359761,4561.34300762,0.0
1.03788526854,1.24600229396,9.62399035119e-06,-55826152.8118,1.1785221955e-05,0.0,5858756.07902,678.572850747,646.73619296,67067898.7456,1675.51450635,40278123.4641,71151664.7434,4308.26174971,4299.41458999,0.0
1.07601247521,1.09991605227,9.33851104121e-06,-32635517.7815,1.36188104202e-05,0.0,5821246.32254,680.561149108,649.144504799,66997085.1754,1728.24160064,35113165.9948,70068597.2404,4466.5277846,4457.91605515,0.0
1.08111270796,1.0945776753,9.60434313261e-06,-30536624.0778,1.42341981379e-05,0.0,5804860.07908,680.649164607,649.461290618,66964966.7553,1735.57959454,35482244.9179,69457548.9532,4487.69885074,4479.1988398,0.0
1.07362123627,0.825200818614,1.00194894356e-05,-31789597.6014,1.71204503243e-05,0.0,5778245.51939,680.027038389,648.956597836,66867733.3066,1725.28051612,35161389.7382,69556000.946,4456.60175176,4448.02792382,0.0
1.07776837706,0.891305217084,9.89331051505e-06,-30882745.5403,1.65120335173e-05,0.0,5788102.91599,680.33260438,649.239528107,66913030.6993,1731.35397259,35310929.4974,69340965.4585,4473.81653318,4465.36841677,0.0
1.13381568817,1.26962502867,9.96662590197e-06,-10720187.8148,1.62516095816e-05,0.0,5648220.05795,683.567575569,652.945441809,66531793.035,1803.62711048,44132542.4156,67875348.631,4706.46892159,4697.25061889,0.0
1.15521933867,1.28017891878,1.00161530208e-05,-5862797.43605,1.77661925303e-05,0.0,5581546.68207,684.84287405,654.305479173,66344287.0124,1831.34292423,46710764.3555,68674903.2484,4795.31547482,4785.83072556,0.0
1.15208156441,1.04641289231,1.0283522287e-05,-5654624.75038,2.02641231526e-05,0.0,5511808.80803,684.510663756,653.994475524,66114855.8659,1825.22774019,46529372.0687,67840539.2763,4782.29057387,4772.03177923,0.0
1.11135943068,1.2257143143,9.78006273183e-06,-19465195.5097,1.48901842489e-05,0.0,5715318.05376,682.411965006,651.520525763,66722625.0727,1774.7804973,38923008.1094,69016972.2034,4613.25299675,4604.17527705,0.0
1.06545668926,1.06417159906,1.02145881642e-05,-34838140.6892,1.40383216437e-05,0.0,5807257.52819,679.398270451,648.496985734,66944282.5054,1714.35793876,34711825.9183,70005434.116,4422.71071712,4414.26349826,0.0
1.10630890685,0.751531535794,1.0440680623e-05,-17754658.4925,2.08888281093e-05,0.0,5639389.93108,681.872049177,651.174984203,66449875.4028,1767.28885396,39710568.227,68770498.6151,4592.28827233,4582.90892488,0.0
0.967165673416,0.905274963916,9.78627370912e-06,-94192393.6985,1.45918294841e-05,0.0,6037687.01113,684.31582088,642.233246743,67492491.0431,1616.68553492,69201165.0348,69431049.3013,4014.70471035,4007.8659753,0.0
1.14547958276,1.03280955364,9.95216609199e-06,-8437606.381,2.04409661705e-05,0.0,5591030.77996,684.339898315,653.621568867,66355547.4352,1818.92297868,45330100.8661,68425416.1943,4754.88574804,4745.45255411,0.0
1.03262234017,0.919562452581,1.02664769477e-05,-58010130.9591,1.46447136075e-05,0.0,5835873.97713,677.935984036,646.392468386,66995935.7954,1669.53535299,41489184.1029,70890193.4947,4286.41533405,4277.91212078,0.0
1.14104824849,1.06972462114,1.00750541513e-05,-9252020.82683,1.91260394876e-05,0.0,5560681.119,683.946890428,653.267395188,66250559.8664,1811.29993334,44848123.8559,68180610.0353,4736.49127948,4726.40303234,0.0
1.12314209023,1.11520988082,1.01104046387e-05,-13517317.6698,1.71031175403e-05,0.0,5622250.88071,682.889848763,652.209543199,66430397.1058,1788.20301861,42298290.3041,67999185.3617,4662.16281654,4652.40256788,0.0
1.09993208839,1.27426191934,9.74330912084e-06,-21824335.3662,1.34730134247e-05,0.0,5689227.91528,681.782408056,650.787665881,66603310.431,1756.74023007,38016797.5893,68756413.2834,4565.81809891,4555.78323546,0.0
1.03777527411,0.865895025383,1.0423744354e-05,-51630705.0743,1.53082678516e-05,0.0,5811537.9928,678.018485954,646.713216992,66933896.3885,1676.19721971,38160307.6976,70587952.7294,4307.80516283,4299.13146301,0.0
1.05785326149,0.991689342415,1.03178291905e-05,-39035435.8594,1.45407088248e-05,0.0,5819890.58774,678.953557685,648.003089815,66975239.3603,1704.86116251,34735920.8553,69734786.0515,4391.14888845,4382.91399779,0.0
1.00319039018,1.0046246869,9.94888521813e-06,-95484214.1692,1.36386377692e-05,0.0,5901760.79976,678.309613347,644.526098539,67122989.5039,1629.11888797,70344908.6684,70742523.5753,4164.24330964,4155.88316432,0.0
1.18466421355,1.11049030174,9.65250071086e-06,4161147.04512,2.00122828784e-05,0.0,6022287.22516,686.919340625,656.135340619,65853330.7777,1864.6068165,52447638.7289,67149529.8941,4917.54115045,4906.64561607,0.0
1.10432444693,1.02120538262,1.02033410101e-05,-20977194.562,1.73193141023e-05,0.0,5704993.03005,681.808856355,651.086750712,66679897.5879,1765.94456026,37971961.0843,68680256.5252,4584.05077921,4575.18637049,0.0
0.91016414204,1.15070587956,1.03749756153e-05,-91535889.5379,1.16673873638e-05,0.0,6139036.84185,690.305488425,638.552104647,67719769.4233,1595.80094472,66862900.3214,67719769.4233,3778.09135361,3771.82927795,0.0
1.02180812521,1.07006881788,1.01350916528e-05,-68852984.1996,1.30525066595e-05,0.0,5873749.12536,677.688844346,645.710255716,67090465.1071,1655.00111525,48613596.2325,70749121.3273,4241.52552775,4233.1963541,0.0
1.06553669772,1.24948597624,1.03441942917e-05,-34659125.5129,1.24722283341e-05,0.0,5816212.1894,679.248886498,648.504484209,66978362.3239,1714.67566402,34712057.1843,69938995.4513,4423.04283224,4414.68800474,0.0
1.14218834293,0.950083834105,9.94997350109e-06,-9082659.81672,2.09591505533e-05,0.0,5550533.1163,684.157403211,653.338751182,66217239.7724,1812.94323445,44881566.0964,68192225.0634,4741.2238115,4731.11599498,0.0
1.18679831794,0.982029322419,9.80555857652e-06,4774697.05634,2.24042923696e-05,0.0,6384548.76768,687.060869421,656.253780116,65703188.9211,1866.75917133,52671800.612,67018773.9715,4926.39981777,4915.25196006,0.0
1.15372631552,0.693026232474,9.76661715606e-06,-4890874.2661,2.68748733926e-05,0.0,5511012.60019,685.130259195,654.116547225,66126336.059,1828.47975664,47465640.3629,68601613.3286,4789.11793572,4779.14062714,0.0
1.14845914555,0.848283460402,9.72699743698e-06,-7677466.68023,2.31253721848e-05,0.0,5539259.25764,684.81657638,653.807335534,66198080.2572,1821.56691428,45718004.7848,68557303.1865,4767.25391318,4757.24381681,0.0
1.09336446375,0.97529951203,1.00590454761e-05,-24779427.0961,1.68569610986e-05,0.0,5739654.86949,681.221973971,650.330010682,66779443.6409,1751.70413725,36564898.2774,69111978.6545,4538.55588903,4529.86465446,0.0
1.22765854508,0.834900833122,9.86491211545e-06,14648650.0394,2.91047558717e-05,0.0,16060225.7475,689.708702669,658.855679171,65081549.6227,1915.19696138,59757676.7178,66615042.8231,5096.01062063,5084.18089249,0.0
1.1198322734,1.04137200318,9.9808928221e-06,-14695053.7364,1.78020999307e-05,0.0,5610594.26794,682.825331864,651.97372145,66381383.6752,1783.15476585,41404497.0054,68567370.2781,4648.42376688,4638.32691657,0.0
1.16425618883,0.921284638334,1.01405171774e-05,-368944.882016,2.2321277535e-05,0.0,5426848.05435,685.57168953,654.872514214,65819586.2285,1838.55916552,49622984.6394,67595863.2136,4832.82743983,4821.90396076,0.0
1.07975667979,1.09984971823,1.0110087811e-05,-29346037.4686,1.43905556432e-05,0.0,5783682.81734,680.408851512,649.512236512,66894144.3052,1733.79707746,35592070.7158,69317035.0918,4482.06997781,4473.5910243,0.0
1.20350413539,0.813648120946,1.01180979651e-05,9603232.00725,2.8032705413e-05,0.0,10956981.0923,688.088003348,657.279363069,65208570.2609,1885.48904626,55616843.7293,66728595.5732,4995.745666,4983.8765144,0.0
1.03907758252,1.06721111702,1.02350667556e-05,-52017638.5197,1.3115856009e-05,0.0,5845476.49029,678.15814824,646.812291897,67035162.2242,1678.72363826,38382300.8609,70848605.2251,4313.21104504,4304.77837646,0.0
1.09960795147,0.955424248488,1.00639418823e-05,-22722206.1439,1.76246807506e-05,0.0,5719919.18437,681.667031911,650.79779099,66713854.5922,1759.85658992,37224438.1469,68676046.0916,4564.47260655,4555.68325609,0.0
1.11422953088,0.93026743058,1.00319544593e-05,-16259129.532,1.88897253484e-05,0.0,5668261.27743,682.450850212,651.64877928,66563030.017,1778.06815574,40670260.3973,69298736.7095,4625.16678268,4615.95348546,0.0
1.06640687893,1.0730765521,1.01952824706e-05,-34470861.4922,1.39862108637e-05,0.0,5806237.13815,679.462768747,648.559450822,66942688.2772,1715.60074687,34725932.6293,69946448.6604,4426.65495444,4418.19286908,0.0
1.08791564314,1.02319879174,1.01037741363e-05,-26478801.5033,1.58627887434e-05,0.0,5756714.54491,680.899449412,650.022542465,66823633.1008,1744.54081586,36099871.82,69264659.4444,4515.93783467,4507.3318596,0.0
1.16735791099,0.98217900724,1.03470409061e-05,-187995.924347,2.31486860214e-05,0.0,5441386.44249,685.618972568,655.077819558,65858545.7518,1844.02338705,49576057.0612,67457412.4523,4845.70268852,4835.2663053,0.0
1.07547034705,0.909885282533,1.05641814057e-05,-30323422.1438,1.68049914291e-05,0.0,5770541.39185,679.914451608,649.237910025,66851809.8952,1728.88357822,35138019.211,69123928.8018,4464.2774106,4456.05582876,0.0
1.16777704685,0.915545608691,1.0224249945e-05,1363841.99127,2.26927511125e-05,0.0,5441788.12943,685.671723334,655.104954128,65853823.3547,1843.65910503,50586494.9458,67460885.6229,4847.44252147,4836.88287165,0.0
1.00910732328,0.824443546942,9.87449435658e-06,-84309996.5262,1.45309012176e-05,0.0,5890249.46042,677.943656789,644.9062541,67085430.1384,1637.23086303,60732746.6791,70801222.495,4188.80449894,4180.40007317,0.0
1.05261842467,0.763025972577,1.053126362e-05,-39578509.188,1.64791125069e-05,0.0,5808119.30741,678.538912815,647.641309923,66938168.4069,1697.5905987,34731155.685,69496668.4308,4369.41908081,4361.17310955,0.0
0.995083142524,1.0018702955,1.02761903371e-05,-95307811.0611,1.36933829092e-05,0.0,5911080.84599,678.471163598,644.010012017,67145851.8766,1618.54890035,70183485.9071,70542299.9244,4130.59012462,4122.44204337,0.0
1.18689790193,0.892414225785,1.03466317857e-05,6025712.70778,2.49304722471e-05,0.0,7530511.99228,686.852599423,656.278306596,65497199.0165,1866.00612547,53024870.7289,66594655.5884,4926.81319091,4915.56572818,0.0
1.1187714735,0.920875635577,1.00185512403e-05,-14907755.6471,1.93767845082e-05,0.0,5601317.02436,682.796952303,651.903886901,66353376.0948,1781.91301183,41331483.2882,68695757.2166,4644.0203865,4633.94195136,0.0
1.07591849158,0.902248140907,1.02437644771e-05,-31458249.4418,1.67236198706e-05,0.0,5781877.5434,680.158719786,649.252601355,66896094.2117,1729.51590626,35044263.1241,69203608.7792,4466.13765855,4457.91078523,0.0
1.19767713908,0.982079904987,9.72901350475e-06,7505585.85738,2.31894375735e-05,0.0,9013680.93568,687.824467523,656.991333958,65583336.2049,1879.74723264,54268066.2103,66702111.7909,4971.55780432,4960.23020026,0.0
1.12323605381,1.05546316758,1.05980772298e-05,-12422872.9603,1.76795005185e-05,0.0,5556349.48412,682.640966568,652.201849117,66209330.1718,1786.63847727,42743583.9845,67144019.7301,4662.55285937,4652.14768296,0.0
1.10151747978,0.789488942316,1.01008265278e-05,-22021107.6683,1.99548404035e-05,0.0,5699530.13325,681.835273759,650.921581608,66655498.4273,1762.49442903,37494973.0445,68474521.0381,4572.39905857,4563.57961029,0.0
1.04414186242,1.00012897036,1.03842256659e-05,-47645500.097,1.41327382185e-05,0.0,5814371.04031,678.295273117,647.126413497,66947527.8072,1684.96409802,36615744.5418,70305732.9849,4334.23287091,4325.54371591,0.0
1.04757250259,1.00393959203,1.0009238014e-05,-45136751.6931,1.38738601702e-05,0.0,5842987.12728,678.67649667,647.348886295,67028183.3666,1690.23649028,35926448.57,70425961.8775,4348.47345825,4340.12428805,0.0
0.962659938912,0.955877569746,1.02383740494e-05,-93887453.0479,1.40186642013e-05,0.0,6033884.41902,683.7344158,641.941257677,67487667.7884,1611.80486274,68932743.6351,69158195.5313,3996.00140642,3989.306995,0.0
0.961531178195,0.870460881476,1.03724901307e-05,-93842493.4358,1.45272410916e-05,0.0,6025502.79849,683.501938852,641.866728513,67452582.0372,1609.83263767,68893189.9721,69116332.7592,3991.31592069,3984.60759758,0.0
1.00360558265,1.20022401907,1.03183672055e-05,-90401013.5787,1.19859451367e-05,0.0,5900057.99876,677.610973662,644.550787049,67126164.2848,1629.79870985,65894546.524,70661228.7623,4165.96677358,4157.68269091,0.0
1.09784911712,0.764922300093,9.96024785492e-06,-23528957.8353,1.98648148088e-05,0.0,5715044.85867,681.699480984,650.664927072,66708214.0805,1757.76508595,36969225.0001,69032746.348,4557.17168517,4548.40938506,0.0
1.00381380656,0.937228486605,1.03808884506e-05,-88662626.4414,1.42865179048e-05,0.0,5881168.35671,677.588879199,644.563825199,67069289.4097,1630.27273702,64383776.3897,70657698.373,4166.83111103,4158.54237975,0.0
1.02096222872,1.20731686008,1.01457066243e-05,-69129585.7249,1.17747070367e-05,0.0,5931545.23576,677.517336904,645.674821127,67271767.816,1656.13049255,48840312.3694,70800971.3409,4238.01421142,4230.71932314,0.0
1.03761082591,0.745693219521,9.8078945327e-06,-56146173.5216,1.62261618835e-05,0.0,5886803.30194,678.498111794,646.737605894,67162832.3073,1678.94623436,40550136.7608,71087427.7574,4307.12253835,4299.67978816,0.0
1.0137821879,1.00432581602,1.02470790286e-05,-78560220.8719,1.34677678679e-05,0.0,5938223.48913,677.419562119,645.219551675,67266447.0265,1646.86049452,56025943.4529,70780820.6956,4208.20986197,4201.10634598,0.0
1.00972258072,1.17530542947,9.96388476716e-06,-84693901.9073,1.17984298029e-05,0.0,5972341.63296,677.642634431,644.960650754,67357154.1611,1641.41975299,61061587.6809,70884992.7391,4191.35843257,4184.31195455,0.0
1.09317577556,0.887321761757,9.70932483347e-06,-25467601.3799,1.73963795187e-05,0.0,5746533.58983,681.513239133,650.330224538,66799561.7877,1751.34833121,36439459.9747,69297384.4711,4537.77264435,4528.98620862,0.0
0.901860336217,0.829811642504,1.00522408256e-05,-91222161.6176,1.38406011518e-05,0.0,6129717.06739,692.13728428,638.012642776,67671120.088,1593.80572194,66586723.5758,67671120.088,3743.62225564,3736.94428699,0.0
1.22034518501,0.865722952042,1.01516388503e-05,13133757.4534,2.82779457349e-05,0.0,14327525.3064,689.110534521,658.37379644,65030881.1201,1905.46257326,58462178.8846,66354669.5038,5065.65286298,5053.57129886,0.0
1.10352249518,0.948342841554,9.85426900376e-06,-21848342.6439,1.77925156957e-05,0.0,5720048.45482,682.045540594,651.053975089,66730718.436,1765.15071326,37633723.3446,68581622.1404,4580.72187749,4571.87002762,0.0
1.17855959675,1.00014996481,9.72069013551e-06,2766189.38068,2.15603606769e-05,0.0,5443417.95645,686.571125945,655.765769419,65907051.9924,1857.66564299,51624965.5836,67185655.2343,4892.20088611,4881.5402629,0.0
1.0385194448,0.916434233802,1.00718526875e-05,-52213385.9555,1.45909328416e-05,0.0,5830785.91265,678.323499944,646.762107625,66987282.0931,1677.25060822,38442287.6386,70909954.1711,4310.89421536,4302.20938634,0.0
1.11675517916,0.951381813978,1.01695795766e-05,-15251501.2246,1.8858356731e-05,0.0,5634954.80278,682.501004125,651.782019553,66466582.6625,1780.33691618,41157500.196,69064339.3245,4635.65074869,4626.09703962,0.0
1.14832474288,1.08695892449,9.98627374544e-06,-7741714.13327,1.98620029018e-05,0.0,5591913.2601,684.488297634,653.836123069,66370439.5052,1822.81049851,45683080.307,68609885.1153,4766.69600769,4757.32369919,0.0
1.09490249305,0.830275904898,9.86836562317e-06,-24585716.4195,1.85074375879e-05,0.0,5735505.17409,681.513998749,650.432760543,66763050.2526,1753.9892487,36655061.2249,69175342.6777,4544.94024865,4536.22477558,0.0
0.988907421355,0.697134958414,9.90270453211e-06,-95335075.998,1.55863547989e-05,0.0,5976628.82342,679.759466839,643.631277545,67326053.7631,1613.30344075,70207175.8726,70450741.0559,4104.95470604,4097.77870722,0.0
1.11677886605,1.02779638403,9.96574061995e-06,-15725372.1431,1.77773242535e-05,0.0,5670845.11163,682.587201958,651.796459372,66573812.6927,1781.29376265,40962980.9262,69398591.2022,4635.74907297,4626.49526976,0.0
1.14972429037,0.853511425734,9.92059678606e-06,-7421214.57432,2.38699030994e-05,0.0,5569058.1041,684.749007351,653.934627291,66300209.7423,1824.86598372,45854025.0975,68627542.7694,4772.50552933,4763.10910279,0.0
1.11504357048,1.01276000979,1.02176076311e-05,-15661469.2391,1.78561911136e-05,0.0,5643133.82669,682.323662814,651.672153761,66489977.8646,1778.00229287,40908336.2239,69270872.726,4628.54586106,4619.02056111,0.0
1.13867574216,1.09254754793,1.02804308584e-05,-9921475.56323,1.93732404208e-05,0.0,5610429.29534,683.721455522,653.228733363,66420852.1383,1810.45483668,44313185.0421,68058969.6721,4726.64300571,4717.44973326,0.0
1.07425980838,1.03458957982,1.03810829054e-05,-30549906.1682,1.50823689548e-05,0.0,5775926.66474,679.913106904,649.139864168,66859844.6392,1726.28550317,35250913.3927,69233644.3512,4459.25246459,4450.76198837,0.0
1.14595786815,0.887053851458,1.01006666267e-05,-8659393.93783,2.29019915104e-05,0.0,5479537.11657,684.497845858,653.619257297,66022148.7103,1816.66745932,44829619.0273,68174363.7942,4756.87111069,4746.17887,0.0
1.14606828244,0.954586984324,9.94134282858e-06,-8419762.0498,2.17866589735e-05,0.0,5590005.92105,684.417957907,653.663326504,66360008.5883,1820.12197374,45306370.1163,68404439.785,4757.32944041,4747.99326266,0.0
1.0685760987,0.71240752696,1.0097427417e-05,-33777867.8272,1.81572056484e-05,0.0,5781127.06043,679.794229457,648.6911593,66867677.175,1718.7276619,34819613.1774,69785284.1034,4435.6593857,4427.16332106,0.0
1.17513461078,0.911577664695,1.0279174792e-05,2762346.30188,2.3729593222e-05,0.0,5355426.8544,686.164450404,655.516933548,65581894.5813,1851.13842102,51258858.0943,66901903.2788,4877.98376935,4866.63268037,0.0
1.12780963437,0.961098114874,1.01603390843e-05,-12393166.4303,1.97494884579e-05,0.0,5592954.59712,683.156189004,652.442360914,66332064.8371,1794.51681671,42873810.6143,67234034.485,4681.53779227,4671.69930592,0.0
1.02566767333,0.961492936795,1.03882425545e-05,-65051937.3927,1.40883640524e-05,0.0,5828045.44918,677.566161746,645.930266972,66964522.666,1659.01908428,45928486.4091,70482944.803,4257.54651199,4248.73260878,0.0
1.08197857631,1.35948859863,1.00793625635e-05,-28713929.9358,1.21740920869e-05,0.0,5792724.75383,680.489677367,649.667362669,66924941.828,1736.54993157,35708590.0328,69359491.9801,4491.29307026,4482.77960225,0.0
1.09322509885,0.881299150478,1.01460771999e-05,-24548965.1098,1.79923616175e-05,0.0,5729592.76633,681.205754149,650.329781096,66734627.3623,1751.58742222,36578832.2265,69010252.0771,4537.97738533,4529.28833573,0.0
0.961065934049,0.936537459788,9.76076356539e-06,-94038655.9301,1.41799237292e-05,0.0,6071097.82698,685.043406256,641.845513215,67585919.4824,1615.36062678,69065796.2385,69292318.6849,3989.38469224,3982.92553008,0.0
1.108521969,1.18026638615,9.62435420486e-06,-19238451.2576,1.48324557525e-05,0.0,5705519.4267,682.362666801,651.347163074,66672310.6838,1769.85206228,39251673.8327,68874993.78,4601.47469332,4592.05722549,0.0
1.10219485554,0.663064630787,1.00182837734e-05,-21749142.4799,2.21154699099e-05,0.0,5692061.6145,682.00578388,650.966403895,66630151.2236,1763.68485693,37618057.4716,68464637.6665,4575.21084535,4566.38059748,0.0
1.15527147078,1.07030706617,9.99828925171e-06,-4229690.53186,2.03230277465e-05,0.0,5540958.70995,684.826187846,654.206563078,66212938.212,1830.05131904,47705427.532,68526999.2312,4795.53187521,4785.62120628,0.0
1.13650300441,0.716196089742,9.99737962994e-06,-10566751.6041,2.45042557704e-05,0.0,5562989.72969,684.046429174,653.103282105,66265210.5008,1806.79503776,44105937.2963,67699828.1058,4717.62397131,4707.91937727,0.0
1.03160730025,1.07006573025,1.00799234722e-05,-58593463.6525,1.3021080807e-05,0.0,5907423.86674,677.91335761,646.347460611,67220707.7036,1670.7906449,41889747.7992,70982771.1555,4282.20190334,4274.84411299,0.0
1.03015164408,0.807503207815,9.89694868985e-06,-60563828.0208,1.53359802257e-05,0.0,5905370.48395,678.131731126,646.266400049,67210232.2076,1668.9535787,43037129.4023,70979381.924,4276.15947458,4268.82256893,0.0
1.17013968238,1.16156430829,9.7467606955e-06,630566.248423,1.83531831781e-05,0.0,5459291.29352,685.991258051,655.249279541,65939517.1683,1845.89603606,50434202.1544,67802752.6877,4857.24982156,4846.30049079,0.0
1.13877200441,1.02459864472,1.0016914808e-05,-10194005.7189,2.00936409241e-05,0.0,5617418.07407,683.956684068,653.260048021,66433359.0831,1810.76719554,44236834.7432,68004679.7866,4727.04259031,4717.82119853,0.0
1.04472316355,1.09229494815,9.56694431859e-06,-51068527.1653,1.29731554958e-05,0.0,5847634.94525,678.92046442,647.144558466,67043310.6361,1685.28923543,38089442.1429,71152517.9076,4336.6458519,4327.85925469,0.0
1.15713868101,1.10042773551,1.00016874143e-05,-3557483.41078,1.88003501595e-05,0.0,5473846.81917,685.147622222,654.437195671,65983798.7173,1829.55489417,47799557.0585,67844007.7743,4803.28266487,4792.37086145,0.0
1.07526202853,0.8110227947,1.00301587669e-05,-31109844.0619,1.74234129482e-05,0.0,5772309.99702,680.125146062,649.068185066,66853413.3942,1727.45010185,35252789.9283,69440121.5403,4463.41268043,4454.81301965,0.0
1.09624878689,0.804764070631,9.83121771631e-06,-24232495.7962,1.89508690192e-05,0.0,5731087.38659,681.642806526,650.530042865,66751257.2359,1755.77778115,36774752.5636,69147373.1748,4550.52871438,4541.79209809,0.0
1.14817728762,0.950573759127,1.01270893755e-05,-7415885.21651,2.22733961955e-05,0.0,5572880.01471,684.471757625,653.835565986,66314156.1593,1822.69522546,45758258.4733,68594647.2221,4766.08392091,4756.71397521,0.0
1.06637948747,0.778927082927,9.56102105077e-06,-37051670.5147,1.66109926843e-05,0.0,5815294.97331,680.05894588,648.556080284,66970347.4875,1716.01941159,34688176.5766,70235661.7595,4426.54125249,4418.08053212,0.0
1.16045904705,1.12122132299,9.57518957919e-06,-3828515.40016,1.93600123735e-05,0.0,5538818.39013,685.523411451,654.62781674,66213034.4303,1836.56615847,48071741.3689,68479806.1089,4817.0655043,4806.94610474,0.0
1.1105167917,0.863142214517,1.00338836375e-05,-17338950.6473,1.93572765214e-05,0.0,5674743.91663,682.296752942,651.446864983,66576496.1886,1773.33225236,40120811.7605,69045732.3104,4609.75520235,4600.60272784,0.0
1.16457041261,0.843703453147,1.03993305789e-05,499454.248655,2.4093909759e-05,0.0,5408387.04715,685.468854737,654.890791875,65752033.6129,1838.97620447,49927915.885,67376928.0112,4834.13178274,4823.29472679,0.0
1.04841880657,0.908256385279,1.03888477182e-05,-45362071.2901,1.51821520759e-05,0.0,5798262.20489,678.535644975,647.400329279,66906883.699,1690.72831825,35846985.3867,70326691.7446,4351.98646607,4343.2274742,0.0
1.07484715527,0.799926591903,9.89167675224e-06,-32139492.6805,1.74151388654e-05,0.0,5789829.55593,680.195615335,649.042981455,66912414.8441,1727.58200258,35068806.4506,69688454.9728,4461.69054153,4453.28764735,0.0
1.23346046313,0.825233344828,1.02156453449e-05,16184639.5479,3.08612572203e-05,0.0,17668191.6825,689.917815732,659.173541449,64799039.0502,1920.44122578,60950216.2731,66601694.0358,5120.09438245,5107.76631143,0.0
1.02983346432,0.855238475466,1.01321398378e-05,-60138805.3338,1.48891628294e-05,0.0,5848205.80504,677.97565566,646.225133161,67026349.8453,1666.04211182,42746780.6628,70910300.7322,4274.83871039,4266.38020232,0.0
1.06196750583,0.951253105146,9.91073977069e-06,-38366631.9538,1.48806229922e-05,0.0,5820187.47351,679.496325268,648.269828552,66983230.8106,1710.03164179,34694200.3734,70002179.8169,4408.2271167,4399.8340997,0.0
1.07156018677,0.772601617705,9.59851298633e-06,-33340277.3861,1.71440605366e-05,0.0,5789940.35214,680.297891625,648.879444872,66892188.3869,1722.01820067,35016549.9338,69952185.9071,4448.04633528,4439.31712247,0.0
0.984102966298,0.951313060609,1.03749265747e-05,-94824334.5063,1.39121831981e-05,0.0,5932284.1257,679.694709179,643.306636814,67191518.9353,1608.57530342,69757790.7529,69997924.5552,4085.0114131,4077.04052458,0.0
1.0887253484,1.05095591455,1.01246162315e-05,-26154493.4799,1.55830409463e-05,0.0,5755505.33804,680.905994494,650.062352884,66821858.0248,1745.56631148,36174297.5707,69243055.0114,4519.29892121,4510.68029817,0.0
0.945090778866,1.01405432266,9.92730921205e-06,-93340803.453,1.33390316957e-05,0.0,6106841.54465,686.756149121,640.816479582,67677321.9816,1609.98074183,68451395.2112,68668468.5913,3923.07182307,3916.90796636,0.0
1.03970093873,1.01391183193,1.02959381128e-05,-50323360.5496,1.3806943343e-05,0.0,5829342.43456,678.126634813,646.818524997,66982361.2945,1679.04687074,37607671.8116,70803429.9281,4315.79859667,4307.1803482,0.0
1.10911119459,1.06775785254,1.02336005102e-05,-17521418.7102,1.67340347419e-05,0.0,5671065.79233,681.990904399,651.352397298,66573666.6135,1770.52521438,39968006.4018,69038715.1747,4603.92056874,4594.59372927,0.0
1.0865714519,0.967150955653,1.0462489898e-05,-25964011.8874,1.6799398012e-05,0.0,5745817.15836,680.57556578,649.920536945,66784269.8245,1743.14361155,36092064.0254,69091253.0448,4510.35809684,4501.87066275,0.0
1.13257851859,0.930355050075,9.79981311302e-06,-12663138.7525,2.06784462191e-05,0.0,5548887.71948,683.891970932,652.826508228,66209751.194,1799.64801432,42746216.7251,67320766.1549,4701.33343067,4690.87857842,0.0
1.12039071342,0.899765767556,9.91069198223e-06,-14687373.7243,1.97141309854e-05,0.0,5598702.85946,682.983147378,652.009556051,66345739.1237,1784.03890291,41490906.8381,68545643.9517,4650.74185141,4640.634402,0.0
1.13610035504,1.25604454989,1.02387558277e-05,-10753879.5212,1.69871538506e-05,0.0,5632737.92801,683.546015193,653.089681734,66484306.3756,1807.04264133,43892122.4701,67952245.1988,4715.95257377,4706.80016551,0.0
1.08665132648,1.09302184944,1.02419711523e-05,-26500113.9175,1.50005557195e-05,0.0,5759201.45737,680.701600593,649.943246178,66831945.4434,1742.81688152,36046152.968,69216124.1394,4510.68965622,4502.10341513,0.0
1.03320910305,1.06789802201,1.04481261478e-05,-57413536.2554,1.32777461452e-05,0.0,5847341.97255,677.750845331,646.433652703,67037106.8619,1671.04581498,41145890.3158,70827407.269,4288.85098676,4280.59986613,0.0
1.08235420378,0.781797202187,9.98790819525e-06,-28733427.2338,1.83037365689e-05,0.0,5760183.96984,680.797168461,649.691136387,66824083.6539,1737.46222811,35693561.9667,69274487.9181,4492.85229989,4484.33299127,0.0
1.16720665275,0.980975559611,9.9097472932e-06,255161.349772,2.13195932883e-05,0.0,5432671.24024,685.844427666,655.059142885,65852628.5888,1842.10690123,50110668.946,67701127.2224,4845.07481557,4834.07418955,0.0
1.11949289829,0.820258760118,9.37329334972e-06,-16040122.0103,2.0059249989e-05,0.0,5642210.06434,683.296205744,651.973784144,66494103.0474,1783.9986121,40839211.2982,69499420.6254,4647.0150208,4637.21776553,0.0
1.12890730069,1.15663920816,9.93043521608e-06,-12357082.6095,1.68606635613e-05,0.0,5617213.27292,683.25418905,652.516084195,66421712.5261,1795.59826188,43020716.2225,67363762.2208,4686.09420516,4676.23756631,0.0
1.11206072871,1.16148922069,1.01292952077e-05,-16784183.3531,1.57267203422e-05,0.0,5645785.19233,682.209017378,651.511299311,66486799.1329,1773.18730802,40325550.1547,69203586.7779,4616.16408488,4606.29754626,0.0
1.13065868205,1.01132248788,9.99410914624e-06,-11750819.1804,1.91269215286e-05,0.0,5594588.69507,683.407885869,652.636289161,66355831.4858,1797.96741566,43384960.3408,67475692.8542,4693.36418919,4683.47789406,0.0
1.07477181715,0.959657551635,1.04618701654e-05,-32084034.0072,1.61894029862e-05,0.0,5703007.93303,680.014130898,649.147875634,66633646.5611,1724.54443686,34805433.7482,68886682.5051,4461.37781299,4451.76340385,0.0
1.10502309421,1.26010562853,1.01857580745e-05,-20907617.9003,1.45206579713e-05,0.0,5719679.08439,681.765237186,651.131045715,66726241.5917,1766.64699241,38059392.9555,68759929.5018,4586.95086407,4578.07605145,0.0
0.977553551709,0.922525825785,1.0070510453e-05,-94615097.8096,1.42154763525e-05,0.0,5958276.73491,681.4972586,642.88842549,67255878.6553,1610.29757584,69573441.4319,69810600.9079,4057.82479314,4049.95901073,0.0
1.14094103084,1.10097266019,9.64813395083e-06,-9890414.39857,1.83485252608e-05,0.0,5608996.88268,684.301888515,653.392940175,66413169.086,1812.33480019,44667920.3378,68091239.8282,4736.04621902,4726.37199772,0.0
1.04605791756,0.926089118885,9.94765897236e-06,-48910463.1369,1.48604013133e-05,0.0,5824151.29489,678.78082948,647.259921618,66977348.864,1687.69907348,37137436.6353,70983674.6422,4342.18641579,4333.55466071,0.0
1.02023005952,0.91562632455,9.83189821769e-06,-73090945.3261,1.41477110139e-05,0.0,5938458.83713,677.926381692,645.637631654,67288860.1743,1655.65016784,51771106.4248,70990349.4808,4234.97497707,4227.77974538,0.0
1.0906100768,1.05953383248,9.96174924726e-06,-26026153.2156,1.55093141252e-05,0.0,5757665.67255,681.094231687,650.156669963,66829746.3355,1748.03914827,36272411.9362,69296694.996,4527.1224288,4518.47433601,0.0
1.0820195255,1.09050199822,9.87402506635e-06,-29289668.5614,1.44960148874e-05,0.0,5786917.55025,680.712980163,649.659798442,66904146.7422,1736.77621637,35673195.3003,69383183.5712,4491.46305035,4482.9489457,0.0
1.23956023763,0.894109153463,9.80738286354e-06,17314417.0732,2.88172432284e-05,0.0,18785045.4636,690.361583433,659.539084459,64938758.3565,1928.54695335,61896586.022,66968659.8047,5145.4145464,5133.30824796,0.0
1.11196509007,0.987610457058,1.01034928246e-05,-16850961.2176,1.79285581098e-05,0.0,5632284.24016,682.311807226,651.506735196,66444225.1675,1773.24961954,40397409.1523,69143079.8722,4615.76708888,4605.90296143,0.0
1.1678167241,0.902888163465,1.00539159735e-05,837156.775024,2.29132968306e-05,0.0,5445362.47975,685.804362692,655.107563564,65880506.2565,1843.9352375,50266176.7639,67578544.7836,4847.60722174,4837.01322649,0.0
1.06898011124,0.750702368128,1.0195078494e-05,-33235119.0429,1.7766727153e-05,0.0,5778703.56161,679.711746707,648.700166351,66862906.245,1719.22918712,34881453.6997,69664630.671,4437.33644176,4428.83404239,0.0
1.14083462398,1.10587342018,1.01803577375e-05,-9210845.09004,1.91366757762e-05,0.0,5602197.3915,683.899666388,653.347883077,66386878.9984,1812.82192054,44761707.9229,68185637.1049,4735.60452414,4726.24446349,0.0
1.15235569312,1.03012296224,9.85412669881e-06,-6609057.80113,2.08300886097e-05,0.0,5572897.35102,684.888635135,654.124149964,66307400.6615,1827.73177659,46484741.5214,68786867.3968,4783.42848214,4773.88216997,0.0
1.13864612534,1.03588749962,1.0554226532e-05,-7186410.7967,1.89098189937e-05,0.0,5557094.87518,683.375239173,653.077174355,66195256.1646,1807.81315549,45774403.2291,68411413.5505,4726.52006629,4716.56698069,0.0
1.06750666982,1.02850032751,9.8576377998e-06,-36054427.816,1.4295897093e-05,0.0,5813901.78848,679.80199276,648.628589347,66973135.8668,1717.27536603,34685857.9299,70189803.0542,4431.22018642,4422.74058655,0.0
0.966668277834,1.02522940326,9.89007522258e-06,-94248089.2575,1.34434739897e-05,0.0,6027160.43453,683.679346679,642.197337976,67449131.6552,1612.49877073,69250141.0469,69478831.5774,4012.64002129,4005.53935165,0.0
0.954486015554,0.743098008028,1.0077268095e-05,-93642941.8675,1.54286016878e-05,0.0,6067103.71272,685.233863445,641.42052605,67572909.4708,1611.50199914,68717469.2562,68939271.4541,3962.07145056,3955.7796306,0.0
1.12760630772,1.11588493228,1.03205736915e-05,-12175088.3317,1.76448629901e-05,0.0,5600399.28338,682.955403198,652.43074681,66357943.8264,1794.03022705,42950770.0216,67313572.2388,4680.69378335,4670.85873486,0.0
1.04485031419,0.859111907913,1.01448628528e-05,-48551443.1243,1.54778733649e-05,0.0,5815513.69007,678.58754739,647.179940471,66952022.1047,1686.18289059,37005429.9268,70820347.3176,4337.1736542,4328.5614429,0.0
1.04090734624,1.04637721437,1.00055987817e-05,-52451238.1874,1.35521312681e-05,0.0,5841336.93396,678.453079438,646.929680526,67021605.2354,1680.79449468,38625085.589,70904829.5886,4320.80639424,4312.25787092,0.0
1.09404490878,0.943088892243,9.90524913428e-06,-25029355.1004,1.71570149252e-05,0.0,5742177.74825,681.380227853,650.373693764,66785107.0099,1752.62329626,36564933.6482,69193224.7233,4541.38041635,4532.67851049,0.0
1.06746794496,1.00842652236,1.01208679611e-05,-34248204.0678,1.47128371333e-05,0.0,5802355.42398,679.601269543,648.62624639,66931250.2028,1717.04550065,34754566.0359,69920045.0298,4431.05943953,4422.58074028,0.0
1.12162674432,1.01865573647,9.91593920174e-06,-14382721.7161,1.82337199677e-05,0.0,5605139.08674,682.994749429,652.091604518,66368491.1303,1785.50673567,41640977.082,68282296.1322,4655.87261567,4645.74458377,0.0
1.15420599385,1.10899586702,9.90945371815e-06,-5763438.62197,1.95137584183e-05,0.0,5535809.8917,684.970771822,654.233282288,66199492.2554,1828.34153058,46625955.1095,68610490.6959,4791.10908047,4781.00166415,0.0
1.20929592814,1.02730154876,1.05666588694e-05,11310055.0271,2.46080963783e-05,0.0,12549143.1287,688.003182617,657.650843296,65196592.5607,1891.96237822,56900506.5151,66196404.6989,5019.78739771,5008.007148,0.0
1.02788429828,0.932707123007,1.01132341806e-05,-63452895.1936,1.44170471292e-05,0.0,5852316.86133,677.908109006,646.084235068,67035985.2794,1663.21879997,44872122.6475,70918752.5852,4266.74772216,4258.32094038,0.0
1.15739426654,0.94973749523,9.48670210577e-06,-4236984.52072,2.17777851308e-05,0.0,5507065.06356,685.522251324,654.429587326,66101994.5207,1831.70964787,47909911.942,68381395.6674,4804.34360041,4793.85952531,0.0
1.08114247678,0.897699105833,1.01061079283e-05,-28802431.9092,1.6816628325e-05,0.0,5766517.09108,680.588184659,649.611094151,66843411.7658,1735.77219859,35653155.8045,69265011.2166,4487.82242111,4479.32194766,0.0
1.20122632976,0.999298804279,9.93859337315e-06,9086727.67874,2.34970788742e-05,0.0,10536904.2702,687.88759875,657.177364114,65423765.603,1882.93121178,55363690.9557,66799835.2797,4986.29049483,4974.68184645,0.0
0.983392815714,1.16781553037,1.05586968498e-05,-94801843.8899,1.19347063273e-05,0.0,5939778.08444,679.198591292,643.259923302,67216557.116,1606.48981618,69737894.1904,69977757.1067,4082.06357803,4074.10276431,0.0
1.03870935059,0.87533456637,1.00208307206e-05,-52275778.379,1.49691576026e-05,0.0,5829911.68063,678.388904178,646.773172989,66984225.2621,1677.53173069,38434528.7506,70947037.1796,4311.6825143,4302.99441372,0.0
1.17351516377,0.787811941125,9.76496776188e-06,1746883.76141,2.53430289505e-05,0.0,5432904.8608,686.389049616,655.462009362,65868246.5437,1851.66060331,51074590.1301,67462031.7363,4871.26144481,4860.67455391,0.0
1.02448704637,1.04596414958,1.01922596982e-05,-65945860.1255,1.33204325915e-05,0.0,5863931.3313,677.691990004,645.870125343,67067691.3429,1658.61778474,46555681.9279,70920264.063,4252.64572948,4244.27357824,0.0
1.0297770612,1.02363183501,1.00730808604e-05,-60687888.0441,1.3417960371e-05,0.0,5860148.51701,677.966769581,646.221793268,67062479.668,1665.85574775,43103598.6181,70902948.3139,4274.60458104,4266.14698259,0.0
1.12884710213,0.914692351367,1.00396261884e-05,-12060693.5229,2.03775911584e-05,0.0,5590101.02271,683.313034375,652.513441134,66339760.3933,1795.74645129,43104592.1144,67330533.514,4685.84432094,4675.9887008,0.0
0.959778258397,0.823078120378,1.00393309681e-05,-93876588.6934,1.50190626646e-05,0.0,6058976.02156,684.629819634,641.761413277,67558893.1553,1613.44228488,68923174.8347,69147346.1855,3984.03955061,3977.67647394,0.0
1.13541025073,1.13579434727,1.00159390362e-05,-9809034.03184,1.77553333075e-05,0.0,5606250.24509,683.690947193,653.033871525,66400826.4473,1804.55131121,44679592.435,67938941.7248,4713.08795078,4703.42931252,0.0
1.22762951302,1.25932512404,1.04667008564e-05,15061059.5654,2.22300905937e-05,0.0,16478018.8837,689.118248833,658.840780854,64994559.4512,1912.16503874,60067770.1355,66644307.9801,5095.89010855,5083.54242036,0.0
1.13242791472,1.11874514124,9.66906751806e-06,-11877729.4582,1.74945997362e-05,0.0,5631007.44492,683.7551714,652.834320285,66477600.2215,1801.07966062,43306488.3571,67546399.1791,4700.708274,4691.07107954,0.0
0.934173066342,1.06064827271,1.00748726191e-05,-92886616.8031,1.25057437994e-05,0.0,6129658.06304,687.695119305,640.112289423,67721486.5513,1604.56726416,68051527.4197,68263493.1494,3877.75239839,3871.73069343,0.0
1.10360534158,1.04478444011,1.02469181342e-05,-19232407.8091,1.67351707092e-05,0.0,5637546.13165,681.74071829,651.00610822,66452964.2366,1761.45336939,39112742.028,68685832.9185,4581.0657729,4571.06071316,0.0
1.04271827828,1.24715076616,1.03166227268e-05,-48653713.4502,1.18168198742e-05,0.0,5835521.3896,678.192092936,647.041877584,67008741.7432,1682.89362419,36971672.3386,70876093.5303,4328.32357314,4319.65761346,0.0
1.21531518254,0.797434721599,9.89368867058e-06,12137688.3532,2.89129762611e-05,0.0,13413393.237,688.909838395,658.049785234,65236336.4515,1901.08890404,57679474.7233,66315171.5349,5044.77332272,5033.23073591,0.0
1.17282514172,1.00074986757,9.95348545634e-06,1771782.45518,2.13734037942e-05,0.0,5419462.15341,686.126649683,655.402696848,65806745.9714,1849.23458911,50902207.2842,67067641.1575,4868.39716328,4857.39987175,0.0
1.12308993676,0.876188395952,1.00313526021e-05,-13610787.2331,2.03265344342e-05,0.0,5605111.43113,683.058978297,652.205666402,66376584.4137,1788.40711763,42221721.7945,68082362.9561,4661.94632749,4652.18794002,0.0
1.01992589005,0.878328519145,9.57330253218e-06,-74902660.721,1.47952653337e-05,0.0,5883954.99126,678.326628074,645.598608097,67106921.6299,1652.25828854,53172762.8475,71023888.2512,4233.7123696,4225.32866109,0.0
1.12272513752,0.892401663014,1.03429409204e-05,-13330517.6291,2.03656454297e-05,0.0,5593618.1728,682.842041473,652.179938041,66328431.8909,1788.00473878,42316606.2503,67625824.133,4660.43204585,4650.67846555,0.0
1.03229864348,1.04535122631,1.03523115125e-05,-57093127.3338,1.34912702554e-05,0.0,5837782.16305,677.792005846,646.369801609,67000907.6305,1668.80255562,40969853.3449,70769777.0006,4285.07166909,4276.48736829,0.0
1.14105532798,0.59943269151,1.01041116124e-05,-8089534.79634,2.67162502095e-05,0.0,5515706.64989,684.167406378,653.257322112,66101809.1559,1811.82339401,45382213.9949,68188695.3994,4736.52066644,4726.47258599,0.0
1.18458491442,0.739731696704,9.67374036633e-06,4375435.66163,2.73322826784e-05,0.0,6216981.42207,687.176941464,656.128192176,65703030.7706,1865.07014205,52518498.7459,66994497.8742,4917.21197976,4906.31784058,0.0
1.15527240515,1.12031206531,9.62962195014e-06,-5214154.47437,1.93551131664e-05,0.0,5581376.75206,685.145883831,654.317471851,66350440.636,1831.15812213,47448331.3668,68848998.865,4795.53575378,4785.93171105,0.0
1.10909430387,0.967642581887,1.05180308667e-05,-15082068.9801,1.72004283601e-05,0.0,5610086.50474,681.82573686,651.300517987,66341377.4412,1768.58599068,41067608.5867,69158499.1247,4603.85045536,4593.71854819,0.0
1.14459732853,0.885524978546,1.01160322613e-05,-8403230.91285,2.3006161582e-05,0.0,5580484.80248,684.221219519,653.541930185,66332521.8411,1818.23074639,45203622.6609,68332258.4685,4751.22351073,4741.90918775,0.0
1.10124805127,0.758574611353,9.93152681632e-06,-22290454.6006,2.02156329796e-05,0.0,5707899.15169,681.952026995,650.905473734,66690419.9738,1762.36360452,37400922.5367,68579169.2618,4571.28066082,4562.4650925,0.0
1.27054710692,1.04167073949,9.95323519442e-06,23127256.7838,2.85475381375e-05,0.0,25011058.0209,692.241197623,661.527487287,64411730.6159,1962.15042971,66314447.2488,67247977.2637,5274.04104082,5261.05515882,0.0
1.21430263481,0.937477370534,1.00262180433e-05,12032593.939,2.59021104526e-05,0.0,13306433.1157,688.646067489,657.985895278,65309088.4239,1899.57693698,57610471.1786,66378755.7323,5040.5702371,5029.08078888,0.0
1.12929304109,1.10388878464,1.01174517717e-05,-12151751.8946,1.77591897015e-05,0.0,5600724.64904,683.303962506,652.620442555,66356866.4224,1796.26754019,43034511.0595,67356161.3679,4687.69541356,4677.83183122,0.0
1.17758461901,0.81345010171,9.8249355781e-06,2542024.93877,2.51252788566e-05,0.0,5382895.42773,686.642412359,655.692360363,65698381.8441,1855.6312964,51323236.5857,66929351.9412,4888.15375351,4877.06970979,0.0
0.982337699206,1.10133879955,1.04940619626e-05,-94758353.1049,1.25074153685e-05,0.0,5941102.67009,679.560206674,643.192685896,67217723.5741,1606.97301327,69699639.6317,69939201.1248,4077.6837894,4069.74204495,0.0
1.06856302644,0.949034372881,9.76177693722e-06,-35957068.9235,1.51670198109e-05,0.0,5809555.03004,679.966324422,648.697422391,66960540.9413,1718.71055444,34694759.742,70198777.8871,4435.60512275,4427.11043945,0.0
1.24807213668,1.04805089675,9.90553355089e-06,19384444.4202,2.68255679342e-05,0.0,20962597.5728,690.759617027,660.099420227,64932971.9006,1938.42831443,63605373.332,65535971.3174,5180.74743936,5168.72013593,0.0
1.19924629931,1.00396737939,1.03729453688e-05,8940463.41147,2.38161139327e-05,0.0,10290417.1784,687.471899049,657.056972245,65467230.3578,1881.40031329,55149135.8275,66741612.0726,4978.07138844,4966.93757083,0.0
1.16958872892,0.865389915075,9.53614023697e-06,76998.8419682,2.30182289147e-05,0.0,5454160.37939,686.275681168,655.223987877,65929921.1572,1846.46021896,50186598.5878,67858539.6924,4854.96281375,4844.23100713,0.0
1.10378391706,1.05302369438,9.61441081829e-06,-22282465.9707,1.62475031426e-05,0.0,5731805.45752,682.177580034,651.06803681,66757008.9705,1765.07012571,37543656.8139,68729203.3363,4581.80703972,4572.85056268,0.0
0.963260121545,0.832959103961,9.62832275965e-06,-94102557.2256,1.49557730766e-05,0.0,6039532.72744,684.978966424,641.980532932,67484302.6987,1614.67427657,69122052.4581,69350322.2671,3998.49276453,3991.47339616,0.0
1.09697138749,0.635941046117,1.01230439179e-05,-23301720.461,2.21755344822e-05,0.0,5698802.19008,681.612963278,650.613184528,66645119.3972,1756.73240247,36975746.8924,68908556.1437,4553.52822947,4544.78036726,0.0
1.11575975272,0.801187481838,1.02209757027e-05,-15385870.4251,2.0776037922e-05,0.0,5622012.10514,682.47918593,651.716059584,66427258.1032,1779.13772522,41057285.6797,69096509.0924,4631.51873354,4621.98152511,0.0
1.07460388581,0.99277596663,9.74926704605e-06,-32781361.0234,1.5112208199e-05,0.0,5808639.94542,680.22263463,649.042159843,66966964.2352,1727.11947203,34982229.9617,69877880.1092,4460.68073,4452.28159728,0.0
1.05968877495,0.917291524852,1.02145745974e-05,-38571793.096,1.53361544146e-05,0.0,5815449.06311,679.156518695,648.121146354,66963091.5981,1707.33668359,34703956.1922,69840195.5587,4398.76810482,4390.50346079,0.0
0.932860749432,1.00535776606,1.02071025362e-05,-92588435.6978,1.34387083086e-05,0.0,6086973.65729,688.027643897,640.015972069,67581185.6527,1604.09829462,67789251.0596,67998328.1941,3872.30497089,3865.69196202,0.0
1.10662866985,0.986184187528,9.92846094174e-06,-17595581.8513,1.71694688015e-05,0.0,5706273.43557,682.06722036,651.222377703,66671091.8763,1768.06892652,39925144.787,68975951.6579,4593.61560855,4584.5445715,0.0
1.11670615211,1.19408292885,9.81631369211e-06,-17789084.4376,1.56390048971e-05,0.0,5695111.77203,682.67090164,651.822075731,66655401.2235,1781.71418061,39923676.2063,69288528.0113,4635.44723741,4626.2845605,0.0
1.2596118502,1.08496659982,1.01131073543e-05,21291506.537,2.79212334949e-05,0.0,23273517.7798,691.453427009,660.818887053,64591165.3554,1950.18639976,65092241.9053,65934382.4483,5228.64879018,5215.92134762,0.0
1.27062336139,0.870852850091,9.79526370474e-06,23200658.1985,3.21729956514e-05,0.0,25149735.3027,692.470028142,661.535278657,64365358.3688,1962.96238944,66343070.1406,67306089.7155,5274.35757313,5261.42691516,0.0
1.18413960149,0.817996924243,1.02527531948e-05,4736377.52255,2.61886529342e-05,0.0,6295692.46915,686.757224186,656.083695808,65586352.644,1863.76351585,52370362.0626,66691912.351,4915.36348579,4904.37520897,0.0
1.01138516845,1.06399117534,1.03015375736e-05,-77387852.6949,1.29441664086e-05,0.0,5894514.66367,677.429063141,645.049342035,67120970.4473,1641.27921932,55096171.2974,70572619.794,4198.25983424,4190.18103825,0.0
1.15141490171,1.04225332065,9.9615487738e-06,-5429652.56316,2.04302972083e-05,0.0,5550693.1704,684.760817432,654.061048893,66238084.2772,1825.24358821,47082754.3301,68721940.6574,4779.523257,4769.67686693,0.0
1.1862070982,1.05117892516,1.020154098e-05,5320796.96697,2.183422653e-05,0.0,6922360.28808,686.721270281,656.22560721,65710303.333,1866.34506442,52853851.2122,66944628.0038,4923.94566463,4913.15315774,0.0
1.0822966131,0.896034212975,9.42607491839e-06,-30010020.3767,1.6264445432e-05,0.0,5790581.71011,681.051444122,649.626429601,66913670.9945,1737.06324279,35596222.7284,69502927.0149,4492.61324098,4483.99823985,0.0
1.10973216645,0.936462071161,9.82607502253e-06,-17842093.5281,1.79151685215e-05,0.0,5671353.17059,682.398670417,651.404898797,66567208.4134,1771.50774184,39771529.5678,68964296.7029,4606.49822293,4596.9634111,0.0
1.0213532743,0.892268431629,9.71525377524e-06,-72987317.6241,1.43850564968e-05,0.0,5939315.74586,678.080718998,645.71653872,67291789.3747,1657.16375867,51694440.1328,71054259.3594,4239.63744162,4232.42623023,0.0
1.19079679193,0.786605425954,1.03519957805e-05,7139208.68627,2.7622769318e-05,0.0,8594181.11569,687.178399399,656.551826498,65447601.3884,1871.37593397,53738260.3808,66456095.5963,4942.9974833,4931.89848462,0.0
1.10545788529,0.674290989905,9.88266678342e-06,-19039875.2152,2.15732092054e-05,0.0,5655247.20236,682.285404722,651.151590301,66512691.7237,1766.18290462,39162491.6007,68628128.2119,4588.75568184,4579.29135183,0.0
1.08600627656,1.09341998665,9.7572121241e-06,-28244656.1971,1.46509706104e-05,0.0,5781485.88459,681.029707441,649.924761835,66891833.2221,1741.99970393,35871303.3348,69418433.372,4508.012054,4499.43587398,0.0
0.999043116454,1.00663907693,9.48374986253e-06,-95807031.0779,1.36112361481e-05,0.0,5995969.52358,679.694751056,644.287356728,67409431.8738,1626.68983243,70622684.8885,70865168.6898,4147.0279764,4139.95284338,0.0
1.11459160171,1.1040433976,1.00838005999e-05,-16361500.245,1.64855091297e-05,0.0,5611508.92229,682.402117039,651.632824753,66381424.2364,1775.53833774,40496856.4681,69292742.7995,4626.6697387,4616.39237356,0.0
1.13924177904,1.08445023409,1.02382196525e-05,-9573355.12211,1.90199671008e-05,0.0,5578607.67719,683.812092237,653.24891949,66325555.2118,1809.79297251,44583927.4517,68076199.0047,4728.99262479,4719.26691563,0.0
1.09282154463,1.05112481997,9.94086436992e-06,-25336981.0086,1.57701104731e-05,0.0,5752211.70219,681.23614271,650.295631669,66814414.2416,1750.939987,36448565.9793,69234729.9239,4536.30223176,4527.61875445,0.0
1.09906612661,0.874875679603,9.67645175433e-06,-23608360.2435,1.80278277251e-05,0.0,5729795.04196,681.901615162,650.731684005,66743607.91,1759.05900888,37013940.8134,69245594.2165,4562.22349156,4553.34366154,0.0
1.0349376204,1.12979653558,1.01956742735e-05,-55132040.9824,1.25507577615e-05,0.0,5851362.5847,678.000356212,646.549910385,67042054.5902,1672.63656378,39914118.3997,71027287.3877,4296.02606228,4287.48507589,0.0
0.993799158028,0.591173170009,1.0078807447e-05,-95239718.9479,1.74023727174e-05,0.0,5893623.65276,679.125177215,643.928084878,67084411.935,1616.90724001,70123437.2735,70377219.1319,4125.26030497,4117.05256505,0.0
0.997016142546,0.97413652939,9.99191305019e-06,-95484368.4021,1.38543543297e-05,0.0,5913565.60931,678.786977962,644.13556212,67150412.9502,1620.91957085,70338869.7484,71056931.6366,4138.61400771,4130.35411899,0.0
1.05438989759,0.999264269765,1.00454722944e-05,-41953054.0719,1.44475789104e-05,0.0,5806296.10894,678.980079425,647.755067391,66932608.7462,1698.30494807,35142895.0686,69942495.2976,4376.7724649,4367.97218709,0.0
0.908729626757,0.97217180601,9.77308655805e-06,-91653805.0766,1.37392494053e-05,0.0,6172157.06397,692.387114997,638.4673562,67808287.5626,1603.12717391,66966596.4453,67808287.5626,3772.13668067,3766.15525941,0.0
1.22690792689,1.18099794052,9.65629972673e-06,13960643.4734,2.18909156432e-05,0.0,15440301.2868,689.521405995,658.812012424,65268964.115,1913.95782119,59286601.9712,66735316.8122,5092.89480452,5081.02208114,0.0
1.06785728705,0.849089555418,9.6847676697e-06,-34812159.7112,1.6049412119e-05,0.0,5801427.69006,679.998490521,648.646698883,66922086.7959,1717.07857151,34779683.0684,70213448.2274,4432.67559854,4424.00551996,0.0
1.14598174419,0.925457492569,1.03181998407e-05,-7560982.43804,2.26980110032e-05,0.0,5569067.27783,684.223039169,653.689199882,66303381.4017,1819.8386863,45567335.6769,68489774.6682,4756.97022013,4747.63542692,0.0
1.02495393877,0.973520507416,1.00073284045e-05,-65647170.7762,1.37588308017e-05,0.0,5921629.45604,677.812672247,645.92458018,67252509.2612,1661.96014251,46387441.7705,70939443.8778,4254.58379983,4247.32126087,0.0
1.15621861906,1.01332674332,1.00292211454e-05,-5403459.72884,2.18084695235e-05,0.0,5553287.44399,685.097953241,654.417355959,66261911.972,1832.85361684,46932088.5308,68547395.7593,4799.46348772,4789.96264087,0.0
1.11436522709,0.740948700376,9.90780900774e-06,-16243929.1948,2.14265000313e-05,0.0,5604391.75244,682.717529389,651.643760802,66367661.7372,1776.4716205,40598759.1284,69196534.5127,4625.73005765,4615.72797202,0.0
1.04525686698,0.699479360491,1.00555947706e-05,-49944893.3041,1.7125760123e-05,0.0,5856845.40076,678.631191188,647.222498908,67087509.1857,1689.24200259,37556404.4553,70676214.9459,4338.86125483,4331.30786402,0.0
0.983568967266,1.12925880064,9.77967015164e-06,-95069539.6949,1.23140420293e-05,0.0,6015642.63342,681.207310596,643.289429952,67441199.2319,1616.07035111,69973276.8463,70214008.5788,4082.79478312,4075.68976601,0.0
1.1482639036,0.868511805746,9.73915960128e-06,-7693847.79863,2.27657731677e-05,0.0,5541467.79931,684.786582974,653.795679997,66205772.8111,1821.28893284,45721017.3323,68553060.4625,4766.44346384,4756.43666723,0.0
1.19076785971,0.995198155252,1.02310309183e-05,6635331.91335,2.31066312302e-05,0.0,8134977.5391,687.099914862,656.53913506,65516916.1896,1870.66430413,53484026.7253,66591256.459,4942.87738566,4931.57347252,0.0
1.05834674845,0.933762554149,9.85481569834e-06,-41233301.1814,1.4990078001e-05,0.0,5811107.94055,679.361268318,648.006050362,66949829.5747,1704.35702967,35036618.0374,69671522.3998,4393.19735282,4384.51379494,0.0
1.15665450846,0.766489732289,1.03335569668e-05,-5400911.66588,2.66001282177e-05,0.0,5413587.55963,685.255938158,654.40814022,65801940.3087,1830.4813274,46320316.9771,67642768.8959,4801.27286462,4790.48956528,0.0
1.10276857449,0.734900830872,9.68007468607e-06,-22333836.676,2.04342213829e-05,0.0,5706069.19397,682.231611383,651.001818703,66677280.5791,1764.04920119,37455304.4919,68709967.3889,4577.59235271,4568.65206067,0.0
0.9888342214,0.659492128279,9.90055481323e-06,-95322775.8044,1.60447466778e-05,0.0,5974255.68468,679.796787568,643.627725299,67318259.7278,1613.3272118,70196362.1305,70442661.227,4104.65085303,4097.4759192,0.0
1.04465481013,1.01240301491,9.68272667616e-06,-50563652.6654,1.37969417278e-05,0.0,5837969.64843,678.86142344,647.142996576,67015486.5499,1685.28585315,37837645.0118,71117705.7235,4336.36211685,4327.57664353,0.0
1.17140170707,1.029639953,9.63240455784e-06,610509.31326,2.04136928663e-05,0.0,5461404.83813,686.212061014,655.33483579,65956086.1533,1848.39234495,50438359.5549,67789356.736,4862.48848605,4851.724826,0.0
1.16106587258,0.979398872746,9.85953035602e-06,-2765133.81077,2.08029460708e-05,0.0,5459762.94017,685.545527925,654.685473976,65945745.7706,1834.97004621,48304149.9054,67781358.651,4819.58443708,4808.69160672,0.0
1.17822913783,0.995168195927,9.8419801276e-06,2646305.69702,2.17580236187e-05,0.0,5403423.75357,686.53446949,655.73224226,65763171.8411,1856.11438454,51384523.1924,66984722.6803,4890.82915113,4879.73354919,0.0
1.234363481,0.766392029296,9.7604669575e-06,16266809.1011,3.13319109451e-05,0.0,17758655.9527,690.243432029,659.283020565,64958822.4641,1922.98486751,61108734.9285,66725327.6093,5123.84280963,5111.8860526,0.0
1.13137545722,0.941996478746,9.85644093249e-06,-10964380.0012,2.013488711e-05,0.0,5609324.66288,683.649774175,652.772370774,66396768.1574,1799.62193083,43916333.0969,67576241.5524,4696.33952292,4686.72297954,0.0
1.13553959813,0.749335483906,1.02647827758e-05,-10684145.2003,2.46964875199e-05,0.0,5591763.79882,683.737716394,653.052987299,66358077.8048,1806.80865679,43847755.915,67810537.0052,4713.62487184,4704.48135138,0.0
1.17810541071,0.704898241163,1.00199063171e-05,3030159.22259,2.80132668717e-05,0.0,5352145.36151,686.656643664,655.71628771,65610058.8025,1856.30128605,51484338.8157,66838156.4209,4890.31555986,4879.22217709,0.0
1.03136191602,0.830314977799,1.01698401582e-05,-58317521.3548,1.51425897757e-05,0.0,5842045.55691,677.993323613,646.312465393,67008581.2461,1668.08789665,41678123.6137,70937841.395,4281.1833134,4272.70014095,0.0
1.199405688,0.911910712618,9.89721250429e-06,8163939.82704,2.51374049727e-05,0.0,9625376.63175,687.925421766,657.069465697,65355263.6231,1880.71965657,54680272.713,66587970.3892,4978.73301089,4966.93861342,0.0
1.08155770392,0.835061634155,9.9070188074e-06,-29294356.6747,1.74772604275e-05,0.0,5769411.81025,680.769083968,649.628934332,66850026.3289,1736.3722417,35635707.2612,69316598.6051,4489.54602897,4481.03910313,0.0
1.04914005146,1.0758791104,1.00610565726e-05,-44098575.1821,1.32323004463e-05,0.0,5841968.24873,678.689588356,647.455802532,67029401.6955,1692.28024175,35625246.4078,70577965.8293,4354.98035361,4346.60655309,0.0
1.21119875006,0.734841326112,1.03615538956e-05,11727897.861,3.11993300073e-05,0.0,12979591.4368,688.506439653,657.776567987,65057397.5123,1894.99003795,57236054.5305,66083616.7228,5027.6860115,5015.89147775,0.0
1.00150560021,0.872031338423,9.99449367797e-06,-95853113.8388,1.47272737163e-05,0.0,5896418.81374,678.405466438,644.42153507,67104888.2896,1626.96980847,70662238.1559,70662238.1559,4157.24974647,4148.91685918,0.0
1.03114912963,1.12388965168,1.00050872853e-05,-60830144.478,1.26177936495e-05,0.0,5867434.00337,678.05241194,646.311562336,67087332.3162,1667.80609532,43208310.0629,70957134.0112,4280.30003709,4271.9069494,0.0
1.09175489513,1.29102981948,9.66625411716e-06,-26198507.1323,1.28748237582e-05,0.0,5758493.03858,681.334557611,650.253879043,66825657.142,1748.21919512,36222578.9149,69241856.4902,4531.87456968,4522.72347673,0.0
1.24201727969,1.13205193487,9.92676092452e-06,17498277.9735,2.43433289408e-05,0.0,19107169.0335,690.377166499,659.723857232,64889587.9156,1930.20120045,62050252.1994,67045773.47,5155.61372799,5143.12029139,0.0
0.96857583531,0.973990871872,1.02143418451e-05,-94296992.873,1.35123755555e-05,0.0,6025959.76387,682.405642882,642.323214188,67461507.6969,1609.9130588,69293186.0019,69524081.5376,4020.55829237,4013.74985171,0.0
1.00067673781,0.917711110173,1.03164072309e-05,-95667906.8876,1.44156560596e-05,0.0,5890463.18405,677.929476716,644.366645387,67091967.393,1626.09210867,70500472.7684,70536904.7786,4153.80913865,4145.57112995,0.0
1.24202140106,0.87802057359,9.72815688051e-06,17765723.6129,2.93394092818e-05,0.0,19322709.7382,690.432518272,659.587119749,64915522.6766,1931.59838289,62307265.4963,67008625.5321,5155.6308358,5143.4740948,0.0
1.05434308587,1.01770427042,1.05397348246e-05,-38800212.4367,1.41049597988e-05,0.0,5817880.33176,678.558819133,647.771666611,66961380.1341,1699.72048466,34668009.5154,69668885.8238,4376.57814945,4368.30545362,0.0
1.08934138256,0.905738195758,9.98641219315e-06,-26337948.1265,1.72599150953e-05,0.0,5749347.99169,681.107587674,650.107295271,66801999.6136,1746.50783758,36167021.2204,69272025.6019,4521.85607901,4513.22782815,0.0
1.0249054342,1.18843438668,1.01801587415e-05,-65636382.4817,1.21267635707e-05,0.0,5871680.41312,677.663149655,645.899120699,67092102.4228,1659.08590494,46353689.6362,70976184.0551,4254.38245736,4246.00224722,0.0
0.970926679222,1.0605292415,1.01988501192e-05,-94332344.2501,1.32229496614e-05,0.0,6036394.90495,682.608694865,642.477530981,67511059.5437,1614.70240555,69324394.4535,69554988.2328,4030.31664545,4023.80232802,0.0
1.0565577604,1.14601331183,1.04019045795e-05,-39334239.2087,1.29272662381e-05,0.0,5829721.64889,678.758451728,647.91852146,67002814.6189,1703.03206483,34766731.605,69685207.9159,4385.77126342,4377.5563204,0.0
0.986601873019,0.868255774863,9.98896011739e-06,-95027813.7764,1.45929249426e-05,0.0,5932599.78461,680.221470567,643.467909816,67195256.8055,1611.53213583,69936845.873,70180295.1185,4095.3843749,4087.29302074,0.0
1.09839102637,1.01215664945,9.58091110244e-06,-24127867.9304,1.63113293295e-05,0.0,5745851.27756,681.848533804,650.671411502,66803197.7016,1758.06357579,36869730.8621,69290483.5477,4559.42115046,4550.55204486,0.0
1.18706778211,0.970671570972,9.82453553438e-06,5045235.12386,2.28289821491e-05,0.0,6724833.50818,687.056509102,656.275477237,65731306.1522,1867.53761045,52911093.174,67040174.9622,4927.51836354,4916.57374343,0.0
1.0954045154,1.06460700022,1.02980669818e-05,-23606233.6589,1.61879220386e-05,0.0,5735468.02498,681.187393348,650.506490777,66764772.0454,1754.63169334,36890857.7381,68937957.5608,4547.02414343,4538.39974441,0.0
0.986475562558,0.980651647051,9.43712745152e-06,-95253776.0747,1.36784839016e-05,0.0,6011074.23851,681.608151172,643.477741728,67423390.3516,1618.82945292,70135493.3928,70378697.0491,4094.86006018,4087.63113212,0.0
1.15159620273,0.834221414271,1.00124022298e-05,-6722776.80838,2.45488044709e-05,0.0,5555563.8537,684.850930885,654.081860906,66262367.4528,1827.21173318,46261716.1763,68667367.8329,4780.27583753,4770.84936114,0.0
1.07503438613,1.02584973184,1.03104208346e-05,-30492880.6941,1.51968878522e-05,0.0,5776190.49861,680.01293833,649.190060284,66861067.8661,1727.3169285,35285987.4606,69249886.1392,4462.46773683,4453.96517228,0.0
1.03189200254,1.06000610082,9.59197215442e-06,-61260072.6762,1.30910248114e-05,0.0,5925211.04997,678.397592796,646.381343875,67270163.523,1671.0701366,43462002.9647,71215725.1698,4283.38370254,4276.02182454,0.0
1.14089427576,0.968816137073,9.79171473571e-06,-8809784.53922,2.0511366684e-05,0.0,5588947.87642,684.234699861,653.369809967,66355183.0298,1812.0905099,45387405.6825,68219078.9166,4735.85213868,4726.18179977,0.0
1.10817063888,0.94435267924,1.04931824494e-05,-17185419.1329,1.83619839746e-05,0.0,5649033.20119,681.829487869,651.282018448,66483789.3296,1769.48102122,40007629.6245,68942939.6381,4600.01632199,4590.60620097,0.0
1.0349510488,0.989600251865,9.84930275913e-06,-57511838.9766,1.38734964345e-05,0.0,5903462.93016,678.283202447,646.566447406,67213293.4178,1675.26782121,41273775.3435,71107880.4349,4296.08180357,4288.67594401,0.0
1.12521115453,0.961285828857,9.84944531559e-06,-13296895.5355,1.92748126732e-05,0.0,5634082.53269,683.249122808,652.354682981,66465666.2778,1791.87541613,42259528.4108,68326477.4257,4670.75150245,4661.25865618,0.0
1.10696274944,1.19458497005,1.01718854085e-05,-18381568.4682,1.50982804302e-05,0.0,5642757.36284,681.901668139,651.207777344,66472086.625,1765.6465585,39456298.2947,68890029.9396,4595.00237293,4584.93869221,0.0
1.13329577281,0.782727636465,1.02399589244e-05,-11290619.4156,2.37789650075e-05,0.0,5604334.26087,683.595669809,652.909695355,66392360.51,1803.90591165,43530123.9031,67660948.0082,4704.31075293,4695.20276103,0.0
1.20615566645,0.832121231781,9.98282059442e-06,10390233.1529,2.76258538444e-05,0.0,11771701.2602,688.179045772,657.450456453,65439792.5645,1890.77096905,56358921.6978,67063482.9001,5006.75217143,4995.68692592,0.0
1.13675555421,1.00822720893,9.92455395359e-06,-11841708.9984,2.00163135597e-05,0.0,5535652.15247,684.042115842,653.101802163,66176457.2184,1805.01679906,43278272.9064,67569279.4476,4718.67230553,4708.14277627,0.0
1.03100155942,0.924209785817,1.00494249639e-05,-60559570.2436,1.44043839359e-05,0.0,5854225.86186,678.082182419,646.301503432,67047120.6016,1667.75330492,43027541.6716,70926590.9049,4279.68747315,4271.29674787,0.0
0.8731836477,1.18127155141,9.6244847984e-06,-90225255.0726,1.08237170346e-05,0.0,6236621.74321,696.260780056,636.172189743,67975014.9361,1587.48977489,65709389.4669,67975014.9361,3624.5853216,3618.59093786,0.0
1.06625593891,1.03816389101,9.91479976373e-06,-36395573.7283,1.41532879865e-05,0.0,5815405.74153,679.688251024,648.547906569,66976362.5704,1715.63360018,34673411.844,70229339.847,4426.02840242,4417.56838452,0.0
0.988872714818,0.828237209176,9.91024468102e-06,-95132869.6913,1.49619569476e-05,0.0,5928064.31805,680.096809878,643.614096636,67183406.8991,1612.63976138,70029343.3324,70273903.8172,4104.81063921,4096.68250051,0.0
1.01860517921,1.00063890823,1.00381441036e-05,-70619184.2969,1.34789117538e-05,0.0,5896805.31056,677.749889099,645.516700913,67147112.4276,1651.43348176,49879935.7615,70847936.5879,4228.2300989,4220.26256586,0.0
1.08557897263,0.90355006844,1.01551387155e-05,-27360173.6394,1.713394329e-05,0.0,5757274.63053,680.788756825,649.885622307,66828582.32,1741.8672994,35935813.1356,69246312.7161,4506.23831539,4497.76616085,0.0
1.06031213696,0.922004847891,9.79740978812e-06,-38816558.0768,1.48493968943e-05,0.0,5794788.22722,679.526901428,648.142447745,66887776.6939,1706.01001107,34698851.8596,69840595.7495,4401.35568052,4392.27772307,0.0
1.04382938794,0.859698867797,9.66381894125e-06,-50998302.7334,1.52643370448e-05,0.0,5830507.5368,678.902858883,647.08781856,66990687.2398,1684.30239797,38009816.4,71054238.1288,4332.93578934,4324.16388331,0.0
1.27475726969,0.910953654848,1.01257778489e-05,24067000.593,3.26710879287e-05,0.0,25792723.6284,692.499348372,661.763277958,64270877.2576,1967.11186149,66920738.7515,67828448.3258,5291.51742648,5278.57674046,0.0
1.13867048415,1.05632719453,1.00770542838e-05,-10018858.9969,1.96065028997e-05,0.0,5610546.03876,683.908726098,653.253733104,66406003.3101,1810.18197052,44358859.2172,68012366.7865,4726.62117971,4717.29591795,0.0
0.96340283227,0.823798296362,1.01446420842e-05,-93916063.4422,1.50824510608e-05,0.0,6029691.57817,684.002831843,641.989448319,67474538.2551,1613.30962557,68957944.4708,69184033.4273,3999.08515675,3992.38030067,0.0
1.09499462837,1.03972245093,1.02149045446e-05,-23783775.0301,1.62770808065e-05,0.0,5733249.83531,681.217613359,650.469177874,66749595.3766,1753.75749484,36820747.5918,68961477.4788,4545.32270236,4536.6058933,0.0
1.11433631983,0.871415189165,1.02889932054e-05,-15859371.0983,1.97358789948e-05,0.0,5632084.00836,682.322864622,651.628418448,66437497.2836,1777.58977637,40729435.1634,69261794.9434,4625.61006361,4616.0971041,0.0
1.0399814812,1.13226427689,9.87996105049e-06,-52289598.0439,1.25574527938e-05,0.0,5848779.51263,678.461991383,646.859896929,67042746.7678,1679.01752557,38483862.4461,71038488.5814,4316.96312846,4308.25435853,0.0
1.17533428448,0.824852383249,9.61783039682e-06,1586514.27593,2.44888783188e-05,0.0,5388505.46013,686.64578335,655.563045841,65716074.7419,1852.49033883,50870503.1296,66958448.5503,4878.81261488,4867.57281763,0.0
1.16218813341,0.950882571269,9.42344505605e-06,-3333191.99112,2.24175309583e-05,0.0,5547244.41945,685.660146677,654.652864019,66255362.9984,1839.66958056,48528420.9655,68643201.1901,4824.24294178,4814.41764225,0.0
1.30245965439,0.952690117154,9.56331884431e-06,28041581.2739,3.32890888143e-05,0.0,29471511.1223,694.497709289,663.513640957,63982968.9525,1999.36235855,68977010.5714,70118686.0843,5406.51002537,5393.09879125,0.0
0.967645911203,1.00305808253,9.97052733751e-06,-94187225.8318,1.38164698729e-05,0.0,6003007.42874,683.475848581,642.255226098,67381752.5031,1611.92624831,69196671.0032,69426190.0518,4016.6981774,4009.29694813,0.0
1.10539797827,1.12335348316,1.0071544988e-05,-18882867.0352,1.55647480529e-05,0.0,5667776.91552,681.916331827,651.132621718,66541594.4879,1764.66259592,39229961.9789,68804331.2746,4588.5070078,4578.75590545,0.0
1.09373019795,0.888278102121,9.75392239796e-06,-25148609.3107,1.74633097745e-05,0.0,5742940.3738,681.494955168,650.353186152,66777977.7538,1752.06850666,36513193.7682,69245228.6701,4540.07405169,4531.27884248,0.0
1.08099100383,1.00247577333,1.00368542555e-05,-29118885.6099,1.55890931456e-05,0.0,5776754.49113,680.578884356,649.595699523,66873631.9089,1735.49876725,35634801.1052,69314676.5969,4487.1936569,4478.69553675,0.0
1.12237642537,1.02518687097,1.02836299263e-05,-13553127.4971,1.8453557014e-05,0.0,5609322.94309,682.783516063,652.1574765,66374618.8968,1787.45155503,42166799.675,67877765.4585,4658.98454171,4649.23775625,0.0
1.16323625662,0.726249650501,1.03827005114e-05,196914.723891,2.63941014574e-05,0.0,5397923.14096,685.493838091,654.807089588,65718341.7055,1837.54397854,49761341.6716,67374466.0458,4828.59370123,4817.7803339,0.0
1.03097920306,1.06015703736,9.86474007798e-06,-60259220.1562,1.3085473851e-05,0.0,5916876.5941,678.109490078,646.319836249,67247242.6701,1669.9260471,42935077.3404,70999200.0165,4279.5946719,4272.24589613,0.0
1.02892029031,1.05387863391,9.90693346395e-06,-61628515.1344,1.30997853084e-05,0.0,5920077.8151,678.005371901,646.187246138,67252550.4507,1667.18467013,43690223.8822,71054202.53,4271.04812508,4263.72886628,0.0
0.992086441397,0.948021978336,1.01651511736e-05,-95201548.7436,1.4151107566e-05,0.0,5919630.23083,679.105888559,643.819375268,67165791.636,1614.61209853,70089860.6056,70339872.7158,4118.15081824,4110.05105904,0.0
1.09974428706,1.09646402042,9.98169633733e-06,-22612358.173,1.56972447247e-05,0.0,5736317.75613,681.654967479,650.80391979,66776451.9486,1759.97191779,37315712.6694,68852344.354,4565.03853559,4556.24595201,0.0
1.12487210074,0.852473092398,9.74668958626e-06,-13883346.7253,2.07016027795e-05,0.0,5638941.88124,683.322361946,652.323972864,66485915.0631,1791.78041653,41966621.9476,68587162.8889,4669.34409017,4659.95838127,0.0
1.08302160782,0.996642323748,9.74390192796e-06,-29350800.9648,1.5617588027e-05,0.0,5783111.51674,680.898208861,649.722923729,66903483.5202,1738.16766102,35706847.0651,69398471.4285,4495.62269406,4487.09300397,0.0
1.10500181999,0.910860031332,1.03671648121e-05,-18140107.3777,1.83693746791e-05,0.0,5661437.18295,681.746773439,651.099559722,66533841.236,1765.14424247,39621666.8577,68800459.3027,4586.86255478,4577.50518353,0.0
1.09873979713,1.2067799756,9.78377121129e-06,-23668798.5161,1.42587434403e-05,0.0,5754838.81495,681.666497283,650.712710594,66827290.2787,1758.69716851,37011953.5523,69238801.6554,4560.86889789,4552.09310573,0.0
0.993546416992,1.14004544178,1.0205835142e-05,-95296436.4512,1.24164040299e-05,0.0,5926572.5469,678.736647297,643.912168886,67190021.6238,1616.36511702,70173373.1119,70427066.0208,4124.21117693,4116.08778701,0.0
1.00604194713,1.12265320709,1.00841634099e-05,-89332160.1151,1.24421940493e-05,0.0,5897920.15921,677.828499349,644.705011788,67117945.9158,1632.86017923,64985833.6196,70883847.9807,4176.08012254,4167.67341611,0.0
1.09307289518,0.788554925871,9.78505375512e-06,-25415071.8305,1.88831370301e-05,0.0,5741081.28899,681.491312826,650.320434824,66776829.4502,1751.64842751,36447168.9913,69295760.1361,4537.34558789,4528.65804562,0.0
1.09752288986,0.764477047819,9.80932036593e-06,-23884584.2373,1.96588010303e-05,0.0,5724848.35358,681.772607767,650.632594118,66733309.7192,1757.48652452,36897844.1568,69642816.0238,4555.81751581,4547.06087077,0.0
1.07286412331,1.05775902994,9.9387041562e-06,-33382394.448,1.43074692211e-05,0.0,5798856.62291,679.989779737,648.938374906,66928467.0168,1724.27603934,34925952.7224,69739762.9524,4453.45897586,4444.89676761,0.0
1.07176841066,0.889646377642,1.00190373151e-05,-32684655.3754,1.62317869267e-05,0.0,5787512.77621,679.920816822,648.86098127,66892258.9688,1722.78858829,35019825.6146,69677915.7541,4448.91067265,4440.36597768,0.0
1.08898117343,0.908678728606,9.92595694445e-06,-26642051.5014,1.71537551129e-05,0.0,5753445.723,681.140039231,650.095440823,66812187.1019,1746.04075616,36117004.9531,69300737.8306,4520.36085091,4511.73823019,0.0
1.06780729007,0.973991286039,1.01420688928e-05,-34778282.7159,1.50618659255e-05,0.0,5798162.91744,679.634906032,648.650031958,66919985.9992,1717.71558189,34714606.0607,69900054.992,4432.46806108,4423.98375182,0.0
1.15082966576,1.03278279719,9.82369106738e-06,-6859943.04406,2.0357012665e-05,0.0,5544821.97966,684.838676835,654.001296923,66222202.1882,1824.27295677,46104625.0844,68749875.5051,4777.09394257,4767.04458119,0.0
1.26323564384,0.873734245234,1.031335731e-05,22253716.0275,3.4220736376e-05,0.0,24178428.0938,691.843294869,661.052526215,64296986.4124,1953.90600167,65638396.3855,66570070.4593,5243.69115758,5230.69128523,0.0
1.06382385934,0.64956001564,9.55082832673e-06,-38893569.4571,1.8315720998e-05,0.0,5809283.39888,680.000122835,648.392160954,66946685.9819,1712.64460517,34781082.0815,70019754.5891,4415.93284012,4407.51084689,0.0
1.13702541197,0.786747223503,9.83577080817e-06,-9501989.25446,2.31506590679e-05,0.0,5575563.56649,684.10258189,653.139118438,66303291.3345,1807.04873819,44827170.2226,67919574.6901,4719.79248509,4710.08137292,0.0
1.23072974635,1.17839205358,9.58448144367e-06,14903242.1683,2.22039131017e-05,0.0,16324419.396,689.785722763,659.065052986,65286576.9903,1919.13048393,60074182.8991,66875063.4672,5108.7591771,5097.0405465,0.0
0.984360140407,0.867238159158,9.95526371665e-06,-94941928.4506,1.45978983816e-05,0.0,5939207.77948,680.654523132,643.324471683,67211294.254,1611.49238324,69861244.0102,70102649.5595,4086.07894283,4078.02363992,0.0
1.11207728826,0.937330250947,9.79142350356e-06,-19142046.2987,1.84716635378e-05,0.0,5691949.97829,682.563452851,651.560717315,66652940.9372,1775.9515763,39046164.9622,68986513.9106,4616.23282357,4607.14451934,0.0
1.24426603152,1.11907856042,9.85130958954e-06,18478367.8918,2.46675602428e-05,0.0,20061800.7361,690.484057678,659.869786408,65022642.428,1933.98967801,62883436.6742,67137245.5627,5164.94829684,5152.99039414,0.0
1.16348016849,1.06365021992,1.01909758222e-05,-515304.366608,1.99202038505e-05,0.0,5443360.39046,685.397824515,654.823305795,65869627.6698,1837.32883405,49547427.9941,67634456.5457,4829.6061794,4818.68368645,0.0
1.10469382859,1.10639177082,1.0266700837e-05,-18569922.9055,1.58527719304e-05,0.0,5659809.01161,681.745102468,651.081171086,66519648.7087,1763.71837383,39310207.713,68783855.707,4585.58408248,4575.84492941,0.0
1.04630956521,0.892497571598,9.52060037077e-06,-50320915.7345,1.50028691694e-05,0.0,5832083.48398,679.130521847,647.258012256,66997941.7196,1687.53772381,37716608.2759,71178273.4574,4343.23100519,4334.41830768,0.0
0.994249803923,0.901894942056,1.01304570454e-05,-95290266.0248,1.45396103289e-05,0.0,5913145.57637,678.941696459,643.957774688,67149019.6571,1617.43964573,70167982.7929,70421656.8432,4127.13093608,4118.99624827,0.0
1.09353302303,0.835822793156,1.00846044334e-05,-24612571.6968,1.85541484161e-05,0.0,5728258.63024,681.274579039,650.347823895,66744487.6946,1752.04934639,36591789.9661,69037554.7509,4539.2555786,4530.56094686,0.0
1.21031120913,1.16899258739,9.95982018386e-06,10665545.6723,2.13350710939e-05,0.0,11956452.0749,688.277196437,657.683684204,65333327.3281,1893.39472286,56560876.1738,66701432.5916,5024.0018291,5012.08693196,0.0
0.965536739718,0.935066291577,9.89152699849e-06,-94184973.3591,1.41818844019e-05,0.0,6025053.80388,683.870734129,642.124479754,67440728.1836,1612.27433365,69194586.2671,69422804.9978,4007.94300657,4000.85895759,0.0
0.98543381994,0.874286317514,1.02944117123e-05,-94887150.8677,1.45102328002e-05,0.0,5927376.74342,679.722101101,643.391992269,67180973.8297,1609.55859462,69813043.7915,70054148.7724,4090.53578657,4082.54224174,0.0
1.13248053402,0.936831345962,1.00395498486e-05,-11434888.3136,2.04113373991e-05,0.0,5580008.46198,683.552534568,652.760300904,66297362.8531,1800.55186946,43454348.4156,67532281.9372,4700.92669672,4691.00910313,0.0
1.05458688941,1.21886937595,1.01406390196e-05,-42840135.8541,1.25864647068e-05,0.0,5815316.88852,678.884863694,647.773465125,66961224.38,1698.75277822,35283875.8188,70385914.202,4377.59017794,4368.81977795,0.0
1.02467276987,1.00781403241,9.99626889778e-06,-66077176.299,1.34509942062e-05,0.0,5924530.30762,677.801148558,645.903989882,67260106.1367,1661.56675682,46685049.2273,70929316.773,4253.41666773,4246.15814242,0.0
1.15211387218,0.910695432932,1.01068355876e-05,-6369938.96437,2.32995480387e-05,0.0,5556481.84974,684.766874341,654.109485486,66266247.9011,1827.73143484,46402253.0121,68628318.8173,4782.42468342,4772.99157538,0.0
1.11050328786,0.887338274394,9.93168943191e-06,-17403660.2211,1.88865143665e-05,0.0,5631726.90997,682.418199918,651.43164791,66445998.9252,1771.28553498,40045280.4832,69007834.8722,4609.69914791,4599.76290508,0.0
0.99167378965,0.748501978112,1.01234110962e-05,-95157278.8664,1.56460437571e-05,0.0,5912079.13523,679.340025696,643.794384021,67141215.6561,1614.27729362,70050911.3027,70298761.3683,4116.43790084,4108.34460841,0.0
1.27325122066,1.04593359266,1.03266379664e-05,23952940.9561,2.99449765105e-05,0.0,25676041.0406,692.181465282,661.668523446,64343214.9896,1964.89193736,66831591.1816,67725400.7856,5285.26581696,5272.412997,0.0
1.16890605667,1.06369853402,9.72402611437e-06,295772.580948,1.97025500951e-05,0.0,5439828.28914,686.008014291,655.165271557,65865923.0449,1843.99010116,50193486.5738,67694173.4998,4852.12904124,4840.99453772,0.0
0.996932961399,1.11900303063,1.03034974904e-05,-95396752.7104,1.25921819241e-05,0.0,5912972.82749,678.184569777,644.127149594,67154884.8614,1620.96240661,70261859.1547,70617786.8102,4138.26872277,4130.0910816,0.0
1.16586894835,0.849479908717,9.46439296456e-06,-1760420.37195,2.43633592922e-05,0.0,5485428.18253,686.154751679,655.007554765,66043513.823,1843.16702884,49273831.2685,68015535.1524,4839.5220046,4829.20616597,0.0
1.00637340015,0.860335478754,9.64221287659e-06,-91801864.395,1.44600528774e-05,0.0,5977942.23439,678.326508469,644.756289671,67365672.2863,1636.98004984,67109930.6917,71159283.296,4177.45598402,4170.45664076,0.0
1.07702618112,1.03164315866,1.00666581675e-05,-30446371.823,1.49713895847e-05,0.0,5777259.69836,680.297035999,649.317002685,66872125.9085,1729.59285234,35371801.5283,69324557.8743,4470.73567783,4462.10820666,0.0
1.00141572022,1.06416072309,1.00169424021e-05,-95885916.8697,1.29823982829e-05,0.0,5907806.24657,678.286682924,644.416064979,67140199.5783,1626.72171613,70691064.452,70691064.452,4156.87665463,4148.54523133,0.0
1.12483634131,1.08899892135,1.03606345552e-05,-13300001.7423,1.83265164023e-05,0.0,5652114.62456,682.818339696,652.344263103,66527683.1147,1792.73750179,42385239.9506,68028758.7773,4669.19565278,4660.22192632,0.0
1.1188080707,1.03958088173,1.04281889012e-05,-14413813.6437,1.80593239186e-05,0.0,5621302.97339,682.448904628,651.925871623,66415703.8358,1783.0632746,41507081.2926,67722080.693,4644.17230148,4634.58493688,0.0
1.00565774341,1.1060989092,9.95247781964e-06,-90857387.0574,1.26256149697e-05,0.0,5902743.51324,678.082441924,644.685106516,67130074.6248,1632.32324647,66285268.636,70819283.075,4174.48529289,4166.08486593,0.0
1.19079668956,0.816471816074,9.9988637378e-06,5761335.46134,2.65998912131e-05,0.0,7307254.43484,687.409643947,656.508898968,65425008.3006,1870.75968806,53015370.7615,66645198.0078,4942.99705836,4931.36922292,0.0
1.06154016519,0.755530794271,9.72270369065e-06,-38493635.6469,1.66772442477e-05,0.0,5782470.47194,679.73381229,648.228036902,66850899.8426,1707.76782294,34672205.1474,69864386.1184,4406.4532257,4397.35556006,0.0
1.11244320108,1.01594389788,9.73664405595e-06,-19387066.7294,1.75533106755e-05,0.0,5696839.3978,682.593915746,651.586354299,66667977.3629,1776.2573639,38916846.2605,69010411.425,4617.75172768,4608.65766474,0.0
1.26826004082,1.06684374305,9.58640419213e-06,22816136.5633,2.79368967232e-05,0.0,24753289.3875,692.227917357,661.393603074,64696034.3098,1962.03826385,66260981.3341,67199754.925,5264.54742944,5252.14155137,0.0
1.01174812529,0.938475428094,1.03492017049e-05,-79879742.8549,1.39283612498e-05,0.0,5936254.88682,677.270414986,645.075320719,67258716.0671,1644.16382279,57085702.4867,70572679.7317,4199.76646808,4192.69169212,0.0
1.02907487161,0.814650745557,1.02290907225e-05,-60128184.736,1.51913164192e-05,0.0,5844023.42027,677.871721402,646.175214643,67012703.6533,1665.05822709,42734943.7696,70852545.643,4271.68979205,4263.24470006,0.0
1.11107751929,0.831385868322,1.03023423157e-05,-16461117.482,2.0006133425e-05,0.0,5637271.72621,682.155439487,651.44426237,66467255.493,1773.12057087,40416427.4402,69149876.5156,4612.08278257,4602.6249211,0.0
1.09737641664,1.00381949987,1.04172078176e-05,-20642003.7414,1.68986149475e-05,0.0,5653308.79657,681.294626536,650.629783764,66481429.1415,1753.75160749,38315010.3732,68322340.5023,4555.20950547,4545.40648206,0.0
1.12947440307,0.831046747771,9.99354350436e-06,-11979162.0468,2.16281136309e-05,0.0,5582378.4105,683.429773137,652.555644988,66317088.0322,1796.65240519,43187898.8362,67337273.5653,4688.44824714,4678.58200938,0.0
1.07499486751,0.910311904361,1.02700636594e-05,-31056627.8167,1.64487070459e-05,0.0,5781621.65515,680.079517163,649.187993368,66887164.7342,1728.03704509,35144842.7044,69293594.8843,4462.30369503,4453.99289486,0.0
1.0780718755,0.836564165087,1.00644301342e-05,-30086128.9831,1.73081658448e-05,0.0,5772563.82631,680.440384023,649.39157843,66856670.1744,1731.79534993,35439999.8607,69279389.9338,4475.0763552,4466.62353474,0.0
1.10571488735,1.03278847886,9.8094036756e-06,-19592346.2021,1.6646600346e-05,0.0,5648264.23039,682.196703827,651.152186713,66487876.4155,1764.48227811,38960239.1828,68679316.0255,4589.82249739,4579.6845442,0.0
0.928360272463,0.799134089396,1.03633580362e-05,-92250079.2721,1.45801683196e-05,0.0,6050217.18887,688.213360317,639.717077312,67467272.0142,1599.7169627,67491610.3314,67698374.6615,3853.62349099,3846.51796906,0.0
0.937897461072,1.09091572614,9.89368624315e-06,-93078201.0265,1.24732310548e-05,0.0,6129151.77983,687.731011158,640.352962643,67731221.3086,1607.80428201,68220169.4961,68433791.9688,3893.21236091,3887.14148906,0.0
1.18962986795,1.19252438452,1.01784128981e-05,6050558.01908,1.97582180449e-05,0.0,7563016.39583,686.889274353,656.46478444,65714016.1963,1870.33978937,53273392.8124,66879180.2962,4938.15358186,4927.2998175,0.0
1.20296010987,1.09518093955,1.00754255664e-05,9259219.24169,2.21880450133e-05,0.0,10600755.9946,687.856751607,657.259871229,65354560.0411,1884.37504172,55430815.8999,66818393.9146,4993.48741607,4981.62839892,0.0
1.10315225608,1.00331766978,1.00335672279e-05,-21539861.9278,1.72269099927e-05,0.0,5717243.40528,681.859788963,651.024948278,66710001.8938,1764.57539124,37737437.9399,68612359.2786,4579.18501499,4570.33965308,0.0
1.11610427528,0.791682452989,1.01241199618e-05,-15438262.7967,2.09748122694e-05,0.0,5624755.6183,682.57759934,651.740552128,66433485.0693,1779.69191296,40997372.882,69165128.1814,4632.94884669,4623.40596833,0.0
1.24311800026,1.02751402371,1.01098564408e-05,18335293.4023,2.71392801606e-05,0.0,19970774.1343,690.377451374,659.791241091,64915031.0102,1932.30741566,62771066.5715,66705882.8546,5160.18281908,5148.13358697,0.0
1.18886396555,0.827246843378,1.02666569487e-05,6026358.32989,2.65051905841e-05,0.0,7483701.47642,687.119676065,656.401327478,65386088.4231,1868.23332633,52997728.3396,66536261.7198,4934.974321,4923.47633378,0.0
0.992581851898,1.03393772256,9.93526408949e-06,-95323040.5137,1.32631729186e-05,0.0,5931231.18537,679.406196533,643.850960614,67196183.9407,1615.01986805,70196708.967,70449227.8747,4120.20726723,4112.01922562,0.0
1.059861341,1.03023830271,9.89920350834e-06,-39441626.4892,1.39287277395e-05,0.0,5830974.75896,679.359437305,648.133588544,67011816.1889,1707.16706964,34819779.2799,69861220.0401,4399.48442649,4391.12423557,0.0
1.13938119343,0.812665904687,9.84430679084e-06,-9012552.22402,2.29408554964e-05,0.0,5577572.19987,684.206896345,653.285207416,66318254.6958,1810.30928464,45200542.5823,68076842.9407,4729.57133393,4719.92598494,0.0
1.19686855899,1.0386165501,9.93222833428e-06,8337785.79616,2.23576301757e-05,0.0,9803316.96633,687.580547546,656.928809463,65564839.4128,1878.21929647,54869912.9315,66746158.0119,4968.20138837,4956.94231999,0.0
0.982650630431,1.01844727525,9.62229769719e-06,-95008559.102,1.3642036218e-05,0.0,6017830.23216,682.039131082,643.232188454,67449950.0999,1619.06309418,69919578.7447,70158619.3654,4078.98276692,4071.97360881,0.0
1.13122134576,0.708727905672,9.7014091232e-06,-12096881.9727,2.33663786812e-05,0.0,5541100.23057,683.964265229,652.733656423,66188701.6031,1798.05425033,43006438.8759,67262450.7338,4695.69980625,4685.29821581,0.0
0.972634041469,0.729524878687,9.91790837566e-06,-94356646.4714,1.60253572155e-05,0.0,6010789.85001,683.241756823,642.584237994,67422388.2284,1616.75967751,69345747.0018,69577991.7081,4037.40390614,4030.48959775,0.0
0.989646216099,1.12198670227,9.96235434256e-06,-95215928.5326,1.23975281937e-05,0.0,5942010.6069,679.709935617,643.664054231,67228071.1562,1612.13498072,70102412.6337,70346776.0908,4108.02144303,4099.88082688,0.0
1.11026486739,0.750500578352,1.03888751526e-05,-16993629.126,2.16343741025e-05,0.0,5574268.26551,682.197305419,651.378353724,66250047.2421,1770.53009696,40029723.0575,68855161.0288,4608.70946454,4598.49297231,0.0
1.16188601908,0.841432498487,1.03383790827e-05,-1698854.72505,2.60026471304e-05,0.0,5499588.17524,685.32154965,654.754601435,66065336.5728,1839.47665229,48711070.3667,67952708.7628,4822.9888652,4813.39927345,0.0
1.13137645591,1.043264154,9.91210055831e-06,-11774565.0863,1.86576509164e-05,0.0,5617598.19706,683.572320769,652.767228929,66426572.2304,1799.76219091,43298855.0395,67514307.5061,4696.34366848,4686.74940371,0.0
1.05506355934,1.19024409702,1.00235996948e-05,-40942348.1758,1.22156457558e-05,0.0,5813015.94709,678.938889918,647.791983007,66942290.4174,1698.56988909,35043464.3258,69827136.29,4379.56883482,4370.56223007,0.0
1.20190903693,1.15498157929,9.92383812482e-06,9207807.21429,2.07809008478e-05,0.0,10645451.1923,687.822792889,657.21872012,65479766.1583,1883.4802325,55481419.2394,66900560.418,4989.1244123,4977.50355364,0.0
1.10025603594,1.13974844071,1.00075776203e-05,-22520111.5439,1.52292568843e-05,0.0,5736852.1003,681.659009894,650.839171848,66764651.1256,1760.69011559,37338713.2405,68761203.7756,4567.16280519,4558.36313228,0.0
1.14836522329,0.679221890758,9.85084145115e-06,-7514772.92809,2.64914370327e-05,0.0,5498092.9223,684.896986237,653.815585143,66062278.9743,1821.17542734,45819564.6176,68498197.5212,4766.86404188,4756.64878564,0.0
1.12600662315,0.631411940753,9.9671154086e-06,-13366260.8783,2.56669160912e-05,0.0,5623707.14779,683.382230572,652.419549463,66452606.8453,1794.6940829,42341216.3982,68256038.5745,4674.0534927,4665.06227095,0.0
1.05949841222,0.944197526374,9.79471696775e-06,-40032515.0335,1.47794990275e-05,0.0,5830155.62096,679.445689914,648.099756347,67006684.0195,1706.71870688,34885274.9841,69777201.9304,4397.97790913,4389.62336938,0.0
1.12257812673,1.08557310628,9.7403263068e-06,-14540074.4162,1.71551071586e-05,0.0,5616420.14694,683.122889367,652.154139006,66416263.4213,1786.63245936,41616334.555,68448559.4078,4659.82180406,4649.67716308,0.0
1.05795372681,1.2932355405,9.37648098303e-06,-42933155.3946,1.13646390212e-05,0.0,5846207.0734,679.580922517,647.998168593,67052507.3029,1703.01299648,35407511.3498,70732696.123,4391.56591999,4382.70808476,0.0
1.12089329738,0.935581114814,1.00129599844e-05,-14439924.0112,1.9456782666e-05,0.0,5647705.09797,682.862518764,652.060743838,66510515.9427,1786.68169189,41584338.3721,68835479.1527,4652.82807742,4643.50757856,0.0
1.059084223,0.748296876685,1.00292377368e-05,-39216536.2868,1.6930445142e-05,0.0,5810519.26155,679.328754539,648.083592584,66949850.4435,1706.35460929,34747150.9152,69777412.2491,4396.25860967,4387.91051738,0.0
1.12235447708,0.959257923948,1.00499457772e-05,-13803643.7193,1.91641088315e-05,0.0,5613662.13416,682.958135341,652.156609596,66401612.1953,1787.36477898,42111894.6402,68242534.2869,4658.89343436,4649.14652168,0.0
1.03650382052,1.22159092943,1.0023586058e-05,-56038733.3181,1.19532030681e-05,0.0,5860693.10284,678.192612615,646.651215969,67075748.1472,1674.85617997,40420054.5463,71079284.9424,4302.52735898,4294.04836727,0.0
1.16569406944,1.24825148134,1.01487801839e-05,170133.773475,1.74127322943e-05,0.0,5456497.04378,685.43877534,654.961987459,65912176.0537,1839.76409949,49962602.104,67663736.4139,4838.79608225,4827.84843398,0.0
1.11445933641,1.14467052167,9.94194765496e-06,-16465241.4284,1.60262514113e-05,0.0,5688417.84468,682.447943734,651.671814867,66624760.5131,1778.19828377,40613040.8167,69342907.5383,4626.12070544,4616.90461348,0.0
1.19391116526,0.937016127699,1.02129651215e-05,7320707.57518,2.43519177864e-05,0.0,8739600.02802,687.344433196,656.747841733,65494158.3384,1874.8223127,53976168.7219,66515712.3879,4955.92524699,4944.67238287,0.0
1.01793261223,1.00108981806,9.818149095e-06,-76078861.8489,1.34136896533e-05,0.0,5948488.00021,677.907844561,645.494756872,67313903.4261,1652.55764899,54074088.6672,70882620.432,4225.43827337,4218.27567978,0.0
1.18884428141,0.975382096946,1.00397025592e-05,5722026.02772,2.32379749387e-05,0.0,7272848.35202,687.038453092,656.396713284,65695420.8262,1869.7889204,53162117.5122,66916880.0834,4934.89261213,4924.03894248,0.0
1.28402743063,1.1770417508,1.01090300193e-05,25530877.2746,2.79061828247e-05,0.0,27153509.2071,692.78523814,662.258398265,64242074.5496,1977.00157437,67680983.2325,68557508.3535,5329.99786455,5316.81983589,0.0
1.15207776097,0.892250060438,9.53690487947e-06,-5923806.80217,2.24303043148e-05,0.0,5547371.73759,685.145968171,654.09219087,66229693.3876,1826.18510349,47114828.5188,68908171.4752,4782.27478579,4772.29886824,0.0
1.08553066281,0.936024693018,9.57374910857e-06,-27965969.1156,1.57881730023e-05,0.0,5744338.77241,681.04254746,649.744051417,66764311.3318,1739.38481878,35945189.8935,69239528.7689,4506.03778132,4496.63096583,0.0
1.13776489281,0.987759125417,9.84772998317e-06,-9389915.9566,2.0071734782e-05,0.0,5591337.21713,684.03153298,653.186126314,66351828.2083,1807.75856606,44963867.8641,68021487.0837,4722.86207005,4713.13866007,0.0
1.06327597175,0.76086485544,9.86934782284e-06,-37882976.0953,1.70265605379e-05,0.0,5806673.80564,679.673223626,648.353671988,66942972.2907,1711.90560357,34672840.5302,70033450.2438,4413.65855873,4405.24512185,0.0
1.20126106285,0.922190701988,1.02944305386e-05,8760788.97372,2.55968639828e-05,0.0,10129849.6571,687.782144495,657.157940972,65265439.0453,1882.60362167,54925533.7631,66603227.0585,4986.43467189,4974.59437604,0.0
1.02296625651,0.872541792439,9.99744662016e-06,-68233097.2956,1.45473318982e-05,0.0,5922573.2389,677.818144699,645.809447689,67250317.547,1659.35518807,48188926.1406,70924798.7494,4246.33293077,4239.09874546,0.0
1.06578397208,0.828214429123,9.94356345073e-06,-36446450.549,1.64397073919e-05,0.0,5801923.73727,679.724669277,648.516763729,66934252.0722,1715.17286536,34648942.5383,70185509.6752,4424.0692681,4415.61663471,0.0
1.03349549222,1.075690089,9.60154299648e-06,-60081717.8795,1.29806346634e-05,0.0,5921756.50174,678.434279634,646.483603075,67262812.9929,1673.21204353,42859811.0246,71165906.1688,4290.03978821,4282.65486985,0.0
1.22042438709,0.897712757746,1.00255965415e-05,13129545.6391,2.72564703922e-05,0.0,14383889.0044,689.143800714,658.379729216,65070032.4423,1905.50610273,58465101.6705,66398084.5646,5065.98163081,5053.90132727,0.0
1.07592279511,0.917746675214,1.06102969441e-05,-29940575.166,1.67743072392e-05,0.0,5767952.9872,679.911047778,649.273317891,66845413.8349,1729.46656091,35196496.6398,69104924.8954,4466.1555225,4457.92707038,0.0
1.16349701466,0.820853042233,9.79210925094e-06,-2369761.67666,2.56824205463e-05,0.0,5511902.77959,685.786071188,654.866276304,66125874.4701,1841.56743917,48820074.6472,68275280.1256,4829.67610785,4819.93771476,0.0
1.21523819524,0.710794976695,1.05449132861e-05,12804641.3084,3.27253230412e-05,0.0,14037900.3116,688.71598942,658.046716894,64951830.2944,1899.60347535,58070853.6292,66192922.3468,5044.45374844,5032.58692966,0.0
1.18154028877,0.991252279848,9.87775783764e-06,3421946.45194,2.21082902331e-05,0.0,5477852.88355,686.71568546,655.932576276,65725177.404,1860.15650935,51826067.001,66990551.4596,4904.57373868,4893.43193832,0.0
1.12462798278,1.01383759769,1.03362538713e-05,-13375765.1436,1.94193113058e-05,0.0,5647735.87482,682.858035754,652.328801336,66513363.7687,1792.52968604,42333823.4703,68085855.678,4668.33075652,4659.35934851,0.0
1.01797569511,0.978295044093,9.96530273491e-06,-74599315.6591,1.35866722264e-05,0.0,5941203.90946,677.752651843,645.490661983,67291126.4611,1652.64962429,52913651.0703,71814824.7529,4225.6171104,4218.45390536,0.0
1.08117547792,0.950755752913,9.68525104537e-06,-30187843.9352,1.59430899315e-05,0.0,5791439.80887,680.659169247,649.466348924,66925463.5559,1735.77844632,35518649.0727,69411851.4757,4487.95940885,4479.45842265,0.0
1.26487315356,0.960994250994,9.83135668832e-06,22530560.5253,3.07468680764e-05,0.0,24421167.3266,691.971556523,661.186823713,64688996.7263,1958.28760445,66086212.1935,66937502.5846,5250.48846043,5238.27992675,0.0
0.910947118024,1.06584831237,1.01230619332e-05,-91587904.2041,1.25085615467e-05,0.0,6116787.53191,690.890718224,638.597835129,67643610.2212,1596.56230372,66908665.4976,67643610.2212,3781.34148692,3774.53002214,0.0
1.1277660443,1.05826660417,1.04443511188e-05,-11876875.7039,1.85899527083e-05,0.0,5588417.36731,682.919599473,652.444012066,66323818.0371,1794.25150906,43075553.476,67354633.5394,4681.35684989,4671.51811172,0.0
0.985662737351,0.969513060721,9.84981600042e-06,-95037329.3626,1.38871417826e-05,0.0,5945362.81583,680.700498852,643.409012776,67230763.3716,1612.64753832,69945173.4201,70187745.38,4091.48602274,4083.40977957,0.0
1.0360157176,1.21761377582,1.01498693153e-05,-54530987.9238,1.18540441156e-05,0.0,5855478.42272,678.04580593,646.610741519,67057100.1836,1674.00264953,39604283.6942,71148474.114,4300.50124376,4291.94415675,0.0
1.0903424584,0.924267644806,9.70305935418e-06,-26461262.2007,1.67242031691e-05,0.0,5757687.13148,681.367280584,650.182999697,66829664.9466,1747.60564854,36197020.1844,69388392.982,4526.01154482,4517.26988935,0.0
1.0192304151,0.783931291281,9.67368511565e-06,-75853502.8014,1.52943759131e-05,0.0,5941270.6497,678.124103008,645.572332426,67292591.9285,1654.37404579,53900649.451,70910799.2792,4230.82545308,4223.64443037,0.0
1.06591746202,0.940817355641,1.03214632622e-05,-35319567.9594,1.55068694572e-05,0.0,5797294.57896,679.41461663,648.528764302,66921420.3214,1715.58617488,34652418.6689,69864668.1371,4424.62338485,4416.26240728,0.0
0.969700148574,1.02169206025,1.04150529518e-05,-94227808.0888,1.34463450549e-05,0.0,6028307.67962,682.150724593,642.397463403,67488319.205,1611.9985741,69232506.1921,69462593.4217,4025.22531673,4018.72771366,0.0
1.17293512518,0.866248126179,1.0022284573e-05,1701642.72002,2.39872776405e-05,0.0,5389214.32046,686.207895606,655.401922134,65710417.9727,1849.38962424,50712622.3449,66956134.504,4868.85370462,4857.74850117,0.0
0.991890846115,1.20121279516,9.7848875694e-06,-95392349.5,1.20476119836e-05,0.0,5998788.64513,680.171448525,643.824113298,67410687.7574,1619.22874595,70257557.0425,70501727.7096,4117.33890222,4110.19662884,0.0
1.03044595372,0.85398758882,9.97294699332e-06,-59962758.1658,1.49202007688e-05,0.0,5903849.45268,678.056245266,646.284589886,67205914.8847,1669.35383214,42754476.3332,70943450.5168,4277.38115389,4270.04002774,0.0
1.03706577045,1.18056874257,1.00953198625e-05,-53291809.6718,1.21220505542e-05,0.0,5849704.02978,678.122431225,646.658036237,67042406.9068,1675.13969787,39000723.773,71155453.285,4304.86001314,4296.19760415,0.0
0.974190824828,0.896813644697,1.01858028212e-05,-94624083.5897,1.45329062415e-05,0.0,6023231.27236,681.647785187,642.689079984,67467195.2648,1611.99383652,69581358.0035,69815399.0211,4043.86611386,4037.31303271,0.0
1.17950690998,1.20015610759,9.48789340473e-06,2302627.14078,1.82219721902e-05,0.0,5431659.95291,686.701343086,655.819807681,65872831.6404,1857.41207574,51365970.1456,67097921.7788,4896.13318333,4884.89607318,0.0
1.15164768983,0.834775414727,9.68561079663e-06,-5482970.33544,2.34423761463e-05,0.0,5507373.67114,685.106513891,654.05935008,66103150.3566,1824.55698119,47182704.3643,68594769.2636,4780.48956048,4770.13129132,0.0
1.02036642705,1.01392309302,9.73647766081e-06,-74008445.0276,1.33314384817e-05,0.0,5946750.42502,677.99910048,645.647015196,67313635.2972,1655.78104208,52472464.5103,71367382.6756,4235.54103868,4228.34386773,0.0
1.01255581785,0.9171102203,1.06280557938e-05,-77196461.4557,1.45107375846e-05,0.0,5849413.48454,677.140609741,645.11482165,66988885.3048,1642.00218559,54920475.9113,70507550.1304,4203.1191999,4194.68845913,0.0
1.16190293927,0.948395893468,9.88738634055e-06,-2499351.32449,2.14021928194e-05,0.0,5451352.15626,685.597607677,654.735953097,65921034.2609,1836.02839975,48436043.2399,67738741.5638,4823.05910091,4812.15130179,0.0
0.984714307295,0.922230914559,9.67084704393e-06,-95064755.5561,1.44671627844e-05,0.0,6005316.42035,681.646723174,643.364344293,67417382.1551,1619.06882253,69969196.2307,70209637.3514,4087.54908958,4080.51029398,0.0
1.07083567235,1.08150808788,1.01847813916e-05,-31998285.1374,1.39146902163e-05,0.0,5761706.28012,679.691618269,648.782430731,66802876.084,1719.57176791,35035677.3783,69426914.2863,4445.03887592,4435.78527595,0.0
1.16512347187,0.992309991352,9.92640882729e-06,-555118.195628,2.10113067433e-05,0.0,5441312.64684,685.713976989,654.930450509,65877512.5772,1839.64431084,49651873.5976,67735640.8406,4836.42753173,4825.46271309,0.0
1.04303316439,1.14415582741,1.00116705448e-05,-50506826.3853,1.2726586995e-05,0.0,5842378.86455,678.47094563,647.036150899,67028722.2062,1683.54651078,37720584.8021,70987017.5915,4329.63066538,4321.04782896,0.0
1.17158477739,0.908166328038,1.01721083362e-05,1608797.46589,2.32650872314e-05,0.0,5392079.02921,686.000784655,655.314296535,65699632.1958,1847.53268206,50574185.2709,66965708.8797,4863.24841095,4852.16752455,0.0
1.11716904537,0.778259379199,1.0345421759e-05,-15044420.4429,2.15402456045e-05,0.0,5617072.88006,682.515774507,651.81012625,66404132.5743,1781.67474719,41186831.6103,68805053.7274,4637.36870733,4627.90802719,0.0
1.0548905865,1.19252499938,9.93276901889e-06,-42766032.1908,1.23718765944e-05,0.0,5832608.45941,679.044495918,647.802634653,67010793.2504,1699.60482186,35327284.4936,70590060.3236,4378.85082456,4370.22215579,0.0
1.14363278615,0.78007180361,9.80573666231e-06,-7886108.05128,2.3986174317e-05,0.0,5560633.75828,684.461439677,653.508385819,66272365.2151,1815.80718051,45826463.5802,68360176.636,4747.21969531,4737.50230555,0.0
1.10744541323,0.781186492348,1.01090400563e-05,-20256166.0026,2.06706138198e-05,0.0,5679985.28496,682.165518175,651.275777428,66606387.9546,1770.19265402,38304835.6276,68750649.9067,4597.00591032,4588.09275947,0.0
1.15078878367,0.846352203053,9.79049719076e-06,-6856428.8969,2.34709299024e-05,0.0,5527044.74849,684.968523932,653.997157801,66165707.3014,1824.47771628,46104592.8954,68686209.0788,4776.92424101,4766.87473848,0.0
1.18904255822,0.815499297446,1.03338526729e-05,6314601.28212,2.68139419046e-05,0.0,7784369.13357,687.080712223,656.423476373,65436594.3402,1868.88522884,53187664.502,66486900.9238,4935.71565917,4924.42700052,0.0
1.10992620038,0.864702912849,9.70428614084e-06,-20171777.8039,1.92075087807e-05,0.0,5694676.74794,682.555405572,651.440248809,66656233.4198,1773.16846928,38519668.7352,68861613.5561,4607.30365778,4598.24994251,0.0
1.11713695498,1.05959597004,1.03847195739e-05,-14945525.1753,1.75978128235e-05,0.0,5630880.28702,682.354402131,651.815934722,66440979.4881,1780.93359911,41238676.3855,68761202.5507,4637.23550012,4627.67505142,0.0
1.01044752161,0.797518099033,9.93521065975e-06,-83970690.9174,1.49007675357e-05,0.0,5953994.72174,677.798784466,645.016413653,67302887.7649,1642.58311599,60455939.4427,71385791.0426,4194.3676622,4187.3109639,0.0
1.18214812482,0.856895715236,1.0471470227e-05,5060296.82163,2.54789671449e-05,0.0,6611276.90535,686.475590995,655.958314308,65535174.3151,1860.51431362,52462303.6786,66737783.6047,4907.09686613,4896.0411795,0.0
0.984258662528,1.06504972543,9.94415545157e-06,-94980738.4731,1.29158034182e-05,0.0,5951588.20601,680.611420305,643.318254942,67248914.6742,1611.4496283,69895374.421,70137558.9202,4085.65770815,4077.60403566,0.0
1.05435940349,0.962482554961,9.48460213839e-06,-43057321.793,1.41105302421e-05,0.0,5849353.89145,679.433504496,647.791974659,67051885.4303,1699.32989652,35423484.0648,70805682.562,4376.64588389,4368.18816395,0.0
1.10505596484,0.907125609061,1.0182881098e-05,-20806518.7026,1.87862253476e-05,0.0,5694695.34142,681.91707068,651.132129809,66649361.1269,1766.9847095,38065941.7308,68684846.6953,4587.08731005,4578.21197764,0.0
1.08966756697,0.872114262274,1.02645357721e-05,-25361393.2102,1.7900892574e-05,0.0,5734093.94469,680.913437615,650.097381876,66745265.0499,1746.93967252,36301172.4042,69069232.7998,4523.21007049,4514.57672001,0.0
1.0898646699,0.912759111961,9.59467111175e-06,-26957323.8198,1.67388109852e-05,0.0,5762800.55468,681.426145081,650.158987059,66842988.8129,1746.98952352,36127670.7679,69431809.5442,4524.02824475,4515.29413149,0.0
1.00661829616,0.976372163772,1.02808217729e-05,-87041457.9507,1.37490556834e-05,0.0,5934272.33708,677.455960197,644.755570021,67232871.2697,1636.23077653,63026529.7793,70721188.7609,4178.47254736,4171.12446191,0.0
1.16566633141,0.79594456167,9.50784621736e-06,-786666.89924,2.40363852849e-05,0.0,5428818.44698,686.148194921,654.969675862,65841868.5774,1840.52952288,49830288.2632,67930309.1665,4838.68094168,4827.60494227,0.0
1.089487934,0.827814851801,9.8871820485e-06,-26542362.8978,1.81655951301e-05,0.0,5747540.64863,681.228524119,650.124704085,66795165.7475,1746.77086938,36147038.292,69303529.6848,4522.46441403,4513.83368852,0.0
1.05855066074,1.11240178576,1.03121160402e-05,-38761580.9958,1.33015646062e-05,0.0,5826090.21213,678.947918971,648.047991096,66995599.7122,1705.70145858,34723261.7219,69808067.7673,4394.04379273,4385.79815555,0.0
1.07480625207,1.02032545257,9.7507101941e-06,-32670759.9342,1.47968026311e-05,0.0,5810188.16034,680.214220636,649.050626849,66971800.2646,1727.37062979,34991279.8719,69864950.568,4461.52075234,4453.11775727,0.0
1.24340180734,0.866659978117,9.93345138982e-06,18209276.9222,3.01740134001e-05,0.0,19827536.4225,690.641331032,659.804283473,64810047.5765,1932.60563523,62588599.8456,66929242.4682,5161.36090227,5149.06863168,0.0
1.13408625959,1.13405773669,1.03647576519e-05,-10666033.4833,1.76800577683e-05,0.0,5580873.79046,683.320015693,652.858098984,66306475.7662,1802.35465896,43905850.3075,67808365.6106,4707.59206356,4697.66435552,0.0
1.16040640409,0.993569422831,9.93258268576e-06,-2827636.29391,2.0553877489e-05,0.0,5462093.06918,685.446386739,654.643875331,65954469.9997,1834.13678943,48208551.8488,67744693.3305,4816.84698338,4805.9916233,0.0
1.07975126471,0.904021641902,9.87065942031e-06,-30124312.2176,1.64826683705e-05,0.0,5784604.45291,680.464228554,649.372144593,66904911.2823,1733.9485935,35478599.5266,69357993.2194,4482.04749981,4473.56863035,0.0
1.07198860282,0.967721214166,1.00052633146e-05,-32656952.3522,1.53573972743e-05,0.0,5792592.47436,679.909690587,648.874193011,66908322.4913,1723.02276834,35040505.8046,69694576.5405,4449.82469031,4441.27653525,0.0
1.01939460938,0.879652024415,1.00193530969e-05,-72427160.4022,1.44000904309e-05,0.0,5931335.07927,677.728712167,645.579620496,67267179.1852,1654.60848608,51258943.1513,70899823.7546,4231.50702354,4224.32366778,0.0
1.03776505376,0.847525862285,1.00316555577e-05,-52910703.4067,1.51896328935e-05,0.0,5830067.57172,678.337716272,646.701808397,66982486.4316,1676.29985065,38752133.5309,71072564.873,4307.76273816,4299.08889283,0.0
1.11093623815,0.832375367056,1.00141225543e-05,-17067373.9367,1.97351831656e-05,0.0,5621234.85812,682.41077051,651.45253266,66402050.8431,1771.89677384,40250674.6487,69024467.2978,4611.49632456,4601.55349666,0.0
1.24908291153,1.00896640312,1.02313914813e-05,19475231.524,2.87728638696e-05,0.0,21206119.1048,690.782078063,660.132640657,64627176.3272,1937.54549988,63639830.1266,64627176.3272,5184.94316576,5172.20822536,0.0
1.08404713492,0.784673871356,1.00807951744e-05,-27831389.6298,1.84709027251e-05,0.0,5751715.77116,680.81500722,649.79279945,66802573.0241,1739.67155787,35777948.7675,69245374.7018,4499.87965705,4491.33400478,0.0
1.13119708793,0.908478314948,1.03684142596e-05,-11159507.8624,2.1035150916e-05,0.0,5565823.4081,683.273441776,652.673687737,66258314.3188,1798.83012188,43524243.6153,67541913.5193,4695.599112,4685.70328015,0.0
1.12804543392,0.917673413886,9.81588299973e-06,-12684720.7991,2.00951746238e-05,0.0,5623013.73276,683.4808305,652.543364529,66435275.8687,1795.67978083,42630640.2094,67927054.3865,4682.5165962,4672.97739209,0.0
1.03030850473,0.810864484611,1.02924260809e-05,-59838964.076,1.55089835858e-05,0.0,5833876.8986,677.86897443,646.246870836,66984854.3598,1666.54450839,42556126.3269,70929386.0147,4276.81060313,4268.34475027,0.0
1.05394697891,1.20164982833,9.51123041181e-06,-44433494.119,1.1983777328e-05,0.0,5845911.35245,679.331492034,647.763510441,67045280.8099,1697.76830642,35702738.6937,70751667.7719,4374.93390946,4366.14036606,0.0
1.07987860316,1.0804545385,9.75245235976e-06,-30551152.1153,1.4403151187e-05,0.0,5801033.85378,680.478804953,649.379635611,66953785.2147,1733.97629597,35459636.0636,69418491.3723,4482.57608172,4474.09523577,0.0
1.09650714626,1.11249648184,1.00465328112e-05,-23818035.1525,1.53639701207e-05,0.0,5741536.34485,681.390118038,650.568209829,66789825.446,1755.68682325,36886119.5939,69063969.1083,4551.60116413,4542.86059879,0.0
1.08872545573,1.01037618708,1.04656597507e-05,-25273622.0127,1.64644710974e-05,0.0,5742726.98753,680.654158475,650.033523631,66779604.5707,1745.92880822,36308366.672,69057170.2424,4519.29936674,4510.77861584,0.0
1.1608554897,0.765622733818,9.6503925204e-06,-3371411.8496,2.62223216747e-05,0.0,5425841.12407,685.903317151,654.67522612,65857126.5941,1835.24804038,48152321.4542,68094671.7992,4818.71113774,4807.75023454,0.0
0.987882987056,0.967993658481,9.98251441693e-06,-95100463.4902,1.38530342721e-05,0.0,5934994.80113,680.009722384,643.550163139,67204442.9863,1611.77371761,70000793.1531,70244534.6665,4100.70227927,4092.59029316,0.0
1.00686561883,0.910353829485,1.02822861662e-05,-86515892.9341,1.40730588845e-05,0.0,5949903.28831,677.404410217,644.779033381,67293388.483,1637.59628152,62582951.0486,70765400.6444,4179.49918376,4172.49456161,0.0
1.16527688763,1.02713096147,1.02059378652e-05,258075.837194,2.06553833594e-05,0.0,5432199.03909,685.508361103,654.934497994,65837451.8449,1839.47923525,49974494.3325,67561828.8758,4837.06436055,4826.12417781,0.0
1.06027075473,0.783964057466,1.02768198253e-05,-38018010.5635,1.67906501168e-05,0.0,5803862.76227,679.189670291,648.159342669,66929526.6279,1708.21698812,34652619.3791,69874633.1422,4401.18390288,4392.91027732,0.0
1.16676194971,1.08891877008,1.02967703203e-05,860571.264195,1.98835627958e-05,0.0,5459761.3998,685.467051,655.038637606,65910476.6244,1842.24157337,50274700.6059,67506036.8752,4843.22885325,4832.67956092,0.0
1.18297512337,1.01401854583,1.00054073246e-05,4305719.18884,2.2013952426e-05,0.0,6114073.52624,686.64348396,656.01344219,65788408.6096,1862.72513185,52346587.8251,67060531.4444,4910.52973711,4899.80558468,0.0
1.15036132886,1.12146753596,1.00884262066e-05,-6964002.69581,1.96150187961e-05,0.0,5582640.4427,684.569259412,653.998614232,66346354.4551,1825.29391702,46071222.4965,68767169.2339,4775.1498761,4765.74490882,0.0
1.16814459377,0.862292801921,1.01479094634e-05,1237357.06006,2.37339703275e-05,0.0,5401668.95137,685.831664113,655.113464208,65743585.6092,1843.14359153,50473923.0681,67437042.2201,4848.96820874,4837.95319303,0.0
0.990161523954,0.742427809783,1.01216282759e-05,-95094116.1354,1.56701083675e-05,0.0,5915440.62442,679.555662003,643.697039645,67149266.7637,1612.70795499,69995291.9459,70239428.9562,4110.16048593,4102.0915757,0.0
1.0290643752,1.02635653143,1.0027263487e-05,-60632133.9584,1.33705329386e-05,0.0,5913089.31132,677.906830179,646.195424642,67233817.2859,1667.40809642,43061658.0572,70968838.8416,4271.64622146,4264.32489868,0.0
1.14794911684,0.74283745292,9.83894888414e-06,-8041599.96592,2.5750380226e-05,0.0,5568686.33677,684.717649009,653.788534094,66295030.7396,1822.79373839,45504504.8979,68456581.5489,4765.136784,4755.7686173,0.0
1.06525959899,0.982330438231,1.01232165745e-05,-36011564.9495,1.48255396054e-05,0.0,5805747.99756,679.502777106,648.483324474,66938160.8269,1714.37367538,34650317.4022,70083448.6837,4421.89259541,4413.44816339,0.0
1.08539630731,0.741909755456,9.4633477503e-06,-28835357.302,1.86051239004e-05,0.0,5771698.94293,681.16559613,649.747937038,66861651.7083,1741.28003634,35794119.2033,69440772.4786,4505.48007164,4496.81636578,0.0
1.16591775909,0.979971305685,9.76140502354e-06,-663801.00337,2.10834407009e-05,0.0,5445528.75478,685.873602802,654.983728371,65888158.9908,1840.77242641,49686269.5248,67809775.426,4839.72461798,4828.74555681,0.0
0.976557710892,1.00327314411,9.74911503464e-06,-94729015.6276,1.36634012413e-05,0.0,6027189.26631,682.564725853,642.839640354,67469575.4815,1616.46214781,69673435.0965,69909356.8918,4053.69105791,4046.76909357,0.0
1.07667443054,0.753640702593,9.86275799359e-06,-31447695.4841,1.81335883972e-05,0.0,5783051.41318,680.346887985,649.166151119,66894848.9001,1730.02172654,35197570.8898,69595538.4939,4469.27556117,4460.84439138,0.0
1.10587350489,1.04120061595,9.89237302668e-06,-18439480.8355,1.67116257954e-05,0.0,5736134.25925,682.01492226,651.189852539,66771228.1004,1768.30464274,39537985.0531,68989490.8228,4590.4809188,4581.82175717,0.0
1.11626083141,0.925685224053,1.06176141183e-05,-14679342.2781,1.95177929729e-05,0.0,5611252.842,682.216722938,651.757188856,66384595.389,1779.84312878,41312782.0843,68483704.8131,4633.59871118,4624.05439462,0.0
1.08382754568,1.04988710581,9.78935550216e-06,-28923595.4914,1.5035488309e-05,0.0,5783010.0673,680.897233075,649.781610916,66905023.7229,1739.17324246,35758012.9039,69398122.0945,4498.96814212,4490.42590875,0.0
1.02144542985,0.796913261959,1.01695064442e-05,-68134010.626,1.51880508998e-05,0.0,5910014.62397,677.627213546,645.704842656,67207043.8888,1656.99305342,48111792.9516,70790945.0639,4240.01997931,4232.71814407,0.0
1.1382247445,1.05943696278,1.01704127683e-05,-10026256.43,1.95816475382e-05,0.0,5609071.88567,683.800895721,653.213807284,66406031.8328,1809.63666226,44305792.8745,68009875.3751,4724.77091442,4715.47914222,0.0
1.12155683155,0.986386172389,9.98412937047e-06,-14341339.5415,1.88273623204e-05,0.0,5650585.66747,682.902092453,652.105195193,66519837.9476,1787.50325527,41691882.4521,68817976.9406,4655.58240776,4646.2511144,0.0
1.1404176905,0.970164880119,1.00590082662e-05,-9388265.45611,2.06241683691e-05,0.0,5551555.68592,684.08950184,653.318168491,66217252.3759,1810.64164329,44738636.2229,68084974.2667,4733.87383327,4723.79636377,0.0
1.12667133293,0.791928385543,9.92945505799e-06,-12887140.5084,2.14869473149e-05,0.0,5593432.92491,683.396631995,652.442690993,66342094.1066,1793.22810472,42617500.5568,67242744.184,4676.81270299,4667.01149788,0.0
1.05747087975,1.08546007008,1.02181226982e-05,-39632030.7282,1.34886427915e-05,0.0,5830647.35456,678.966790579,647.974392018,67005999.0497,1704.26926593,34814125.0326,69705836.7204,4389.56162184,4381.33116919,0.0
1.10194690149,1.06067280319,9.93756244502e-06,-22067543.1108,1.62829811246e-05,0.0,5729072.54683,681.837261009,650.949259547,66743061.7575,1762.86832461,37588462.2138,68552945.8132,4574.18158808,4565.3549132,0.0
1.11572370385,1.02965513179,9.68456232061e-06,-16659120.3722,1.72204377315e-05,0.0,5663151.37615,682.772944276,651.755653077,66549982.4152,1779.10035751,40438007.9418,69337655.4555,4631.36909468,4621.73406542,0.0
1.07924765591,0.866011992535,9.66682415594e-06,-30662825.1103,1.67291182972e-05,0.0,5790720.66882,680.592993682,649.337330043,66915533.0396,1733.21296786,35425958.4781,69393956.3192,4479.95701968,4471.43781943,0.0
1.05173144581,0.754728623805,9.91959683471e-06,-44515563.0858,1.66838831719e-05,0.0,5801839.66458,679.095050507,647.614916417,66913469.2988,1695.09926051,35668557.1461,70480964.8705,4365.73723156,4356.98152404,0.0
1.00568064997,0.859928158647,1.01186419366e-05,-89298907.6405,1.48280150953e-05,0.0,5880774.26914,677.899267215,644.681664809,67065101.8228,1632.57598301,64956828.9254,70737722.0324,4174.58037803,4166.17957672,0.0
0.931921650376,0.968541381016,1.04290180251e-05,-92399290.5611,1.35963945161e-05,0.0,6045704.65716,687.546172821,639.945915657,67460785.2416,1600.1231221,67622945.2057,67831481.405,3868.40677071,3861.24703549,0.0
1.13588913475,0.894829410969,9.77476934187e-06,-10733464.8981,2.12061012846e-05,0.0,5593870.99898,684.032393656,653.065037808,66355323.4894,1805.73213269,44015519.4978,67724780.2422,4715.07579835,4705.3803427,0.0
1.1155702965,0.868029241076,1.00210859939e-05,-15884559.195,1.98060983033e-05,0.0,5659434.37814,682.554837144,651.719115892,66538033.969,1779.86447872,40823244.1114,69375317.8765,4630.73230077,4621.49728731,0.0
1.1588394381,0.892517280753,9.62746412641e-06,-4094086.82766,2.31778701754e-05,0.0,5520843.03432,685.405703034,654.435352153,66157211.6402,1834.80081513,47887946.0736,68476999.6815,4810.34250755,4800.25048505,0.0
1.06139104299,0.822310541871,1.06248824713e-05,-36152556.7578,1.67841389435e-05,0.0,5802460.63763,678.957578674,648.238823802,66937979.7998,1710.38815145,34580305.0469,69893213.6724,4405.83421945,4397.82671666,0.0
1.22736546769,0.814501830858,9.58674717463e-06,14192056.916,2.89750657592e-05,0.0,15631299.5024,689.872145581,658.841134006,65106610.895,1915.10711084,59426389.6225,66571794.2189,5094.79405638,5082.88463484,0.0
1.02532983857,0.755339897557,9.95539901026e-06,-65629351.3945,1.56156040456e-05,0.0,5913168.34829,677.936636215,645.94988653,67225471.9347,1662.5719952,46377541.5249,70929021.8729,4256.1441599,4248.87625353,0.0
1.07361302583,0.936957753757,1.03444001666e-05,-30301052.1611,1.58148094052e-05,0.0,5736991.53382,679.966104179,649.07336483,66725411.334,1723.64392779,35257804.0482,69271933.7874,4456.56767022,4447.35899553,0.0
1.11438171375,0.688559165631,9.64497067606e-06,-18756448.7405,2.23035861928e-05,0.0,5668238.74514,682.93488557,651.702032181,66580230.3548,1779.25112737,39294905.2208,69008185.4826,4625.79849378,4616.67319465,0.0
1.1464140009,0.929990844159,9.77215343586e-06,-7252472.98047,2.16191122715e-05,0.0,5566925.68284,684.560909874,653.68032342,66294942.1323,1819.16183208,46231318.8854,68583447.6823,4758.76451774,4749.00122965,0.0
1.09340428775,0.971829210166,9.55294648251e-06,-25303400.3583,1.59770805499e-05,0.0,5719436.27046,681.640084194,650.341911342,66698569.5632,1749.65343323,36474841.3466,69311781.1613,4538.72119845,4529.18179499,0.0
1.20956344645,1.0860127392,1.04598381069e-05,11163080.3279,2.34441503191e-05,0.0,12420134.3741,688.056572782,657.663616519,65170839.2605,1891.77592631,56815151.6966,66238447.4548,5020.89786621,5008.90206693,0.0
1.03879427705,0.876158992738,1.0083865277e-05,-51926022.0571,1.49700950879e-05,0.0,5827342.2083,678.346009401,646.786561341,66977288.128,1677.64893575,38316843.4065,70826694.3804,4312.03504403,4303.34435539,0.0
1.14940049342,0.938016497902,9.73558693383e-06,-7392122.19647,2.16978421297e-05,0.0,5544651.68773,684.834897921,653.887060947,66216204.5115,1822.64419941,45802860.3907,68638299.3428,4771.16144819,4761.13543619,0.0
1.00813079847,0.90376377154,1.02746016803e-05,-85017942.0027,1.41448330777e-05,0.0,5946756.72935,677.390322381,644.858492603,67285022.3085,1639.30552233,61325534.2082,70869610.7023,4184.75094445,4177.72699118,0.0
1.13679341472,0.995089816448,1.04978303492e-05,-9576213.56988,2.00917941988e-05,0.0,5551284.71151,683.445903081,653.002677569,66222643.7564,1805.9107426,44366695.5963,67943626.845,4718.8294645,4708.85586719,0.0
1.09159198975,1.17146510506,9.81757334982e-06,-25921475.1005,1.41376857602e-05,0.0,5771440.35845,681.238030621,650.243606438,66868166.458,1749.3855448,36345116.1224,69398701.577,4531.19834945,4522.53471656,0.0
1.08536497728,0.800851631202,1.00823080856e-05,-27353185.3484,1.83595502299e-05,0.0,5749060.5528,680.876700107,649.871172343,66796387.5752,1741.38244561,35871423.7641,69245940.1047,4505.35002069,4496.78383844,0.0
1.12152076977,1.18441359179,1.00081402633e-05,-14377495.3266,1.6170225542e-05,0.0,5665470.01173,682.790443526,652.102703206,66565812.3352,1787.24933891,41705463.9693,68841461.523,4655.43271532,4646.10107343,0.0
1.08729197307,0.995068589476,9.90833424986e-06,-27292988.6532,1.60553614555e-05,0.0,5764556.60756,681.030333628,649.996429043,66843948.2137,1743.75956833,35988819.5093,69348311.4414,4513.34898021,4504.75274197,0.0
1.26231764566,1.00725208673,9.94958594803e-06,21765090.6698,2.96644046512e-05,0.0,23644100.4354,691.801608229,660.988430294,64475609.149,1953.06162987,65351339.7568,66180849.4917,5239.88054713,5226.89470614,0.0
1.04422956422,0.97842057115,9.96597133277e-06,-49822408.925,1.43220878527e-05,0.0,5830872.63869,678.644913606,647.127254626,66995255.8913,1685.24341605,37445965.7082,71017392.8938,4334.59692108,4325.99474898,0.0
1.15543971442,0.946025830738,9.75485721589e-06,-4930331.17106,2.24356298904e-05,0.0,5559329.05153,685.172340149,654.325516481,66286829.5355,1831.56251637,47507864.3425,68727735.4285,4796.23025456,4786.65041908,0.0
1.15441124073,0.580949775373,1.02646872279e-05,-4110184.89666,3.13837025428e-05,0.0,5497132.18031,685.107711241,654.295987891,66071030.0568,1830.77416683,47575891.5373,68317691.0179,4791.96106027,4782.49393547,0.0
1.06459312663,0.787282378879,9.83360321973e-06,-36932034.9949,1.66855084893e-05,0.0,5768041.89064,679.785452647,648.423561348,66817678.9953,1711.45664506,34817152.9875,70033168.3173,4419.12606864,4409.95924985,0.0
1.01149113756,0.926804386583,1.02536447256e-05,-81155871.6853,1.40426097317e-05,0.0,5940210.49251,677.396591914,645.066420229,67268279.0467,1643.81215043,58122958.3312,70792851.2251,4198.69971201,4191.62856359,0.0
1.14624115134,1.09408867927,1.03581765859e-05,-7117162.58213,1.96603105246e-05,0.0,5546595.64557,684.173331396,653.703547926,66201600.3751,1818.41605313,45697685.737,68560187.7837,4758.04701921,4748.18003708,0.0
1.12711360053,0.816099027604,1.02568191069e-05,-12320724.7305,2.18578169139e-05,0.0,5577719.51129,683.121899679,652.395920431,66285262.841,1793.74827102,42849928.8821,67177586.2145,4678.6485558,4668.82183606,0.0
1.14711335694,0.852328211078,9.98858989411e-06,-7981736.75884,2.36970724422e-05,0.0,5574960.37531,684.508524225,653.733991584,66315984.4457,1821.51823045,45488766.3936,68460953.7429,4761.66754466,4752.31464008,0.0
1.07916239511,0.925333295191,1.02186469339e-05,-29109873.7002,1.64296480723e-05,0.0,5757474.37892,680.3773038,649.4738903,66817779.3237,1732.47718033,35452446.2608,69217863.5767,4479.6031021,4470.94190631,0.0
1.14885205958,0.670488258958,1.02420924655e-05,-6908513.95074,2.80305079132e-05,0.0,5535836.3886,684.63914622,653.903697212,66203480.2827,1823.82298827,45906759.8236,68534136.0788,4768.88489932,4759.50246141,0.0
1.02087733105,1.13350134592,9.82548130279e-06,-72552552.5342,1.22692833306e-05,0.0,5948016.60441,677.872098252,645.6773691,67319163.0908,1656.42592086,51366644.2413,71030932.4553,4237.66180119,4230.45736277,0.0
1.21634362447,0.840594272698,1.01272450838e-05,12806881.2808,2.84480206783e-05,0.0,14057672.681,688.789645057,658.13290413,65258254.7823,1902.2424822,58209422.5239,66419891.2626,5049.04238518,5037.68547527,0.0
1.25959367586,0.783153748993,9.81395969415e-06,21513297.204,3.448209449e-05,0.0,23382375.897,691.809604651,660.821170173,64595531.2289,1952.08124047,65279781.584,66092192.2549,5228.57334849,5216.22373585,0.0
1.05601508655,0.734772527717,1.01357977023e-05,-42011615.9616,1.75110230064e-05,0.0,5780371.11118,679.152501215,647.856628831,66856227.5996,1701.01858351,35063161.4645,69665324.0655,4383.51862427,4374.72493577,0.0
1.11044617193,0.956616680958,1.00755125667e-05,-17306243.3485,1.81296137486e-05,0.0,5636502.74777,682.272574702,651.427442884,66454042.1578,1771.33066197,40048517.3289,69026018.0305,4609.46205968,4599.62407005,0.0
0.944166735198,0.967362550568,1.01589905932e-05,-93247489.2203,1.35110379463e-05,0.0,6097752.42018,686.206705642,640.755534413,67650230.4283,1607.13022776,68369276.876,68585952.6937,3919.23611781,3913.08223847,0.0
1.28651302237,0.918910383852,1.04746216126e-05,26610895.3912,3.51348027202e-05,0.0,28071988.7975,693.043716285,662.465610168,64053100.9767,1979.88494894,68141708.4298,69218743.5313,5340.31555586,5327.31632389,0.0
1.09856824603,0.910064924774,9.97484744744e-06,-23079378.829,1.78957142946e-05,0.0,5726534.29284,681.667173821,650.717511667,66743578.8197,1758.7012075,37119072.9277,69100721.5041,4560.15678927,4551.38293761,0.0
1.19641665971,1.12580920788,1.01962520891e-05,8075173.41846,2.12023238514e-05,0.0,9496203.95451,687.373268121,656.884172271,65469112.1081,1876.8510536,54556555.8443,66609525.2702,4966.32555446,4954.80891096,0.0
1.01065835049,0.858675049427,1.00313054578e-05,-84878135.5305,1.49615505942e-05,0.0,5871561.70011,677.891981256,644.999734263,67042985.9513,1639.1962684,61216824.3847,70735779.8125,4195.24281288,4186.76050824,0.0
1.11179115186,0.738223234514,9.98133688556e-06,-16818001.7271,2.11988975455e-05,0.0,5622744.16709,682.529117011,651.509458887,66407827.2267,1773.61607759,40212715.6798,69055370.6758,4615.04507137,4605.27954451,0.0
1.07076783136,0.855466730858,9.7105845823e-06,-34510613.8058,1.63599874403e-05,0.0,5808188.39347,680.268043592,648.927508772,66957812.2864,1722.20299149,34746163.4546,70098796.2213,4444.75726798,4436.41735708,0.0
1.19270252652,0.735257954018,1.024467167e-05,7254187.21517,2.90397316641e-05,0.0,8670810.0228,687.418593797,656.675079462,65416669.8999,1874.03415437,53818935.3369,66427469.8543,4950.90818758,4939.78532656,0.0
1.0390474113,0.816721977673,1.04450505241e-05,-50878953.1155,1.57967576983e-05,0.0,5804780.84743,678.049551555,646.768945869,66916405.305,1677.91759902,37885852.0806,70707326.5627,4313.08580431,4304.3924837,0.0
1.15126245848,0.961411757076,1.00659775509e-05,-4729812.03462,2.05433415806e-05,0.0,5525241.67585,684.706556217,654.040107005,66137416.3589,1824.01424972,47415930.0064,68134269.5936,4778.89046515,4768.6991612,0.0
1.20518266954,0.852218424469,1.0438442267e-05,10373068.0882,2.77813960661e-05,0.0,11671772.9123,687.945595431,657.354208488,65147864.0806,1886.97497277,56134577.7458,66654332.2628,5002.71326126,4990.79261774,0.0
1.03466183244,0.96978164333,1.03626725202e-05,-54747517.0836,1.42934520032e-05,0.0,5827020.92011,677.90489249,646.517367964,66973014.9483,1671.99175044,39727534.929,70950712.4262,4294.88126646,4286.25843533,0.0
1.02277558224,0.950153193717,1.01226575863e-05,-68037332.5279,1.41543545913e-05,0.0,5864570.45878,677.76944255,645.771484241,67064665.8628,1656.37283048,48027523.4026,70833660.2472,4245.54144188,4237.19675778,0.0
1.17853286824,0.955113442252,1.01828721418e-05,3263473.36823,2.29050292312e-05,0.0,5392743.0265,686.370376728,655.736860527,65673251.5327,1856.21627514,51568757.811,66913337.8836,4892.08993606,4880.98888567,0.0
1.02994911723,0.857575404038,9.86767077041e-06,-60889032.7573,1.48801105857e-05,0.0,5909385.39751,678.138930005,646.254129343,67221376.4711,1668.66495442,43203604.0382,71034976.0298,4275.31878562,4267.98478368,0.0
1.01964144819,1.10890950851,9.97253073175e-06,-72614653.1678,1.24416927679e-05,0.0,5943800.05255,677.711663357,645.599417306,67307138.1334,1654.80699954,51402289.7128,70956993.0174,4232.53165144,4225.34478774,0.0
1.12313705036,1.01379622634,9.61112968878e-06,-14489075.7724,1.80235313598e-05,0.0,5635326.63876,683.262980643,652.196336344,66470934.2233,1788.40121102,41746264.6513,68371944.8251,4662.14189604,4652.28278728,0.0
1.12009798501,0.868768559343,1.02328909605e-05,-14527498.8009,2.02368832395e-05,0.0,5611202.06147,682.735321521,652.010144916,66383116.8594,1784.87961556,41509642.6853,68459692.5273,4649.52673578,4639.9168833,0.0
1.15620080313,0.873179480205,9.8885565969e-06,-5233354.31256,2.40121884633e-05,0.0,5543174.82359,685.195924911,654.367117173,66219882.9088,1832.6728357,47094970.1309,68600347.4015,4799.38953379,4789.79416865,0.0
1.14465541446,0.960648595911,1.02571697635e-05,-8057814.07024,2.19217056791e-05,0.0,5579837.35643,684.120108682,653.569033053,66332693.7095,1818.14867073,45324792.7959,68398612.1805,4751.46462542,4742.15104183,0.0
1.217904833,1.00910762311,9.99834976374e-06,12461368.0864,2.48072935332e-05,0.0,13752830.7733,688.908412105,658.219206631,65162254.4644,1902.46954092,57955434.4111,66365974.7892,5055.52296178,5043.48961484,0.0
1.17059859587,1.09429970424,1.07960454153e-05,2314680.67522,2.06575430747e-05,0.0,5393598.10945,685.410255589,655.232491945,65701059.8311,1845.80855723,50652669.4233,66856764.2165,4859.15477146,4848.20888954,0.0
1.01343074769,0.807402155316,1.04345343359e-05,-74433661.3245,1.5037459173e-05,0.0,5870564.49736,677.37906304,645.180094726,67052195.0768,1644.18646191,52782396.4552,70559578.5033,4206.75103366,4198.63996923,0.0
0.994420191607,0.951162486214,9.91436578229e-06,-95606007.7201,1.36985842676e-05,0.0,5976187.67296,678.929913715,643.984061586,67331171.5738,1619.59349659,70445866.8089,70674555.7758,4127.83821536,4120.58181862,0.0
1.06143609637,0.807686236448,1.02616737439e-05,-37535868.4688,1.6611126739e-05,0.0,5802906.53547,679.256606583,648.235053368,66928448.8087,1709.75358886,34618165.0611,69948692.5283,4406.02123603,4397.72961402,0.0
1.13902063241,0.823523035028,9.88655221309e-06,-10174402.3219,2.2773060917e-05,0.0,5570904.27681,684.205068653,653.265206947,66291043.4252,1809.92539181,44390190.0218,67881953.8046,4728.07464513,4718.32681936,0.0
0.927975371798,0.89473738425,1.03788024778e-05,-92246437.6125,1.39508734625e-05,0.0,6054880.05018,688.165307936,639.69225711,67480925.2937,1599.28685454,67488409.6009,67694975.1622,3852.02576833,3844.92609538,0.0
1.1548843471,0.994381832122,1.02438169968e-05,-5208137.30703,2.23035693508e-05,0.0,5545142.80755,684.891308601,654.328514439,66236858.0323,1831.06106157,46888000.0589,68454102.856,4793.92492481,4784.44049489,0.0
1.05448747769,0.727835244506,1.01518663677e-05,-42688026.8748,1.74766361889e-05,0.0,5783320.82168,679.070183252,647.765741415,66862930.3316,1698.99595241,35201887.3823,70223139.9803,4377.17751989,4368.40874,0.0
1.22317263716,0.852016122933,1.02802468159e-05,13932539.9041,2.89659488561e-05,0.0,15231234.2025,689.206939012,658.562592063,65015141.6828,1909.10978737,59171057.2002,66460947.8026,5077.38961685,5065.48021659,0.0
1.14970097355,1.0989017789,1.00542111453e-05,-5757466.86359,1.94880595221e-05,0.0,5557649.82358,684.564156892,653.95207056,66259781.8416,1822.96208127,46897732.5863,68772369.2569,4772.40874121,4762.59250993,0.0
1.03690090099,0.858409911324,1.02957957903e-05,-53398018.5497,1.49343082406e-05,0.0,5835668.76437,678.068351505,646.649232881,67000586.1365,1675.97124857,39014572.6698,70907749.6604,4304.17564001,4295.77771161,0.0
1.07619199299,1.00432230485,9.76905517602e-06,-32051850.691,1.50849286296e-05,0.0,5804488.80399,680.279823305,649.13264757,66957739.6618,1729.19164013,35126449.3617,69757933.6381,4467.2729629,4458.84926223,0.0
1.10879107161,0.974906952069,9.97623678211e-06,-17856225.5629,1.77239231707e-05,0.0,5642653.79056,682.250244294,651.330323273,66477618.5007,1768.97931128,39818795.9966,68938257.7926,4602.59173825,4592.68502633,0.0
1.15388044712,0.824435599612,9.79542253047e-06,-5857442.48331,2.47760755005e-05,0.0,5437767.27913,685.299065094,654.189425052,65889207.3055,1826.05372132,46850191.8632,68376568.4252,4789.757736,4778.71700561,0.0
1.16166456888,1.0246640065,1.03376128482e-05,-1804075.04287,2.24987959166e-05,0.0,5519087.15978,685.201906746,654.741118729,66125218.4517,1838.98273967,48676722.3993,68037488.8297,4822.06962542,4812.48361543,0.0
1.01209149767,0.885427233975,1.00665757774e-05,-82948048.3196,1.4747397557e-05,0.0,5868218.72012,677.81838541,645.095240116,67035581.3678,1641.10348214,59609715.3908,70617331.0638,4201.19180683,4192.68597772,0.0
1.10446478167,1.03273754075,9.67467589594e-06,-20637934.9977,1.65098437455e-05,0.0,5656412.73728,682.226743079,651.085691251,66509190.8883,1762.76218506,38552910.9035,68577147.2868,4584.63330871,4574.51751937,0.0
1.16391867963,0.812127011397,1.00070862821e-05,-395021.315663,2.41861919471e-05,0.0,5418814.31556,685.713899998,654.853054302,65788615.0878,1838.26763585,49698219.6613,67647545.1786,4831.42643914,4820.47901596,0.0
1.08340619659,0.972164840968,9.34482076615e-06,-29673576.6406,1.53573203956e-05,0.0,5801409.31072,681.015749753,649.612695471,66946591.0843,1738.55115035,35691810.5229,69539795.0176,4497.21912205,4488.58659726,0.0
1.02114559263,0.896118993526,9.65526189405e-06,-73832556.4469,1.43573431079e-05,0.0,5942295.35703,678.134026344,645.69815349,67302602.0098,1656.86721693,52341157.2667,71338006.6498,4238.77535501,4231.56833393,0.0
1.03397490393,0.714574289544,9.81809986969e-06,-59742408.656,1.64734631937e-05,0.0,5843093.04793,678.484244684,646.488973982,67015656.5728,1671.80732769,42535208.6993,71109393.3008,4292.02982621,4283.59144951,0.0
0.957803389753,0.796250001891,9.81611993524e-06,-93840463.5759,1.53627128701e-05,0.0,6071796.52049,685.541907979,641.635810556,67590101.0045,1615.28354552,68891394.2321,69114911.5423,3975.84187086,3969.50527368,0.0
1.10415536145,1.02927270356,9.96913391263e-06,-21385483.9896,1.68872552645e-05,0.0,5719140.46656,681.967625143,651.090816148,66716693.5102,1765.87033603,37812061.2707,68662582.8603,4583.34890538,4574.48769661,0.0
1.13327735905,0.953455960948,1.01508783252e-05,-11495724.2768,2.09448318876e-05,0.0,5622738.13923,683.566597938,652.909298126,66448235.9059,1803.74752665,43427648.8734,67677932.541,4704.23431742,4695.12661684,0.0
1.18239973328,1.05783777672,1.01117976719e-05,4623220.34034,2.1305520235e-05,0.0,6277611.75668,686.508763607,655.973230749,65787360.2867,1861.6497583,52462168.7137,67071644.7125,4908.14129285,4897.40252635,0.0
1.04719696604,1.13730110405,9.70134155043e-06,-49167274.635,1.26851107049e-05,0.0,5839236.65999,678.943164801,647.332609836,67021018.5963,1688.56225774,37261874.4883,70997633.3105,4346.91460603,4338.08729501,0.0
0.989354886818,0.867830010253,1.01511544529e-05,-95077567.5279,1.47145496218e-05,0.0,5922782.48577,679.539618768,643.64429199,67170842.7906,1611.84989373,69980700.3381,70224563.4018,4106.81213518,4098.75613802,0.0
1.13431607442,0.928081313553,9.98966376919e-06,-10060433.3492,2.06919971351e-05,0.0,5593068.9307,683.756254206,652.965113211,66357907.9545,1803.38315163,44469942.1,67797152.513,4708.54602492,4698.90551247,0.0
0.987550819757,1.17544122142,1.00525565603e-05,-95307487.1599,1.18766190864e-05,0.0,5999496.46037,679.56785755,643.54423295,67401052.685,1612.61357606,70182916.6176,70425349.4303,4099.32345281,4092.25069154,0.0
1.09040932016,0.905664995411,1.0331599745e-05,-25102283.8119,1.77188748461e-05,0.0,5736705.74738,680.892863524,650.142797576,66761578.5979,1748.23854225,36406490.8769,69076342.609,4526.28908798,4517.74225477,0.0
1.19074236228,1.06165358082,1.01714894746e-05,6506145.0507,2.17792780552e-05,0.0,8010933.85066,687.080215098,656.535209615,65553903.3318,1870.58918325,53433773.3894,66656728.7636,4942.77154582,4931.46809309,0.0
1.07595142079,0.928264179268,9.84147018064e-06,-31878603.189,1.59374029344e-05,0.0,5797226.48516,680.245653171,649.117166899,66936462.4981,1728.93639995,35134792.3147,69691805.3653,4466.2743477,4457.85437057,0.0
1.05246662409,1.00741971325,9.88529834016e-06,-45490336.8196,1.4194072173e-05,0.0,5810972.46638,679.095010872,647.66188406,66943395.2763,1695.70749926,35939676.8382,70509531.3852,4368.7889566,4359.87466632,0.0
1.01702579386,0.957305528829,1.02411965212e-05,-75911432.3845,1.41655263661e-05,0.0,5853903.29469,677.590401535,645.402217916,67018083.6457,1647.70088673,53918359.4647,70533809.6,4221.67407031,4213.08704729,0.0
1.08607681074,1.10088692132,1.01157749825e-05,-27076824.0372,1.47918662441e-05,0.0,5766661.96149,680.762833298,649.914723318,66852043.098,1742.07191407,35981483.7355,69294819.0811,4508.30484138,4499.72756145,0.0
1.04155855323,0.855126860994,1.00400601145e-05,-51558172.7653,1.53740127279e-05,0.0,5826907.90512,678.506405018,646.951168143,66978405.6407,1681.80054634,38204851.0399,70828112.7793,4323.50955446,4314.95052583,0.0
1.09775533822,0.858047840691,1.00026519874e-05,-23469309.5288,1.85707370725e-05,0.0,5720979.05814,681.619796413,650.660598969,66727269.2302,1757.54749845,36987465.9481,69038215.7614,4556.78240895,4548.02146019,0.0
1.14404435545,0.992472995628,9.99802672153e-06,-8543598.85475,2.05311002024e-05,0.0,5545485.6721,684.178831831,653.42782524,66205739.619,1815.20602496,45223503.5331,68358741.4868,4748.92811947,4738.78852857,0.0
1.05008957464,0.919026650728,1.02832250927e-05,-45024617.98,1.51406883594e-05,0.0,5798942.60381,678.698505351,647.505307163,66910543.8186,1692.92936068,35821419.6806,70395542.9744,4358.92182433,4350.13548996,0.0
1.00841628269,1.08486984242,1.03144371712e-05,-84471063.1607,1.30272559609e-05,0.0,5881744.12053,677.496330607,644.858165158,67077078.2032,1636.28397537,60869339.0608,70616587.6349,4185.93598945,4177.5726145,0.0
1.03320881454,1.03448822033,9.95621654894e-06,-59282270.0921,1.3468172508e-05,0.0,5859229.42079,678.196987677,646.436313823,67065317.3748,1670.59201112,42270001.4863,71121713.5158,4288.84978916,4280.42370042,0.0
1.0496440709,1.13893924592,1.03328269303e-05,-45086604.1052,1.29526710572e-05,0.0,5812675.95271,678.545065876,647.478032527,66952765.2436,1692.18121747,35815527.5317,70394726.9095,4357.07253831,4348.29349805,0.0
1.21701007791,0.880492902077,9.80478554369e-06,12160481.4393,2.69895879384e-05,0.0,13444116.7858,689.034824055,658.153651591,65193392.392,1902.30264732,57725709.5582,66265371.0094,5051.8088334,5039.92747821,0.0
1.06487435621,0.875904201661,1.00528225182e-05,-35610534.5061,1.59750590887e-05,0.0,5803156.50863,679.559750165,648.458170846,66937039.0187,1713.73033346,34656639.941,70130036.9709,4420.29345263,4411.84949747,0.0
1.12461289472,0.672848447186,1.01586004939e-05,-13371788.8081,2.47502314716e-05,0.0,5624439.90145,683.139946181,652.327477955,66457085.8124,1792.77686213,42330158.0703,68163672.4841,4668.26812598,4659.29882721,0.0
1.01130984033,1.22785372782,9.82806990038e-06,-84061350.7486,1.14587309282e-05,0.0,5976198.43543,677.800629462,645.073530313,67370062.7427,1643.50343718,60536935.5435,71474722.6541,4197.94714721,4190.87828362,0.0
1.00771539749,0.827674382855,9.99797269553e-06,-88228786.1198,1.51784317663e-05,0.0,5878417.76419,678.041973255,644.818220927,67059094.1295,1635.27887503,64046086.3029,70769270.5047,4183.02661498,4174.59253555,0.0
0.991136471236,0.927374368501,1.02382416968e-05,-95141874.7044,1.4254473954e-05,0.0,5918159.77542,679.051107078,643.756672974,67161100.2736,1613.39551997,70037328.8387,70286782.0727,4114.2074921,4106.1240656,0.0
0.988857760295,0.998285492622,1.01159500022e-05,-95086843.2354,1.37504743287e-05,0.0,5933066.43122,679.667138205,643.613518618,67197808.7699,1611.89828683,69988833.1557,70232148.3421,4104.74856298,4096.7005199,0.0
1.12666814496,0.988149927763,1.00047769965e-05,-13220313.838,1.96763239039e-05,0.0,5653714.29566,683.199135313,652.464478953,66547317.497,1795.12349329,42490475.3285,68226359.2489,4676.79946973,4667.79783475,0.0
1.13455062009,0.748418598787,9.82916572743e-06,-10919505.6946,2.35436577692e-05,0.0,5581593.02947,684.003378751,652.979889143,66316736.8465,1804.16712326,43844061.4114,67609364.5197,4709.51962399,4699.84639961,0.0
1.18294499821,0.765640300158,1.03247131609e-05,5202099.36738,2.75382849259e-05,0.0,6777651.41205,686.639328307,656.011210188,65609753.3074,1862.53715728,52684931.1515,66858576.5273,4910.40468757,4899.65642419,0.0
1.09703063912,0.938550539523,9.67401526619e-06,-24224982.1994,1.69141730008e-05,0.0,5719394.15131,681.758547267,650.570838618,66702432.0349,1755.37055072,36783449.5415,69317202.2007,4553.77418299,4544.53656562,0.0
1.24187227886,0.903421056413,9.80117297646e-06,17779237.532,2.89236335877e-05,0.0,19291750.0469,690.602782398,659.719703374,64847269.3125,1930.78993978,62236104.0182,66968570.0376,5155.01182955,5142.66607145,0.0
1.15051520633,0.915499667728,1.03810856472e-05,-5833603.326,2.25616078601e-05,0.0,5459659.18824,684.492120483,653.882735238,65925953.6679,1821.99249378,46086811.6931,68099982.821,4775.78862148,4765.04379129,0.0
1.20039711091,0.742788395953,1.0105340497e-05,9366596.60652,2.94840077809e-05,0.0,10776609.2341,687.915763199,657.135476139,65401051.4039,1883.3897425,55538454.9987,66721559.745,4982.84840739,4971.69097761,0.0
1.07074833787,0.724497182825,9.88023366998e-06,-34462914.4752,1.80189757202e-05,0.0,5781190.74728,680.213699749,648.920421225,66868788.687,1721.75602472,34765140.3128,69879009.7614,4444.6763505,4436.14738624,0.0
1.13179717915,0.952909747701,9.65744354385e-06,-12006718.5164,1.9847919603e-05,0.0,5618802.47437,683.810058751,652.791930506,66439711.0875,1800.46730248,43200282.4698,67498009.8241,4698.09009065,4688.46334892,0.0
1.11374398612,0.802953734405,1.05110367419e-05,-15508452.2554,2.08987772205e-05,0.0,5616572.33914,682.178291256,651.584026326,66394645.0017,1776.83153968,40853902.8488,69029491.9929,4623.15128638,4613.64816526,0.0
1.21998830101,0.943338430689,1.0043270241e-05,13043712.8403,2.63244992391e-05,0.0,14279951.8797,689.068106679,658.351549961,65094395.4321,1904.88929703,58394874.904,66408595.3734,5064.17143749,5052.09928329,0.0
1.00600453379,1.12982338301,1.01299955441e-05,-88923310.1917,1.23657541143e-05,0.0,5896714.49258,677.75549262,644.703507535,67114729.091,1632.81707535,64632096.621,70815477.6284,4175.92481976,4167.51872491,0.0
1.17150178999,0.714931596806,1.03003678838e-05,2211220.20597,2.75119852391e-05,0.0,5392363.28339,686.014272908,655.31606438,65695567.8571,1848.57181741,50999335.1922,66972281.4344,4862.90393025,4852.24557414,0.0
1.07615176369,1.20334556125,1.02365769343e-05,-31455286.1089,1.34810798288e-05,0.0,5799750.15085,680.066603946,649.268288215,66951197.5728,1729.61413455,35077478.7064,69267868.7905,4467.10597108,4458.87555521,0.0
1.16244736019,1.07893040206,1.05773861375e-05,318889.179235,2.00331617206e-05,0.0,5467156.80357,685.026255933,654.762796781,65918323.4298,1836.95800327,49828485.0199,67486412.2429,4825.31899215,4814.93625119,0.0
1.03239648219,1.11935963386,1.01729713911e-05,-57601671.0743,1.25811262419e-05,0.0,5856981.62983,677.910812086,646.375003783,67057565.7897,1669.26591954,41254046.3932,70994840.5586,4285.47779757,4276.97791401,0.0
0.961800735635,0.709998672739,1.03353281352e-05,-93830532.3767,1.58520609936e-05,0.0,6017353.44236,683.650114117,641.884240409,67428751.8552,1610.45996244,68882633.9742,69105947.0636,3992.43485362,3985.7227343,0.0
0.959093823733,0.778489409411,9.99656852589e-06,-93850871.6654,1.53766695189e-05,0.0,6060340.06424,684.861039918,641.717703123,67561287.9783,1613.74075448,68900546.2261,69124208.951,3981.19846232,3974.84462069,0.0
1.15207511598,0.99091538755,1.01100940348e-05,-6389557.40333,2.19418728858e-05,0.0,5563591.62288,684.736632094,654.109521399,66290239.1479,1827.59983433,46399626.8074,68652193.0315,4782.26380643,4772.83132107,0.0
1.03281753528,0.908966878688,9.85007252676e-06,-59071952.2579,1.4505638175e-05,0.0,5905369.94385,678.229669422,646.430292508,67213294.0398,1672.4637714,42212638.0011,71056686.8611,4287.22558895,4279.85041581,0.0
1.09798029291,0.794541984117,9.87571931849e-06,-23514014.7411,1.92983888345e-05,0.0,5723316.80007,681.741717546,650.664991073,66730556.5945,1758.05811313,36982564.8456,69094995.3085,4557.71619587,4548.95172077,0.0
1.03393672637,0.85938898416,1.04295805637e-05,-54816394.3652,1.5201914934e-05,0.0,5819937.63359,677.858924041,646.473632093,66950835.1988,1671.10501376,39746583.8523,70885478.4974,4291.87135116,4283.26034982,0.0
1.12018664485,1.05627872646,1.01057957217e-05,-14289519.3675,1.76490220509e-05,0.0,5630111.38288,682.717973094,652.004224972,66450283.0856,1784.44992139,41766095.8591,68587094.8251,4649.89476277,4640.18434738,0.0
1.11833176577,0.845481001387,1.02900533993e-05,-14758782.2534,2.05320224603e-05,0.0,5612726.00086,682.603978058,651.894747609,66385978.7471,1782.71652495,41272040.9195,68646592.5446,4642.19515971,4632.61573134,0.0
0.986364708178,0.904413328234,1.00913548717e-05,-95200383.5088,1.41149232183e-05,0.0,5986842.99017,679.735732795,643.467720274,67361054.6404,1612.12678267,70088642.8462,70330287.8258,4094.39990365,4087.34399606,0.0
1.18825059056,0.993647766538,1.0450236185e-05,6465794.81756,2.32391534293e-05,0.0,7914403.41259,686.794067124,656.379859997,65551421.7287,1867.96058161,53242210.7964,66548928.5566,4932.42820141,4921.37096131,0.0
1.1527141907,1.02233734823,9.97450920633e-06,-6538973.70956,2.12882231978e-05,0.0,5571164.33126,684.850054855,654.153090525,66312816.4311,1828.44348942,46375044.8254,68718957.1433,4784.9166056,4775.47216354,0.0
1.14891970314,1.26278064028,9.43076559282e-06,-7551912.26899,1.67841990551e-05,0.0,5626563.96934,684.629365137,653.767647579,66492679.4515,1823.06817811,46263874.0143,68736057.5407,4769.16568773,4759.66477138,0.0
1.05602117567,0.867968991784,9.58125139778e-06,-42970593.7771,1.5335627351e-05,0.0,5816764.62563,679.496832297,647.875185004,66960842.9236,1700.79377434,35361571.0141,70586808.5666,4383.54390021,4374.71645656,0.0
1.06749428871,0.975276586694,9.85881827083e-06,-36043810.7866,1.48855968439e-05,0.0,5810261.98014,679.824719501,648.627706338,66962186.6071,1717.29730164,34681932.9679,70176079.1803,4431.16879244,4422.6893865,0.0
1.13692529941,0.744063383566,1.0186486961e-05,-10249223.0553,2.46942034992e-05,0.0,5584301.61983,683.884657442,653.138889485,66328864.8316,1808.31846324,44139312.0859,67855969.2343,4719.37691785,4710.10596051,0.0
1.15696624028,0.906476663909,9.9262567245e-06,-3181462.20147,2.17253913707e-05,0.0,5497287.10971,685.253876326,654.444598981,66046736.5758,1830.96006463,48242616.0615,68277800.2327,4802.5668634,4792.18497733,0.0
1.23414849736,1.05271932699,1.029516151e-05,15984044.3106,2.60664279282e-05,0.0,17579671.7105,689.718961476,659.207119691,64896035.4309,1920.95159464,60867576.9458,66695029.2194,5122.95041254,5110.60999757,0.0
1.07568190161,1.12454547159,9.99719190816e-06,-31473802.2673,1.38206935076e-05,0.0,5804408.31668,680.038065815,649.099281763,66961270.5289,1728.43419232,35205038.0672,69604414.6527,4465.15557358,4456.73976722,0.0
1.18399826219,1.22716489341,1.02900448449e-05,4794174.41211,1.88349864983e-05,0.0,6380462.50511,686.455053124,656.070889712,65675197.9313,1862.23177932,52394977.4494,66917972.6119,4914.77678635,4903.57923404,0.0
1.00471959497,0.90140467955,1.01673806926e-05,-89957139.8029,1.44689960737e-05,0.0,5883453.47574,677.849179253,644.623660355,67072630.5086,1631.27743011,65526530.759,70708822.6887,4170.59103872,4162.20721149,0.0
1.07219796058,0.971151956438,9.75370819865e-06,-33778405.209,1.52000658452e-05,0.0,5813141.70708,680.134181691,648.924229913,66976011.2597,1723.9891084,34831589.4849,70018036.0944,4450.69373437,4442.33176498,0.0
1.18619621149,1.04493779499,1.03600528516e-05,6017599.12745,2.19738926193e-05,0.0,7502772.46563,686.670037515,656.23646193,65575333.8657,1865.03583596,53126828.8396,66687631.2472,4923.90047389,4912.76796002,0.0
1.05569411751,0.830191232725,1.02407244921e-05,-42308074.1979,1.61409961983e-05,0.0,5790674.20068,679.016081532,647.83928006,66886726.5129,1700.94658992,35153892.0562,70012332.5578,4382.18628178,4373.48769416,0.0
1.04795895111,1.00683272083,9.94592259699e-06,-45216441.5142,1.3843806687e-05,0.0,5844672.65628,678.745134551,647.374109232,67033019.2285,1690.73674062,35956444.1654,70442029.622,4350.07760606,4341.72236648,0.0
1.07407263515,1.01792711497,1.00203376815e-05,-31652884.2099,1.49187307926e-05,0.0,5790148.52252,679.971302588,648.986904846,66905403.9554,1725.71961673,35169681.5673,69570757.9198,4458.47550851,4449.89457685,0.0
1.15402022658,1.0975509532,1.01201248113e-05,-4306417.99312,1.99288380023e-05,0.0,5537232.52753,684.859720243,654.266737893,66182331.2695,1828.37568324,47595153.786,68503272.2199,4790.33796053,4780.44816492,0.0
1.04013318789,0.719963002134,1.03590650217e-05,-49809291.5093,1.64936888251e-05,0.0,5808379.69746,678.205357797,646.845324122,66919849.8317,1679.82029295,37441084.998,70790440.5378,4317.59286293,4308.9675894,0.0
1.19042736137,0.678348452574,1.04375799201e-05,7102620.72581,3.07447658197e-05,0.0,8514815.33333,687.225169212,656.529828661,65375486.3109,1871.18027429,53623656.003,66326999.1558,4941.46397705,4930.36804255,0.0
1.13984558359,0.986591065201,1.00983474736e-05,-9323796.86055,2.04735454781e-05,0.0,5544152.74954,684.030930705,653.280992167,66190523.4365,1809.52619404,44673519.8068,68074896.5337,4731.49901748,4721.32806551,0.0
1.10198223065,0.990015335152,1.0219571805e-05,-21602991.5999,1.75634141744e-05,0.0,5708783.80761,681.683725831,650.94790927,66686985.2745,1762.91671709,37659694.5496,68575021.072,4574.32823943,4565.50052441,0.0
1.19293498829,1.02215404793,9.98404759967e-06,6148088.56759,2.26219323456e-05,0.0,7671092.64012,687.408182063,656.667820633,65480977.428,1872.9416387,53255854.7472,66667432.7559,4951.87313639,4940.18586405,0.0
1.12689158572,0.755446369547,9.48853821711e-06,-13562938.4706,2.20073043401e-05,0.0,5602304.73634,683.736476346,652.444121139,66370823.8606,1793.49392859,42344814.6667,68280072.3537,4677.72697232,4667.77896336,0.0
0.980135970615,1.17711797942,9.7629838706e-06,-94939806.6936,1.18965831587e-05,0.0,6026893.90826,681.744308047,643.068972059,67469907.7496,1615.57370656,69859009.7786,70097860.2763,4068.54441402,4061.48910127,0.0
1.17907698208,0.682680246402,9.98610510498e-06,3228328.4731,2.86644024601e-05,0.0,5410601.38576,686.761069581,655.776344143,65589694.7717,1857.57210805,51608670.5993,66821999.9037,4894.34855261,4883.23773905,0.0
0.99582069247,0.805142481253,1.04039693157e-05,-95271214.2785,1.50889565939e-05,0.0,5894193.88381,678.186562504,644.05448711,67097076.7587,1619.68915902,70151356.1939,70506240.1318,4133.65169444,4125.49175184,0.0
1.0489449537,0.875291212086,9.92651473897e-06,-46039977.4938,1.52853235451e-05,0.0,5816755.48238,678.889175211,647.427944122,66953194.1413,1691.29609794,36139154.1509,70508959.8322,4354.17050281,4345.46017005,0.0
1.08644868821,1.10061371426,1.05269278458e-05,-25874580.9475,1.5217783278e-05,0.0,5752649.84797,680.46729258,649.910038208,66807499.5382,1742.87126998,36145221.1351,69096923.6902,4509.84850476,4501.36296789,0.0
0.966843204579,0.831615510989,9.78130602924e-06,-94251507.8746,1.51048108588e-05,0.0,6050994.67675,684.257586326,642.217177907,67536551.6087,1616.79893894,69253192.2796,69482657.5739,4013.36614221,4006.82790032,0.0
1.16169703182,0.795234967678,1.02401919008e-05,-517464.757261,2.42099415006e-05,0.0,5409192.75249,685.437281032,654.708226591,65744509.9368,1835.19758423,49434519.7902,67480992.2317,4822.20437908,4811.22260183,0.0
1.08577943752,0.580479304854,1.00715856196e-05,-27207564.5456,2.18405280084e-05,0.0,5730199.79283,681.019233329,649.89757408,66738987.5472,1742.14265715,35922949.216,69189403.411,4507.07044515,4498.49780206,0.0
1.05711662055,0.926652767517,9.79638294473e-06,-43477187.8995,1.52137313446e-05,0.0,5797142.77166,679.408429545,647.93396684,66908250.3538,1701.93631473,35412488.2065,70242254.0324,4388.0910919,4379.0983677,0.0
1.11016802142,0.868107069957,9.79831882837e-06,-19680658.634,1.91511372885e-05,0.0,5692646.31516,682.487132586,651.447777502,66651282.8593,1773.54871798,38754810.6897,68886805.5507,4608.30745691,4599.24975764,0.0
1.12796648166,1.32444492988,1.00342717372e-05,-11854476.7813,1.53129034727e-05,0.0,5676002.93558,683.093495508,652.557407313,66611580.1985,1796.29523923,43365189.3548,68039768.4832,4682.18886537,4673.18720729,0.0
1.00362108703,1.22497840455,9.88262515773e-06,-94626225.913,1.15751125855e-05,0.0,5988576.0684,678.092495988,644.578603034,67398644.1301,1632.95564072,69582461.5175,70985111.3653,4166.03113226,4159.07068862,0.0
1.09870829703,0.910638294723,1.00256001942e-05,-23096756.9823,1.80293856884e-05,0.0,5721249.82414,681.649817867,650.73361503,66715692.5325,1758.74420446,37115378.5581,68929273.6045,4560.73814097,4551.96232035,0.0
1.03558035501,0.841338299927,9.92884961839e-06,-57526443.8483,1.529494203e-05,0.0,5843713.79384,678.380408561,646.586642952,67019905.9058,1673.86871333,41230302.5797,71031473.5926,4298.69405365,4290.22990218,0.0
1.09534154058,0.681350131855,1.01846123954e-05,-23639300.5495,2.12157733765e-05,0.0,5705794.00178,681.430830985,650.494937741,66665007.7548,1754.55062399,36826732.0207,68885889.3027,4546.76273495,4538.03972326,0.0
1.17107032883,1.01543345889,1.02333801651e-05,1737922.37248,2.1334275984e-05,0.0,5420730.42749,685.829861292,655.289987442,65802217.4613,1847.11678289,50749114.8507,67046518.3325,4861.11293497,4850.25151338,0.0
1.03172395143,1.09007679498,1.04743800986e-05,-56832120.3022,1.27857871225e-05,0.0,5837195.684,677.604384647,646.33289192,66993178.2501,1667.73457913,40830910.3742,70777148.0481,4282.68612239,4274.0808849,0.0
1.02364723565,1.09655786874,1.02515996566e-05,-66245160.0312,1.28391766685e-05,0.0,5866850.19592,677.593866556,645.820937537,67075515.0925,1657.47449415,46760342.5823,70904783.8394,4249.15967518,4240.80100656,0.0
1.05425721574,1.00033565197,9.70623784368e-06,-42199941.6864,1.38199913151e-05,0.0,5843331.58699,679.227312039,647.772314598,67037133.5766,1699.21193931,35221712.7543,70754007.5637,4376.22170254,4367.76559588,0.0
1.09840320488,1.0474002966,1.0180344201e-05,-22808217.0111,1.64337824838e-05,0.0,5725408.93203,681.47158887,650.719993708,66731145.2939,1758.19838039,37183851.556,68700666.7179,4559.47170346,4550.7013205,0.0
1.09458287756,1.0534785526,1.01576219874e-05,-24103640.4444,1.60238028393e-05,0.0,5737961.82148,681.217140209,650.433221648,66762767.9788,1753.21951969,36757136.3862,69003266.3028,4543.61352475,4534.90317825,0.0
0.993867613836,1.00474565284,9.90081338402e-06,-95410159.4004,1.37688469524e-05,0.0,5978865.16327,679.655775507,643.949760834,67353462.8426,1619.58413321,70273317.1418,70510802.9898,4125.54446503,4118.3735767,0.0
1.05182936649,1.08312735383,1.00268410936e-05,-44077002.5171,1.34262535686e-05,0.0,5819102.91803,678.872124145,647.614142188,66968546.8829,1695.00625529,35576266.7711,70555641.5279,4366.1437003,4357.38639653,0.0
1.01423397146,0.891574234354,9.92211632766e-06,-79500826.3251,1.4226508966e-05,0.0,5949229.21582,677.776238127,645.240659912,67292753.4672,1647.64906135,56789118.2182,71215783.1519,4210.08521553,4202.97503266,0.0
0.96794959807,0.884500443148,1.01293098837e-05,-94111703.4659,1.47484202544e-05,0.0,6022823.17125,683.401880757,642.28223392,67458413.1605,1614.61204973,69130162.0582,69358528.8472,4017.95878159,4011.18984923,0.0
1.0704053445,0.899089546705,1.01407962735e-05,-32823235.5036,1.61076644111e-05,0.0,5786790.59162,679.75695556,648.778028378,66889495.593,1720.99498846,34971702.7167,69644140.9091,4443.25258502,4434.72782329,0.0
1.1907658778,1.10445655287,1.0129861713e-05,5800269.35419,2.11589849799e-05,0.0,7336664.79033,687.115175562,656.521301103,65501285.4647,1870.07014262,52968360.0664,66688146.337,4942.86915875,4931.2418926,0.0
1.16793644528,1.08194256761,9.71441801425e-06,-1402901.53093,2.09095803693e-05,0.0,5520811.41681,685.953946931,655.139812283,66169633.7958,1846.63444032,49248740.6354,68044786.3705,4848.10418436,4838.18179242,0.0
1.08456758821,0.780725968596,9.8570734081e-06,-28355766.039,1.84027173092e-05,0.0,5759263.88737,681.015288638,649.833665782,66823069.3329,1740.36658408,35772739.0133,69311126.0472,4502.04005866,4493.48630093,0.0
1.02221724194,0.901470570317,9.59055662684e-06,-73138006.0505,1.43365157136e-05,0.0,5942379.86189,678.221877085,645.771718513,67301353.2658,1658.28719077,51815504.6689,71102860.786,4243.22377129,4236.00025817,0.0
1.00204264952,0.872020039671,1.03840261325e-05,-92448321.0263,1.47395341578e-05,0.0,5882184.09142,677.712177798,644.452446862,67069642.957,1627.95407546,67677847.9271,70545827.7552,4159.47903816,4151.21895979,0.0
0.97981297675,0.784872903381,9.98930425774e-06,-94906959.7049,1.53031279304e-05,0.0,6012070.57111,681.263029732,643.050763721,67432920.3148,1614.01088706,69830319.6085,70068865.8385,4067.20366649,4060.49150653,0.0
0.952314349982,1.03301872447,9.89524848541e-06,-93640831.0209,1.33279943168e-05,0.0,6091744.51606,685.915216906,641.281935288,67644286.8052,1612.54125322,68715591.2152,68936297.7826,3953.05686678,3946.79403621,0.0
0.983450213697,1.0795378825,9.93582368986e-06,-94952605.792,1.27756862291e-05,0.0,5954778.22406,680.747022706,643.266511433,67257353.7448,1611.37273383,69870587.2043,70112079.4735,4082.30183706,4074.26114887,0.0
0.992418848831,0.939087012263,1.01874949174e-05,-95207962.2567,1.4207802429e-05,0.0,5917508.09101,679.009321966,643.841137339,67160643.363,1615.03572586,70095635.6521,70334429.4262,4119.5306415,4111.42555027,0.0
1.11107205158,0.954694926942,9.89599239865e-06,-17334830.3585,1.81001255475e-05,0.0,5637198.27439,682.441813962,651.467214125,66462704.6603,1771.97082218,40108424.6735,69053144.366,4612.06008611,4602.1149138,0.0
1.27958189756,0.853315282935,9.90863752914e-06,25136079.2539,3.57886886071e-05,0.0,26835257.0699,692.937104267,662.073864179,64373758.5522,1975.05478633,67827474.769,68821539.7239,5311.54445677,5299.08142153,0.0
1.14428206099,1.05044980221,1.01381382397e-05,-8470167.25659,2.02734878673e-05,0.0,5595119.25945,684.12829696,653.544043785,66376443.9474,1817.64858433,45174568.4854,68366638.8295,4749.91483517,4740.60555134,0.0
1.12757329742,0.855428139054,9.97260358737e-06,-12499277.1737,2.1032059422e-05,0.0,5590000.55659,683.405334369,652.504423321,66336160.3976,1794.20402328,42850409.8226,67245491.8317,4680.55675759,4670.72268374,0.0
1.09004636805,1.09901670467,1.00236502874e-05,-26028077.1918,1.50322453582e-05,0.0,5759706.26351,681.025915769,650.141778925,66834791.7885,1747.26588875,36238005.0113,69286923.105,4524.78247378,4516.1431995,0.0
1.07748032476,0.95835914717,1.02041888638e-05,-30960433.7598,1.61523770949e-05,0.0,5782941.60449,680.261931593,649.359305472,66901379.9312,1731.51996005,35144777.7717,69243711.2982,4472.62082808,4464.37022426,0.0
1.07455001024,1.12259921295,9.57697070069e-06,-33449233.2629,1.35562383089e-05,0.0,5824212.69949,680.312011952,649.058065906,67012201.1702,1726.94166731,34936837.6054,70087200.4442,4460.45709251,4452.05879272,0.0
0.980834815696,0.968031422724,9.78587126214e-06,-94887950.2153,1.39974967637e-05,0.0,6012902.96551,681.87347996,643.114257643,67435175.4783,1617.0929817,69813478.7763,70051952.1861,4071.44531995,4064.46240257,0.0
1.12343780884,1.08108991877,1.00166541154e-05,-14139841.4979,1.79947909093e-05,0.0,5671117.93141,682.936507902,652.248912229,66595678.7357,1790.86232731,41964051.5797,68667774.2506,4663.39034449,4654.43855682,0.0
0.980254921129,0.812249196163,9.83534152615e-06,-94860507.1017,1.49369385014e-05,0.0,6004384.89219,681.67221343,643.075951356,67403438.0144,1615.06720503,69789259.7566,70028086.4926,4069.03817761,4061.9811451,0.0
1.09958375624,0.880697687861,9.88181765411e-06,-23030681.7174,1.82708359845e-05,0.0,5725099.20678,681.811731279,650.785865161,66739734.5248,1760.05679368,37172026.2353,69088520.9877,4564.37217215,4555.58309092,0.0
1.20997169136,0.821390739687,9.95527093604e-06,10765972.576,2.80676936202e-05,0.0,12083215.2226,688.536875216,657.662403275,65182984.9064,1893.5995074,56603272.2742,66564307.4421,5022.59249084,5010.68390962,0.0
1.07850199378,0.832924473659,9.73707066941e-06,-31139996.3229,1.7161607048e-05,0.0,5788652.00242,680.510990469,649.288577951,66912990.3962,1732.3583906,35300509.1932,69452106.5525,4476.86177618,4468.40228729,0.0
1.02751691164,0.805903869641,9.88900790527e-06,-65337833.5677,1.53965417561e-05,0.0,5915435.74672,678.068607312,646.092224337,67241090.6375,1665.69142081,46182764.1152,70869919.2788,4265.22270022,4258.01431665,0.0
1.09504801373,0.987813895816,1.01592769809e-05,-23919761.2222,1.69329977506e-05,0.0,5731593.78944,681.279870112,650.470109728,66743721.2966,1753.88713858,36792159.2704,68983637.5413,4545.54430499,4536.82590201,0.0
1.02833606013,0.930890208498,9.74742271565e-06,-63979154.1449,1.4199838724e-05,0.0,5921364.9358,678.172446156,646.140585088,67255575.3194,1666.44564177,45283741.3954,70967616.2697,4268.6229856,4261.31209324,0.0
1.09274829583,0.996388287391,1.00184441674e-05,-25067384.1114,1.65425432825e-05,0.0,5744680.56632,681.229850899,650.293751032,66795337.1087,1750.87868145,36433733.7841,69159239.0433,4535.99817599,4527.31660004,0.0
1.11746214603,1.16034247163,1.04969202272e-05,-14678984.1919,1.64406057301e-05,0.0,5632619.67743,682.257444089,651.837376717,66449493.4995,1781.20553692,41400923.0007,68545621.1031,4638.58536817,4629.02042268,0.0
1.16570877155,0.886846116548,1.0036679041e-05,135615.610517,2.29680669795e-05,0.0,5420258.7435,685.741768271,654.963001991,65796882.9144,1840.29523542,49995861.6999,67620891.0129,4838.8571107,4827.88335801,0.0
1.07449161015,1.02682113956,1.00819763097e-05,-31294455.7538,1.48756064011e-05,0.0,5787136.18386,679.948960644,649.015875012,66898405.0271,1726.26614175,35232328.9916,69502001.5276,4460.21467373,4451.62714647,0.0
1.08005352995,1.01395961431,1.0019406095e-05,-29499921.1868,1.53676230001e-05,0.0,5780776.94097,680.524867424,649.528440645,66884426.9077,1734.25999202,35552753.5622,69327581.5609,4483.30220282,4474.81864143,0.0
1.19569880674,1.06544859175,1.03294802796e-05,7909582.94557,2.22403227669e-05,0.0,9349835.23733,687.274852929,656.845283791,65482952.6458,1876.54289803,54435648.5631,66598096.8196,4963.34574678,4952.05566384,0.0
1.07848535062,0.854597959155,1.00600573531e-05,-29892494.8386,1.71131857855e-05,0.0,5772867.89998,680.462328068,649.420295436,66858118.9338,1732.32329878,35468530.9447,69284200.5681,4476.79269042,4468.33345961,0.0
1.06501283831,0.620182381852,9.50246180715e-06,-37907960.2455,1.85024901883e-05,0.0,5809842.65236,680.101152867,648.468762933,66950086.4735,1714.32860697,34715316.6529,70124991.9796,4420.86829182,4412.42894733,0.0
1.13323072954,0.702344405242,9.880556024e-06,-11145647.3819,2.42969733414e-05,0.0,5578024.38383,683.918931513,652.893521499,66304538.5997,1802.52202284,43660955.1884,67522161.386,4704.04075832,4694.38943585,0.0
1.16501199427,0.812966399643,1.00761818857e-05,69214.1533922,2.43469681943e-05,0.0,5411114.264,685.732033549,654.918893598,65768343.3527,1839.5230483,49923742.9917,67587410.3363,4835.96478821,4825.00352758,0.0
1.20275585843,0.927059485599,1.02942937328e-05,9060157.52028,2.56266524883e-05,0.0,10424390.8882,687.852862356,657.234425406,65249153.2736,1884.37280468,55172386.1762,66673881.0451,4992.63956834,4980.77142605,0.0
1.01323410328,0.850938975579,9.87684276177e-06,-81074236.4999,1.45541919043e-05,0.0,5951725.64846,677.837415635,645.183168775,67298193.3324,1646.3091201,58064621.7073,70950201.7822,4205.93476272,4198.83872,0.0
1.00433424729,1.0504868334,9.40348172598e-06,-96089548.5901,1.28879113151e-05,0.0,5939225.75201,679.071527864,644.608716466,67222526.81,1630.93979277,70871292.8896,70981275.8179,4168.9914605,4160.82850233,0.0
0.965086728562,0.724851937549,1.04872615128e-05,-93933437.9323,1.56621074025e-05,0.0,6004430.97349,682.767266063,642.094575583,67396707.1353,1609.72544943,68973238.9498,69198198.7633,4006.07501026,3999.31654029,0.0
0.998105591464,1.13208530687,9.80677894638e-06,-95864239.5562,1.22539048442e-05,0.0,6000616.49096,678.73718008,644.228088749,67426500.1566,1625.60766353,70673143.9009,70942364.6999,4143.13631017,4136.25278847,0.0
1.13421296612,1.18217988157,1.019409704e-05,-10850653.8599,1.72106551827e-05,0.0,5588891.71514,683.42181882,652.867615369,66330325.42,1802.43171809,43799139.2264,67764383.1402,4708.11802236,4698.17021636,0.0
1.24508106309,0.96335096748,1.05217363546e-05,19302463.7812,2.9732226546e-05,0.0,21124830.0432,690.343461089,659.895571331,64751156.2043,1933.50345647,63505295.3228,64751156.2043,5168.33149289,5156.16979293,0.0
1.03772468578,1.01604590113,1.02222295789e-05,-53247698.9043,1.35682295202e-05,0.0,5845421.42744,678.115343729,646.70748849,67033419.3467,1676.96426777,38955471.542,70969549.6831,4307.59517067,4299.18547933,0.0
1.27617906249,0.853646201722,9.74488792797e-06,24431320.2868,3.47774566709e-05,0.0,26277796.5806,692.838602797,661.90060544,64462002.5773,1971.51163512,67386459.8134,68368442.566,5297.4192884,5285.01129585,0.0
1.23581314292,0.74160695837,1.01638303673e-05,17157737.8613,3.35062236378e-05,0.0,18752888.7162,690.036207272,659.31444689,64959443.7269,1925.11619649,61804275.1306,66801012.4664,5129.86035626,5118.26257366,0.0
0.998132809534,0.80759873251,9.84725864281e-06,-95783164.7565,1.49306512554e-05,0.0,5983486.69474,678.763591102,644.22889189,67375568.4497,1625.82135845,70601964.9038,70947005.4779,4143.24929238,4136.36809197,0.0
1.17272144263,0.896851208118,9.85113783757e-06,1466552.40457,2.31227829223e-05,0.0,5445520.58026,686.214260147,655.413039647,65889863.8954,1850.56285428,50867193.5679,67607540.1209,4867.96670836,4857.39380413,0.0
1.02390933204,0.774601807726,9.83153908347e-06,-68629592.5478,1.54433050672e-05,0.0,5922531.94517,678.034226131,645.869505063,67249297.0255,1660.63895954,48474118.7637,70959933.1216,4250.2476373,4243.0000052,0.0
1.13387526248,1.16515233199,9.92247776762e-06,-10417394.2239,1.71415843586e-05,0.0,5625811.08734,683.640176861,652.942213799,66459889.9787,1802.91414008,44264853.0343,67809574.231,4706.71621455,4697.18581468,0.0
1.28828673029,1.12697132059,1.03592545091e-05,26502527.7813,3.02000506194e-05,0.0,27957475.4185,693.064417634,662.563705534,64045068.7989,1980.69564664,67981225.6721,69064672.9734,5347.67821743,5334.2819328,0.0
1.00522771522,1.15015701938,1.01993608191e-05,-89258898.4012,1.21700826042e-05,0.0,5918643.80807,677.683656477,644.657153723,67184196.6095,1632.98461184,64920254.7189,70834257.5096,4172.70024588,4164.71956813,0.0
1.19999132857,1.00472782592,1.02258778288e-05,9321909.97508,2.37215160178e-05,0.0,10689231.0263,687.599196772,657.105191319,65482290.286,1882.24374057,55494510.5171,66809888.4278,4981.16400489,4970.00002073,0.0
1.17375321364,0.793331265519,9.67236188575e-06,1314571.88307,2.51038207533e-05,0.0,5386179.05661,686.549457593,655.468563584,65706777.1831,1850.52928311,50691179.5289,67502094.3958,4872.24958982,4861.02549951,0.0
1.13286278866,0.832136257356,9.56575476583e-06,-11921952.4928,2.16118068853e-05,0.0,5616783.63156,683.989459539,652.864690096,66438209.0661,1802.29721254,43156771.975,67622213.2795,4702.51343573,4692.97229227,0.0
0.97190689552,0.917584904802,9.73400947718e-06,-94458695.9288,1.43201919217e-05,0.0,6024644.35147,683.410647273,642.53757223,67453081.2692,1615.58963309,69435523.1335,69669615.6603,4034.3855233,4027.317342,0.0
1.05795425469,1.08147970018,9.75728559292e-06,-41896434.3524,1.33972509541e-05,0.0,5825683.63401,679.359912266,647.986162819,66992639.185,1703.69057699,35197690.3824,70143209.4664,4391.56811122,4382.89015015,0.0
1.14270528178,1.2601554781,1.02979126262e-05,-8174464.37378,1.69801165743e-05,0.0,5551542.21554,683.878955715,653.420417604,66224536.673,1812.80209482,45219471.2575,68427135.598,4743.36962467,4733.17493479,0.0
1.13113952502,1.02487492431,1.01042328216e-05,-11679643.2682,1.90580977497e-05,0.0,5589811.35393,683.374133179,652.668325142,66326800.9546,1798.71303006,43299049.0153,67475462.6645,4695.36016836,4685.46589562,0.0
1.05246441532,0.9988600481,9.47228884388e-06,-45172031.1403,1.39652816747e-05,0.0,5827564.23863,679.350583135,647.661322013,66982651.5494,1695.16015374,35981625.1875,70666666.9514,4368.77978799,4359.83302769,0.0
1.10787971889,0.915936170714,9.69872133297e-06,-19182874.0568,1.8000188659e-05,0.0,5684293.76837,682.400180291,651.305542856,66607470.9641,1769.24611429,39249002.328,68789869.2605,4598.80871311,4589.40186999,0.0
1.02799481663,1.15585483567,1.02476256706e-05,-60971728.659,1.21811128526e-05,0.0,5865515.73605,677.689800004,646.105073552,67077226.8256,1663.39988153,43276888.2609,70912623.5978,4267.20648383,4258.77760722,0.0
1.21247982935,0.873647438968,1.02011375593e-05,11570813.1201,2.73873967186e-05,0.0,12802296.5474,688.533254384,657.853592776,65169701.975,1896.46314426,57185118.6711,66176980.8229,5033.00377163,5021.15788139,0.0
1.04532193239,1.16814637608,9.64641756585e-06,-50667199.5877,1.22284721949e-05,0.0,5892774.27823,678.810898796,647.238214129,67188777.5084,1688.52232116,37915581.0067,72433228.7064,4339.13134135,4331.39133836,0.0
0.999626134607,0.79973143598,1.04385855798e-05,-95575843.7811,1.51843189694e-05,0.0,5882684.97246,677.801887877,644.298583997,67068277.5647,1624.78232754,70419528.037,70459212.1798,4149.44808475,4141.22703491,0.0
1.0074774519,0.891118845173,1.02586300535e-05,-85873965.7633,1.47611542144e-05,0.0,5874173.30598,677.685842967,644.795489877,67051562.9689,1635.1502639,62038272.9694,70661726.2114,4182.03890284,4173.69077589,0.0
1.08373919587,0.631236809599,1.03808323245e-05,-27125170.5749,2.11098748065e-05,0.0,5733518.22013,680.64578634,649.76512201,66741719.6788,1739.73324781,35866297.5787,69100458.0368,4498.60140206,4490.15769384,0.0
1.0095174167,1.0334804533,1.02616994121e-05,-78749443.6944,1.27368233245e-05,0.0,5918288.62468,677.283485316,644.936561313,67177133.334,1639.17216047,56184003.0433,70676206.7285,4190.50679672,4182.77206738,0.0
1.1207881597,1.2076552859,9.96860292904e-06,-14639783.7212,1.58135098876e-05,0.0,5671411.33424,682.75551288,652.054140827,66582279.1364,1786.30618544,41514106.0139,68996352.0902,4652.39165091,4643.07286199,0.0
1.03512276724,1.2330508766,1.01734187709e-05,-55166301.6351,1.17184417705e-05,0.0,5857491.92916,677.992080848,646.562284339,67061188.8078,1672.81627018,39941942.8546,71055322.1548,4296.79460681,4288.25062255,0.0
1.14592981366,0.733239809385,9.79905574944e-06,-7274922.27093,2.51711006186e-05,0.0,5547056.53834,684.632581053,653.648787302,66233940.5767,1818.77818898,46215623.9402,68496792.1718,4756.7546565,4746.99939934,0.0
1.0617121446,0.917341116132,1.01270242136e-05,-36164742.3916,1.51559201689e-05,0.0,5774521.27214,679.465375518,648.319493292,66832600.9383,1707.75085318,34550234.7772,70018520.4539,4407.16711223,4398.06585719,0.0
1.02488709757,0.928076177303,1.06687825042e-05,-62463401.0908,1.43453629719e-05,0.0,5840182.60884,677.299061075,645.902905421,67001729.3398,1659.4810945,44182815.247,70681272.0436,4254.30634201,4246.0135887,0.0
1.17732421148,0.651375130566,1.00164116501e-05,2891907.62876,2.93758034845e-05,0.0,5345632.09544,686.667069894,655.668897972,65588255.309,1855.46742313,51402534.7953,66802396.4682,4887.07280185,4875.99342672,0.0
1.14253370304,1.1371865135,9.85952848266e-06,-8003325.08023,1.80161846829e-05,0.0,5571764.16887,684.072042658,653.349182193,66298786.2411,1812.80340295,45787034.3034,68420241.7839,4742.65740132,4732.5474918,0.0
1.02929504775,0.958047729786,9.90912270657e-06,-61149559.624,1.399227177e-05,0.0,5914260.93597,678.047526881,646.211557455,67235019.4469,1667.74663395,43360321.1073,71051323.7355,4272.60374321,4265.27911558,0.0
1.11901865285,1.19945919714,1.02853140827e-05,-14738632.8188,1.59475914784e-05,0.0,5640213.89359,682.475336802,651.939588373,66471246.6388,1783.24157337,41431814.797,68651523.0313,4645.04642798,4635.45555382,0.0
0.987061331622,1.11254826248,9.97532375708e-06,-95101457.8899,1.24716964384e-05,0.0,5947047.47776,680.079237115,643.498379638,67239552.0932,1611.58970192,70001606.0351,70244891.6041,4097.29158756,4089.19283641,0.0
1.21827608678,1.22874500623,9.82750919277e-06,12139144.0542,2.07445314668e-05,0.0,13380853.3396,688.860154366,658.241324154,65318413.0823,1903.33683147,57763726.4861,66428849.2808,5057.06403622,5045.15900096,0.0
1.04090577951,0.99336703686,1.02310626791e-05,-50032676.8672,1.40518505948e-05,0.0,5827526.70108,678.242716713,646.892483712,66978649.504,1680.65881849,37586472.046,70882260.4479,4320.79989075,4312.16342704,0.0
1.18167883251,1.08038549601,9.71860959545e-06,3549145.95027,2.03643474437e-05,0.0,5664333.80105,686.71620498,655.952929248,65871883.6103,1860.99836767,52061327.838,67144230.6102,4905.14883375,4894.32593452,0.0
1.04440338304,1.21007424492,9.98455848782e-06,-49573158.7771,1.22258089695e-05,0.0,5843923.94718,678.551432025,647.143063736,67036178.9805,1685.32174521,37283251.4367,71089116.6293,4335.318443,4326.71329395,0.0
1.14472087782,1.09737223098,9.70183198777e-06,-7948095.77835,1.87394693728e-05,0.0,5592507.43098,684.413039747,653.578329466,66369117.7578,1816.86917511,45891757.238,68500034.444,4751.73636383,4742.00114698,0.0
1.07914986846,0.812152201279,9.69470597003e-06,-30300473.345,1.71198044076e-05,0.0,5727957.28423,680.638608974,649.307186191,66710186.0037,1730.16949758,35321268.1875,69269571.4349,4479.55110398,4469.9759111,0.0
1.04169732437,1.060681454,1.01256283358e-05,-50793346.2236,1.34500395523e-05,0.0,5836152.20792,678.343196172,646.946691759,67009352.9374,1681.85446519,37883621.08,70895486.7186,4324.08559346,4315.52432549,0.0
1.06081084481,0.731784440346,1.06264900332e-05,-35363390.962,1.7468529221e-05,0.0,5781701.51613,678.953213971,648.194496683,66864735.154,1708.43850796,34590446.4525,69850493.0384,4403.42581681,4395.0525837,0.0
1.05729342324,1.13386438011,1.01779228352e-05,-40278487.4749,1.32952123357e-05,0.0,5819775.76726,678.988665904,647.955192299,66978116.4496,1703.1922056,34900497.5818,69741986.2863,4388.82499987,4380.34181376,0.0
1.06079320714,1.11019904165,1.06090579839e-05,-35518385.0067,1.35090325696e-05,0.0,5805266.82948,678.827257821,648.193889668,66936728.0488,1708.15864329,34618080.9225,69944844.7629,4403.35260284,4394.97964457,0.0
1.17700421597,0.965589725426,9.95097284439e-06,2522054.47293,2.24238179901e-05,0.0,5431366.96168,686.371178055,655.663155464,65854407.6423,1855.67455578,51336239.6938,67121905.7439,4885.74450049,4875.09567968,0.0
1.06645938065,1.10983494441,9.95419212274e-06,-35492853.9374,1.3279251275e-05,0.0,5785464.43589,679.663633234,648.544604765,66873294.933,1714.00634052,34599167.345,70174348.3261,4426.87288908,4417.69250888,0.0
1.15593725184,0.851643904569,1.03807455091e-05,-2790042.67148,2.28474107767e-05,0.0,5448178.45372,684.970894523,654.359988623,65866640.6477,1828.82568148,48058646.9276,67723978.1788,4798.29553239,4787.61523886,0.0
1.11407135299,0.898556972121,9.84913559289e-06,-16710116.8172,1.90980744649e-05,0.0,5674897.24975,682.597443129,651.659106361,66594575.3677,1777.94182095,40472794.698,69244823.9178,4624.51018626,4615.30037509,0.0
1.29564320206,0.94658008786,1.00426603484e-05,27409335.9186,3.43346333401e-05,0.0,28850971.588,693.882891531,663.046458448,63873553.0733,1989.90759121,68503727.2499,69638073.3157,5378.21493175,5364.61497732,0.0
1.23285138497,0.86148099664,1.02560052532e-05,16127946.2455,2.99642979597e-05,0.0,17675048.2808,689.742159436,659.165440585,65041410.1183,1921.41412425,61035690.0615,66713593.3388,5117.56609901,5105.93453,0.0
1.14152859528,1.00753359918,9.81555512971e-06,-8624187.92235,1.99777977468e-05,0.0,5533091.44786,684.292709837,653.377785028,66173709.7612,1810.72272472,45458974.7382,68234468.7322,4738.48519901,4727.98620816,0.0
1.01674697627,1.10584401139,1.03987226034e-05,-71863948.8837,1.26416341664e-05,0.0,5879485.99549,677.343942057,645.387211936,67099424.1453,1648.42179454,50826652.8876,70681619.3652,4220.5166985,4212.35320999,0.0
1.03482152635,0.842212334077,1.01669436221e-05,-55366542.1981,1.51679505277e-05,0.0,5835203.17895,678.132593157,646.540038564,66995504.3627,1672.67636938,40025998.315,70937722.8103,4295.54415588,4287.00504905,0.0
1.16674210934,1.07537421245,9.71951444244e-06,62640.153157,1.93277450132e-05,0.0,5486868.01486,685.828251242,655.046792497,66014885.4614,1842.50450062,50214891.1756,67934010.3014,4843.14649587,4832.55223689,0.0
1.12760907031,0.802129851639,9.86688370283e-06,-12710832.3982,2.19206400491e-05,0.0,5555274.34696,683.569955629,652.497117826,66218087.7846,1793.20772138,42564663.6714,67694551.9298,4680.70525086,4670.37474675,0.0
1.17068316413,1.11734071372,1.01658071657e-05,1480222.23413,1.95367976508e-05,0.0,5437715.39499,685.783381472,655.27104079,65850881.8325,1846.56419541,50624593.7321,67278372.0815,4859.5058143,4848.65144734,0.0
1.10362129181,0.752893578814,1.00202796011e-05,-21351687.6382,2.06219707371e-05,0.0,5695956.18245,682.036454726,651.055013617,66644523.4358,1765.43705042,37760281.1572,68572493.5001,4581.1319823,4572.2792121,0.0
1.00356030405,0.883482113648,9.80108375913e-06,-95534363.0091,1.43321187867e-05,0.0,5927477.98429,678.489416321,644.554738806,67199732.959,1630.99644814,70389194.0652,70797747.6157,4165.77882211,4157.82267365,0.0
0.955545465837,1.02726578744,1.01422607947e-05,-93519873.938,1.30623135863e-05,0.0,6011926.08031,684.999199894,641.47001331,67394719.3389,1608.5883539,68609198.6576,68831495.7715,3966.46922869,3958.94485713,0.0
1.2166747498,0.914598378289,9.86383372511e-06,12145177.4503,2.63009735532e-05,0.0,13385511.6866,688.941507841,658.136448197,65229422.6574,1902.11670602,57747362.7413,66305200.3914,5050.41688642,5038.64851177,0.0
1.21500519522,1.00925185454,9.74084368187e-06,11483206.7147,2.42126441366e-05,0.0,12786496.6474,688.822092392,658.0083753,65290174.0456,1899.9215766,57220396.5276,66319341.902,5043.48656536,5031.64195735,0.0
1.0238596896,1.28172275696,9.89298657736e-06,-68223485.9763,1.1220396191e-05,0.0,5943845.4708,677.819032852,645.868675497,67315491.9547,1660.32367295,48194855.7117,71043511.7844,4250.04157153,4242.79464752,0.0
1.14652132815,0.799157528586,9.91157238276e-06,-8295024.30634,2.45349790678e-05,0.0,5575975.58403,684.546267762,653.693098592,66315594.0925,1820.87776183,45333393.3203,68390774.4592,4759.21003315,4749.86660573,0.0
1.06958265649,1.06443846449,1.01212763776e-05,-33309290.9839,1.4204092214e-05,0.0,5800735.22923,679.673287138,648.741016134,66930408.4145,1719.78526253,34911937.1511,69766503.5112,4439.83760709,4431.32575653,0.0
1.15633512201,0.970459133,9.85662051587e-06,-5427558.36623,2.22127606297e-05,0.0,5553994.6661,685.170611499,654.3775963,66252681.8158,1832.87959976,46973566.8009,68626388.5574,4799.94709146,4790.34971128,0.0
1.12556748913,1.03747471353,1.00898494864e-05,-12920623.2418,1.80713418335e-05,0.0,5611485.561,683.091187812,652.369435831,66398715.5504,1791.50418246,42576777.847,67652019.9452,4672.23064738,4662.4480355,0.0
1.081544076,0.90083706564,9.99162641544e-06,-29052782.6744,1.67288657913e-05,0.0,5770449.00815,680.686280532,649.632608738,66854445.2652,1736.30224405,35665917.2665,69304474.8447,4489.48945948,4480.98274543,0.0
1.18833025852,1.00402051324,1.00022504883e-05,5372630.11715,2.25786654421e-05,0.0,6932617.3013,687.07348246,656.3434132,65540244.7438,1867.29198811,52822705.6435,66818524.1581,4932.75890312,4921.17821865,0.0
1.25419155827,1.10347009894,1.02000909837e-05,20306243.4144,2.70541871614e-05,0.0,22138900.3411,691.031158867,660.455817393,64632949.8641,1943.54718658,64322527.9841,65106781.7016,5206.14915838,5193.42056731,0.0
1.16815381699,0.892686250412,9.94698979266e-06,-444633.916257,2.48624915164e-05,0.0,5494341.63469,685.915327276,655.149036876,66081416.75,1847.0440381,49755436.487,67799419.7846,4849.00649433,4839.19206005,0.0
1.11021533554,1.05255568594,1.00301612287e-05,-16344106.6687,1.66753696613e-05,0.0,5695979.63157,682.154093391,651.426478376,66632772.7477,1772.62341576,40644109.4318,69198425.0349,4608.50385783,4599.37607878,0.0
1.05905297786,0.882697453422,1.02878981017e-05,-38558921.2682,1.56757128084e-05,0.0,5812122.83378,679.079454634,648.080632951,66952816.658,1706.53026773,34690386.2843,69801311.0372,4396.1289111,4387.87407456,0.0
1.21342756238,0.897826173209,1.05242810316e-05,12461880.8438,2.75190423904e-05,0.0,13665564.5777,688.356860681,657.945701341,65218426.5433,1898.17768258,57889350.7197,66352526.3028,5036.93781144,5025.54798745,0.0
1.0589072835,0.979987886554,9.88468618578e-06,-40913139.7073,1.45587018167e-05,0.0,5811508.48198,679.359480828,648.05053398,66952938.2114,1705.08932534,34980815.6376,69704679.2404,4395.52413381,4386.83081596,0.0
1.14041677096,0.780256912811,1.00020615934e-05,-9427397.65317,2.36797581983e-05,0.0,5537840.26924,684.241493149,653.324429827,66178549.1758,1811.03884638,44648285.4537,68015869.8365,4733.87001626,4723.84202998,0.0
1.11458153347,0.67103860723,1.03112437604e-05,-15685260.1329,2.31866748635e-05,0.0,5607914.33557,682.456579029,651.641789179,66364989.5485,1778.1577937,40834902.5507,69136698.5939,4626.62794543,4617.10999837,0.0
1.0720584966,0.999948121223,9.66212095117e-06,-34173797.6108,1.48339214647e-05,0.0,5818845.03063,680.188061901,648.919760689,66992255.9388,1723.78688447,34811636.1386,70115492.3672,4450.11481939,4441.75500217,0.0
1.13760048086,0.818033304496,9.98305700836e-06,-8937392.68249,2.2743038144e-05,0.0,5540727.1567,684.061634939,653.160790072,66191462.6914,1806.58329726,45149184.5499,67989371.7779,4722.17959605,4712.05124506,0.0
1.10202172873,0.878621027393,9.92406146625e-06,-22129187.9957,1.85565987645e-05,0.0,5716013.17596,681.942900287,650.95609232,66716685.6608,1763.24056062,37512674.5541,68504193.2854,4574.49219596,4565.66468004,0.0
1.08040275976,0.910161074935,1.00532718624e-05,-29245143.1406,1.65817338715e-05,0.0,5771603.28855,680.567634516,649.555002235,66857050.7201,1734.79751862,35598851.0134,69292390.4934,4484.75185576,4476.26287211,0.0
1.13396882947,0.895145038236,1.00089299492e-05,-10017370.4778,2.11755572919e-05,0.0,5569497.00403,683.657528838,652.853998787,66281447.0842,1802.05284335,44491964.0148,67784567.3548,4707.10461113,4697.1408298,0.0
1.02886159876,0.841322904946,1.06461111107e-05,-58743820.5464,1.50791644991e-05,0.0,5852690.62466,677.440911354,646.157580713,67045644.718,1666.116896,41909810.1161,70652234.5297,4270.80449645,4262.94109365,0.0
0.982116251224,0.910180968008,9.57915886219e-06,-94975453.7197,1.45792697554e-05,0.0,6014708.63041,682.280835567,643.198165066,67440133.0792,1619.45073727,69890628.0332,70129617.6274,4076.76455883,4069.76306656,0.0
1.08216510398,1.05325168442,1.01178616334e-05,-28480745.8716,1.50883004801e-05,0.0,5773832.88235,680.573523678,649.679159962,66868333.3232,1736.99213579,35738682.3653,69294989.8576,4492.06734662,4483.55097851,0.0
1.25648583195,0.973468614011,1.03712038694e-05,20980005.5111,3.08380626016e-05,0.0,22985250.2451,691.235341879,660.614838997,64499828.7564,1946.16178196,64795232.354,65646475.3075,5215.67268842,5202.91609442,0.0
1.18567730228,0.978956435694,9.99756549393e-06,4940700.12753,2.28910858156e-05,0.0,6559349.85183,686.848190898,656.18619342,65742112.548,1866.03019218,52712402.7532,67023265.6672,4921.74648176,4910.96171831,0.0
1.06058479632,1.14502707882,9.94411604709e-06,-39810169.907,1.29989549694e-05,0.0,5815935.10404,679.349821759,648.173272402,66970556.5668,1707.19195751,34823862.8439,69821765.2882,4402.48748952,4393.7671141,0.0
1.10995159025,0.929776909102,1.01570181515e-05,-17411531.8127,1.85955901682e-05,0.0,5660241.70033,682.157694081,651.403496858,66539577.3679,1771.76048688,40027130.0286,69047411.0701,4607.40905113,4598.06687078,0.0
1.17061862983,0.667523317468,9.88520874582e-06,1249119.72713,2.79299940408e-05,0.0,5384705.41051,686.312109085,655.276656553,65694500.2447,1847.1487172,50642026.1608,67463711.1862,4859.23793242,4848.28005393,0.0
1.22858141638,1.06166973028,1.04145202488e-05,15255463.1575,2.55843283275e-05,0.0,16808086.1596,689.259690383,658.920221117,65137292.5348,1915.86041238,60328939.0215,66731412.9293,5099.84145939,5088.28652263,0.0
1.09717381246,0.642884194636,9.95646221245e-06,-23734664.3396,2.19199703046e-05,0.0,5706054.65095,681.72738316,650.618771963,66679483.033,1756.99726574,36872630.6125,69328519.5609,4554.36849552,4545.61745085,0.0
1.17473565459,0.941341102016,9.63631701968e-06,1388386.24382,2.2246196076e-05,0.0,5405948.0708,686.50684239,655.5275841,65769462.2019,1851.54677663,50787065.3034,67346039.133,4876.3277022,4865.09877643,0.0
1.18065200795,0.87863549149,1.04378180142e-05,4126681.46898,2.48890566236e-05,0.0,5903638.07899,686.391022095,655.85869253,65589337.4428,1858.97762837,51925327.6637,66816464.6285,4900.886485,4889.85347653,0.0
1.15673481974,0.880296737265,9.86141901752e-06,-5341268.58574,2.38344552339e-05,0.0,5543722.55579,685.242105924,654.401619467,66222282.3514,1833.48031299,47059094.6267,68585205.208,4801.60623674,4792.00236193,0.0
1.09967992823,1.0855866691,1.00297950083e-05,-22822628.365,1.59318810545e-05,0.0,5731065.86404,681.632026796,650.801441483,66746391.0059,1759.84453369,37222424.8283,68729399.0855,4564.77138208,4555.98089789,0.0
1.13798467316,0.865329121715,9.89575434405e-06,-10406012.1857,2.19786737241e-05,0.0,5578225.03445,684.111739797,653.199167189,66312135.4648,1808.55855247,44244793.9628,67821688.3506,4723.77437829,4714.0437961,0.0
1.06223259088,1.10998388714,1.01452455668e-05,-37339070.0493,1.33477180517e-05,0.0,5820502.98844,679.26624152,648.284020236,66988439.9745,1710.2947078,34643162.4649,70049708.2827,4409.32748474,4400.93033247,0.0
1.12735941018,0.709248550341,1.03570050689e-05,-11987319.9686,2.38492088897e-05,0.0,5559333.85616,683.152199114,652.414866398,66231421.5674,1794.18116475,42944201.5175,67195031.5452,4679.66891166,4669.83803709,0.0
1.20053647407,0.984941627056,9.74718281744e-06,8816983.2857,2.35136839587e-05,0.0,10267696.441,687.942502161,657.160562533,65576066.7799,1883.44515131,55266606.7501,66859915.614,4983.42690386,4972.23830551,0.0
1.04039659951,0.886901097179,1.02613603215e-05,-50200179.7433,1.49900890007e-05,0.0,5821379.32382,678.232395819,646.859114531,66958776.8408,1680.05810933,37623742.9268,70835486.6778,4318.68628457,4310.05672884,0.0
1.08042372709,0.938738297637,9.92416648369e-06,-29569564.7944,1.61758786017e-05,0.0,5778642.42202,680.64102962,649.549385445,66876972.7356,1734.80547293,35537750.0552,69337326.2269,4484.83889115,4476.34958191,0.0
1.05285890986,1.16196064198,1.00222215751e-05,-41744429.8392,1.2613431084e-05,0.0,5836735.97966,678.950289009,647.753074401,67019040.5294,1696.98072057,35139565.6635,70653561.3589,4370.41733483,4361.98537187,0.0
1.05344717074,1.05913750429,9.99237868629e-06,-42170237.2182,1.35438942463e-05,0.0,5833592.29181,678.944462178,647.712024783,67011195.4094,1698.01086762,35200529.9729,70627242.6877,4372.85920574,4364.41757676,0.0
0.920158069121,0.877860075415,9.76815499911e-06,-92195464.3443,1.45334218734e-05,0.0,6161813.18714,690.851584379,639.209969322,67805677.8139,1606.58046443,67443440.8845,67805677.8139,3819.57614492,3813.76748215,0.0
1.08361078397,1.00682672326,9.93566170829e-06,-28298334.0916,1.55458201732e-05,0.0,5776902.1438,680.807990798,649.774200157,66875398.6986,1739.04067883,35795709.237,69349754.4354,4498.06836426,4489.52939875,0.0
0.943023077765,1.03946764249,9.90660955145e-06,-93268211.5125,1.30586190713e-05,0.0,6113990.35516,687.060610969,640.683410739,67695315.9024,1609.49071927,68387450.6593,68603628.7498,3914.4887958,3908.35243401,0.0
1.18094526288,1.08186200301,9.80065798112e-06,3136253.66773,2.03748652018e-05,0.0,5406566.60415,686.66112108,655.898697398,65776640.8018,1859.36876498,51699019.703,67045379.8714,4902.10378621,4890.97266849,0.0
1.14701471214,0.736954517571,9.98309975746e-06,-8009547.39741,2.59417070784e-05,0.0,5564220.80502,684.570330089,653.725890515,66282082.5832,1821.53094517,45491610.266,68418178.7249,4761.25807009,4751.90674489,0.0
1.10014014866,1.12211967194,9.83873008608e-06,-23036443.6758,1.52977166761e-05,0.0,5743354.55797,681.763779251,650.823243445,66795298.4917,1760.57853679,37200596.2027,69123852.08,4566.68175709,4557.88391034,0.0
1.09178587164,0.790412325372,1.03356466109e-05,-24617914.4439,1.9364573481e-05,0.0,5724349.98729,681.028882885,650.238128752,66725237.2497,1750.13041592,36542107.4083,68975782.7806,4532.00315318,4523.43497348,0.0
1.07537983014,1.10317764562,9.81858551496e-06,-31292486.1346,1.36097643256e-05,0.0,5775292.96039,680.304976428,649.153650305,66852580.8782,1726.1517641,35120746.6125,69541908.6339,4463.90167491,4454.75697786,0.0
1.1312221625,1.26267393382,9.87013804389e-06,-11911715.4835,1.58381885134e-05,0.0,5636683.82443,683.489177042,652.755662366,66480489.5988,1799.34800171,43326382.0299,67550233.6742,4695.70319654,4686.08598018,0.0
1.11103260154,0.895594738893,9.98199720292e-06,-17329457.3719,1.89512154137e-05,0.0,5678304.9379,682.347846333,651.480487408,66586127.2816,1773.97391064,40123960.7004,69077808.4763,4611.89632899,4602.73472861,0.0
1.0795025165,1.13715545922,1.01196265082e-05,-29427757.7648,1.397967312e-05,0.0,5786291.03166,680.371783691,649.494746999,66901896.6222,1733.4362567,35563861.852,69323900.5964,4481.01494599,4472.53993694,0.0
1.14440156196,0.885102435679,1.00160466894e-05,-8242920.74153,2.22907815583e-05,0.0,5529443.68293,684.369778041,653.534079041,66157753.6848,1815.79561102,45288760.2559,68352188.1325,4750.4108837,4740.26524441,0.0
1.08810457029,1.05713069528,9.79554183412e-06,-27371543.0897,1.52506581854e-05,0.0,5771705.07203,681.126997408,650.049379207,66865224.3476,1744.76783821,36028909.4987,69398067.3841,4516.72207127,4508.11296253,0.0
1.0798835655,0.987481721026,1.0046994423e-05,-29466165.9145,1.56927313106e-05,0.0,5778216.30064,680.507784572,649.51793347,66876623.4963,1734.05813493,35551690.3973,69313617.3246,4482.59668039,4474.11575742,0.0
1.11842398639,0.841822868296,1.03993574443e-05,-14553578.5505,2.07001664584e-05,0.0,5606689.65636,682.544270711,651.900616499,66369329.2063,1782.78236942,41458512.301,68450572.9506,4642.5779675,4632.9960843,0.0
0.939946148287,0.984818295553,1.02306819728e-05,-93066110.3127,1.32187293264e-05,0.0,6105293.9696,686.521359766,640.48310225,67666653.4881,1604.91389206,68209587.2282,68424177.7964,3901.71646154,3895.61861687,0.0
1.13706804582,0.88695381456,9.9368726102e-06,-10577349.9274,2.15900775724e-05,0.0,5581427.74724,684.017003634,653.139730938,66322047.6604,1807.34850909,44136929.7743,67771729.3404,4719.9694582,4710.25412314,0.0
0.980735686681,1.22679667803,9.97969454174e-06,-95023998.461,1.1699893803e-05,0.0,6031019.18646,680.994055478,643.110520589,67493147.1242,1614.05629548,69933430.3458,70172525.2509,4071.03383541,4064.30887267,0.0
1.08235055317,1.00411455429,9.93592728196e-06,-28969510.0438,1.55987253589e-05,0.0,5777468.73982,680.731761336,649.686771224,66876394.2637,1737.28297514,35699377.8624,69342048.8806,4492.83714621,4484.31789436,0.0
1.18511037531,0.975175015972,1.00499083689e-05,4896052.37532,2.29839789281e-05,0.0,6518568.64635,686.784640264,656.149735668,65739464.0841,1865.29205713,52658778.2596,67011182.9681,4919.39316791,4908.61828725,0.0
1.12193312043,0.950044563436,9.90322397794e-06,-14381114.3043,1.9259496664e-05,0.0,5650517.09648,682.991316935,652.129241548,66517994.8513,1788.03814012,41649211.9297,68849912.3102,4657.1443829,4647.80696576,0.0
1.19858900206,0.908177601127,1.03076626319e-05,8202571.82839,2.56409317125e-05,0.0,9575686.95578,687.630102758,657.002067252,65272125.7868,1879.4544056,54508459.8102,66502890.7106,4975.34294755,4963.57241226,0.0
1.20701068379,0.951110299944,1.0040472436e-05,10166431.0937,2.51114047934e-05,0.0,11511611.8883,688.18956042,657.482938237,65283216.8853,1889.7556433,56110516.5495,66958413.9636,5010.30134841,4998.47491607,0.0
1.19462928904,1.15102733426,9.93085885177e-06,6345684.93333,2.04817834328e-05,0.0,7869796.27252,687.453916406,656.777760797,65523479.2543,1874.8631314,53411249.5781,66685795.2395,4958.90617881,4947.20079466,0.0
1.04633685699,0.698012230527,9.89705956217e-06,-47515665.5957,1.69498502733e-05,0.0,5812656.28447,678.873284014,647.271176933,66934567.8747,1687.95339681,36620127.8952,70578311.172,4343.34429337,4334.67634415,0.0
1.24113963379,0.698469301048,9.43309643689e-06,17407868.6096,3.37235979813e-05,0.0,18953511.9247,690.888961855,659.657513465,64868879.2548,1931.55053955,62037403.6862,66897401.9998,5151.97061986,5139.83187073,0.0
1.02121621645,0.715512083385,9.97237546419e-06,-70590833.5716,1.58208233936e-05,0.0,5920758.95457,677.852690213,645.694165233,67239883.2291,1657.095671,49893950.4824,70739772.0921,4239.06851448,4231.85925379,0.0
0.971693921703,1.2175609692,1.0096226906e-05,-94597642.0909,1.18128845475e-05,0.0,6048706.28525,682.123052104,642.529220736,67539766.0497,1612.13409053,69557934.1019,69790697.172,4033.50146899,4026.98488287,0.0
1.07550705413,1.03713301511,1.00437495339e-05,-31051507.2145,1.4799432512e-05,0.0,5786776.44003,680.033312558,649.085173384,66898481.0362,1727.59122746,35304998.4309,69456232.2287,4464.42978169,4455.82626049,0.0
1.0765737699,1.171565086,1.00761650719e-05,-30622949.7247,1.35106804876e-05,0.0,5786694.50761,680.214249328,649.286965293,66900345.0724,1728.8988182,35367268.6387,69353177.6594,4468.85771885,4460.23738306,0.0
0.965321095685,0.983252060446,9.98290008623e-06,-94133813.2278,1.40029697297e-05,0.0,6054379.03676,684.019075615,642.118626765,67552158.8517,1615.55779159,69149628.8587,69376879.4014,4007.04786819,4000.60978865,0.0
1.04688678586,1.17344640645,9.81151463391e-06,-48163472.0752,1.23645283171e-05,0.0,5875213.93604,678.721621958,647.318703161,67131547.9025,1689.99076179,36900543.1044,70767196.9874,4345.6270481,4337.67967245,0.0
1.13510616346,1.09247232742,9.66047792323e-06,-11305516.3074,1.80097095365e-05,0.0,5627215.29838,683.942561316,653.018339722,66460111.5608,1804.85393224,43637742.4306,67707193.7192,4711.82568452,4702.24763899,0.0
1.18410648244,1.02009249796,9.85487903814e-06,3910435.26746,2.18075297794e-05,0.0,5711372.44271,686.881634886,656.072112777,65638597.5405,1862.44080453,52081795.0576,66948391.2579,4915.22600861,4903.72153207,0.0
1.13864201218,1.06220055795,9.95774295888e-06,-8812419.37178,1.89876241724e-05,0.0,5563100.79261,683.985368319,653.219600191,66261600.8117,1807.60983266,45282402.8619,68127740.7185,4726.50299256,4716.35830802,0.0
1.01074613934,1.11646452756,9.81968476674e-06,-84839620.1002,1.22941320382e-05,0.0,5972935.37489,677.842718878,645.027641746,67358251.9174,1642.79276635,61185881.6097,70943642.4533,4195.6072244,4188.54631432,0.0
1.17689060609,0.959957060111,9.76317767637e-06,2430910.19218,2.21465517088e-05,0.0,5409458.10484,686.513007575,655.652620067,65778797.6274,1854.47461145,51372626.3326,67033863.3896,4885.27290588,4874.21602237,0.0
1.16103114369,0.982856947146,1.02137823007e-05,-1857080.5056,2.11897063065e-05,0.0,5480836.9523,685.258917044,654.685485478,66013067.2897,1836.07430172,48746951.8396,67840260.4777,4819.44027746,4809.08025985,0.0
1.08727709861,0.873698471686,9.78104567176e-06,-27676355.0227,1.73270271544e-05,0.0,5761540.85122,681.174021764,649.999796045,66833118.2357,1743.83961278,35953797.5594,69365589.7664,4513.28723633,4504.69123025,0.0
1.0857840361,1.02217758484,1.01089738829e-05,-27206430.0311,1.572211507e-05,0.0,5762244.13788,680.785568101,649.896229439,66837705.6072,1741.75063754,35931137.3485,69282856.1959,4507.08953385,4498.51681907,0.0
1.11335499975,0.791015729,1.04287594118e-05,-15826814.0988,2.09640372598e-05,0.0,5620504.82317,682.215508215,651.562204215,66403772.6997,1776.37363655,40735970.5902,69203990.6691,4621.53660396,4612.04057521,0.0
1.10631024374,0.889318432251,9.82680430293e-06,-18458406.2473,1.85624663439e-05,0.0,5727000.23061,682.148908365,651.217109211,66740823.0625,1769.01136764,39561291.8926,68972959.7809,4592.29382176,4583.62790528,0.0
1.10440605511,1.06212106035,9.81017059171e-06,-21977591.0213,1.65564947025e-05,0.0,5738580.49718,682.078033877,651.114535981,66784769.1281,1766.8595768,37637568.0182,68620691.0459,4584.38953476,4575.72346259,0.0
1.02210686832,0.908091544154,9.92059744855e-06,-70056605.8015,1.42371943105e-05,0.0,5929560.48682,677.864126833,645.753322167,67268096.1725,1658.17320501,49508433.2995,70832711.397,4242.7656104,4235.54366934,0.0
1.07335118208,1.04734011858,9.87785410416e-06,-32879002.5891,1.44659601277e-05,0.0,5810386.92578,680.042302427,648.966126754,66972107.8678,1725.43190912,34956477.6253,69855812.9544,4455.48075681,4447.10098255,0.0
1.23262662163,0.895098022537,1.01015275773e-05,15947888.1168,2.88534821502e-05,0.0,17439869.1046,689.810484329,659.17457956,65078314.8208,1921.26697072,60858293.3075,66735152.2158,5116.63310639,5104.97676207,0.0
1.11049193188,0.864797663935,9.86050546411e-06,-17555480.6578,1.91031464849e-05,0.0,5633184.79251,682.478681121,651.434669819,66449249.3912,1771.31596273,39949895.3835,68995051.9541,4609.65200923,4599.71672914,0.0
1.22233440566,1.05997451698,9.74487740569e-06,13467578.9228,2.36971621319e-05,0.0,14793407.5091,689.212986529,658.519996458,65340703.2703,1909.2246142,58895287.972,66639475.1486,5073.91011789,5062.40566749,0.0
1.17297594388,0.798093750453,9.86968284112e-06,1498514.37169,2.51894870703e-05,0.0,5379268.70702,686.370881721,655.409104124,65689703.3094,1849.38949058,50663626.5919,67183427.5629,4869.02314305,4857.81316703,0.0
1.08523250619,1.15967826132,9.71422776839e-06,-28675713.8736,1.38536467001e-05,0.0,5789512.10905,680.991530978,649.878669648,66926082.1857,1740.93820093,35838242.7925,69440238.8579,4504.80013319,4496.23601555,0.0
1.15380707123,1.15959031872,9.69374751138e-06,-5242797.59851,1.84136314909e-05,0.0,5561738.90763,685.011789024,654.214507446,66280918.6223,1828.02132204,47396189.5143,68801052.5587,4789.45315268,4779.47448751,0.0
1.08978793591,0.853324300452,1.01705617076e-05,-25570517.6817,1.80771368679e-05,0.0,5736406.80342,680.992753858,650.101626249,66764409.0059,1747.11796959,36232840.73,69139485.7332,4523.70972196,4515.07448929,0.0
1.04038522081,1.15396515319,9.53328632139e-06,-54724588.7464,1.254290036e-05,0.0,5851498.5147,678.768018043,646.882204244,67048986.052,1678.86164166,39844985.9471,71433913.3758,4318.63905158,4309.75030301,0.0
1.00462501828,0.852813920956,9.88549870123e-06,-89231374.0925,1.39764150348e-05,0.0,5940813.56333,677.924146975,644.629855603,67230448.7597,1632.81479372,64904846.775,70985995.0127,4170.19845088,4162.53774415,0.0
1.02858489091,1.01031764181,1.02028982717e-05,-60709394.9226,1.35249937289e-05,0.0,5856925.56258,677.809433191,646.143201838,67051124.2626,1664.28393794,43128542.4755,70823574.4244,4269.65588217,4261.21750056,0.0
0.989792578787,0.736170424831,1.00422733444e-05,-95124829.2168,1.55630283184e-05,0.0,5917078.72972,679.652959919,643.67301715,67150864.4162,1612.09034715,70022326.6915,70267477.4815,4108.62899454,4100.4862156,0.0
1.0801168078,0.80455103776,1.02459928236e-05,-28656271.3121,1.80211569976e-05,0.0,5745100.54382,680.475291421,649.542498041,66767863.4263,1733.83101372,35515386.0814,69168233.1104,4483.56486918,4474.88858865,0.0
1.10365780151,0.918626152312,9.72951459419e-06,-19024160.932,1.72050200477e-05,0.0,5704053.27505,682.101011779,651.052672443,66650853.8945,1763.73293492,39239049.1797,68694878.7557,4581.28353407,4571.96569937,0.0
1.18769991309,0.52264479741,1.02575120312e-05,6005821.11802,3.56084135378e-05,0.0,7491241.85294,687.419433043,656.322016321,65195343.7694,1867.64400348,52976283.3109,66375553.9727,4930.14233924,4918.66568515,0.0
1.13204421082,0.931573331522,9.8668060373e-06,-11554956.2855,2.03867778529e-05,0.0,5606095.75781,683.710750429,652.811488526,66387563.6442,1800.7316167,43446379.5578,67516875.3238,4699.11551911,4689.48468405,0.0
1.18050738246,1.10869201599,9.94957741891e-06,3267799.36925,2.00701110051e-05,0.0,5402588.85933,686.526101575,655.865553792,65766643.3525,1858.62273123,51695038.1775,67036856.8462,4900.28614459,4889.14964906,0.0
1.18383750897,0.95341703389,1.02749355727e-05,5186609.87222,2.34113925197e-05,0.0,6694994.92745,686.629653982,656.061403855,65578004.1663,1862.27081847,52600289.6965,66762731.6089,4914.10949973,4902.91716583,0.0
1.04493759275,1.0872405366,1.0182606902e-05,-48174866.651,1.32308279344e-05,0.0,5826549.23889,678.464469176,647.181478209,66983189.7006,1685.93804717,36895110.169,70623612.4802,4337.53594751,4328.83381632,0.0
1.11356697651,0.930568879049,9.90459333572e-06,-16613365.6674,1.86387804362e-05,0.0,5625901.14457,682.556301986,651.591878184,66432974.048,1775.20734157,40625890.7288,68952276.5592,4622.41651949,4612.42735026,0.0
1.22839362526,1.02521822943,1.01728718968e-05,15158253.7696,2.57798847565e-05,0.0,16618047.9444,689.416709572,658.91117906,65140208.952,1915.64427073,60210240.1437,66743569.7822,5099.06193845,5087.3913292,0.0
1.04835220992,1.0413181513,9.94338618921e-06,-46175909.5824,1.36757371843e-05,0.0,5827978.16779,678.783238303,647.39270594,66987264.0606,1690.39280072,36062195.0831,70481242.6504,4351.71002338,4343.00933048,0.0
1.1393615538,0.85261403601,1.01105794194e-05,-9387578.21134,2.24991610705e-05,0.0,5531983.57858,684.077755626,653.253856372,66152506.6394,1809.06969152,44626590.1389,68005192.1338,4729.48980982,4719.3271933,0.0
1.21033211971,1.10738229648,9.76395548908e-06,10523971.7358,2.21200807613e-05,0.0,11867628.1891,688.432695702,657.691383658,65351059.455,1893.68936544,56497255.1328,66956101.2907,5024.08862892,5012.16663884,0.0
1.10987865196,0.880626991781,9.95567400788e-06,-17583339.4087,1.89307986597e-05,0.0,5632147.4648,682.367417118,651.393627714,66446456.8573,1770.48132489,40033024.0098,68973976.7812,4607.10628429,4597.18081868,0.0
1.18271263054,0.918343611325,1.00511092851e-05,4699702.20984,2.34707401394e-05,0.0,6299070.8656,686.692869314,655.985383783,65637027.9884,1861.13404055,52472655.321,66994879.2002,4909.44012937,4898.27234755,0.0
1.00590734565,0.838823751769,1.01111233795e-05,-89083155.7259,1.50011414236e-05,0.0,5879347.99188,677.91131064,644.696099657,67060925.7589,1632.88888582,64766803.8339,70792750.2092,4175.52139179,4167.11688552,0.0
1.1616820891,1.09455637642,1.03527950916e-05,-1791341.46899,2.12954504725e-05,0.0,5525207.31776,685.153714207,654.741913405,66144505.9804,1838.90883033,48672925.9153,68040428.9351,4822.14235185,4812.55605851,0.0
0.988487146955,1.06316070007,9.84922038297e-06,-95211225.4025,1.31655424185e-05,0.0,5996400.21743,680.544751561,643.605355078,67401168.8107,1617.97212871,70098277.1505,70340218.4545,4103.21014701,4096.1170309,0.0
1.12267900409,0.947071264045,9.78915188374e-06,-14206536.7444,1.92186128186e-05,0.0,5594888.03779,683.189755678,652.157378181,66346387.9297,1786.75223587,41735688.071,68381250.4881,4660.24054598,4649.99719496,0.0
1.07324235916,1.19126036317,9.97568422364e-06,-32263504.8849,1.31055067979e-05,0.0,5804548.97253,679.898892943,648.941003544,66947114.1456,1724.50756486,35163365.9659,69698936.8397,4455.02903287,4446.46116551,0.0
1.10719666693,0.852151008569,9.95403256887e-06,-18347305.2427,1.9032647757e-05,0.0,5638887.248,682.237269968,651.236967108,66462374.0133,1767.05084456,39527038.8569,68825941.5312,4595.97336443,4586.09500322,0.0
1.00463927936,0.91656300623,1.00066017707e-05,-91352502.5652,1.44004905726e-05,0.0,5890686.06386,678.13107477,644.61848022,67092193.212,1631.12293367,66704517.9355,70781644.5759,4170.25764862,4161.87385839,0.0
1.11589390424,1.11025015426,1.03290700029e-05,-15437447.9957,1.67821218494e-05,0.0,5644744.0923,682.274339436,651.724294244,66481262.3944,1779.32486431,40985111.0448,69088412.5069,4632.0755965,4622.53583161,0.0
1.00229247611,0.927699982,1.03170735785e-05,-93325928.3109,1.43650877285e-05,0.0,5886845.02623,677.806404156,644.46851045,67083370.1285,1628.24017054,68449772.3878,70591913.8174,4160.51606833,4152.25195082,0.0
1.14655912245,0.901010244337,9.32460839018e-06,-8680037.73329,2.15251520139e-05,0.0,5581874.36475,684.81870679,653.636218325,66340676.7495,1819.53494531,45448916.9105,68385989.654,4759.36691729,4749.48179032,0.0
1.171700133,1.04309838686,9.72322640894e-06,770284.825938,2.03658463772e-05,0.0,5425218.05138,686.19972226,655.339643318,65825789.1621,1847.56313271,50394001.6266,67660795.6118,4863.72725208,4852.54042831,0.0
1.1104242313,0.994820381356,9.8430477267e-06,-17645713.841,1.75225218705e-05,0.0,5644928.22151,682.42394324,651.431938054,66484060.8989,1771.10039442,39871683.8511,69020048.4379,4609.37098413,4599.43610556,0.0
1.20856426275,0.895658285875,1.00959203387e-05,10609806.2123,2.64298456502e-05,0.0,11904146.7271,688.295471341,657.573910109,65226575.9653,1891.64950501,56453877.6824,66604376.5738,5016.75025468,5004.89501691,0.0
1.0363990687,1.1152810122,9.77179556756e-06,-58123996.6253,1.27931301179e-05,0.0,5863819.76381,678.448170062,646.639167553,67084175.1617,1674.73023909,41595343.8541,71193341.9722,4302.09253417,4293.61659533,0.0
1.2254775152,0.747765914172,9.66977357267e-06,13829719.8693,3.08905288535e-05,0.0,15238123.1848,689.809891585,658.710915045,65020059.551,1912.52185775,59078128.0774,66441968.6145,5086.9571656,5074.88653188,0.0
1.11892349676,0.959810682655,1.00589806394e-05,-14776400.1977,1.89323598025e-05,0.0,5602189.76151,682.759985822,651.913130611,66357275.1983,1782.05539657,41361639.0807,68589472.1841,4644.65143505,4634.57023994,0.0
0.978860122823,0.940839691523,1.00900800059e-05,-94738034.5772,1.39989910038e-05,0.0,6004722.85072,681.325253932,642.98521898,67412001.9873,1613.6348709,69681473.3143,69917911.0117,4063.24836984,4056.29608738,0.0
0.933192840782,0.929659675037,1.05013838171e-05,-92427822.0013,1.38139606382e-05,0.0,6038042.48396,687.204450374,640.027284209,67440316.0167,1599.81589872,67648070.2793,67857199.1939,3873.68348209,3866.50435491,0.0
1.1555359254,0.915139251398,9.72479347711e-06,-4925393.16951,2.2934114326e-05,0.0,5557938.08015,685.212671919,654.330783387,66281121.2356,1831.72963369,47503156.3149,68725662.8946,4796.62962634,4787.04822896,0.0
1.10551821574,1.00775319882,9.86700244958e-06,-18686818.9299,1.71204621302e-05,0.0,5735757.74641,682.030944238,651.170047097,66767659.1691,1767.87747606,39563728.5158,68958851.5923,4589.00611354,4580.35244541,0.0
1.05082589132,0.930870191604,1.00172025752e-05,-44623403.6837,1.48730053136e-05,0.0,5812079.48956,678.898967896,647.555890435,66944767.9882,1693.7812493,35717173.3374,70479961.7172,4361.97827487,4353.23732367,0.0
0.964728487687,0.706586537054,1.01960491168e-05,-93935342.22,1.60083096739e-05,0.0,6018414.99321,683.7110842,642.074472405,67443026.1837,1613.14075677,68974940.5826,69201575.9284,4004.58795239,3997.86444109,0.0
1.01886813224,0.669585058848,1.00003729765e-05,-73163717.1403,1.61960712351e-05,0.0,5922410.82891,677.819803074,645.546733365,67237194.0565,1654.02610313,51810420.7672,70849325.0861,4229.32161693,4222.14574076,0.0
1.23085754912,0.896505952324,9.88788242364e-06,15278519.1836,2.82760047757e-05,0.0,16753538.692,689.913779999,659.049981128,64907932.0427,1917.36006475,60266781.2015,66438600.7949,5109.2896864,5096.89112863,0.0
1.06361128081,1.07340740681,9.95665385492e-06,-37480692.0913,1.36798932818e-05,0.0,5822373.4473,679.501975659,648.376277904,66993889.2134,1712.13862235,34682324.5833,70112911.8446,4415.05042664,4406.63303736,0.0
1.10145541008,1.18237737192,1.00671518967e-05,-22207760.5413,1.4961889956e-05,0.0,5730943.2675,681.673444084,650.917954069,66751283.0391,1762.08067574,37434175.3549,68556215.0679,4572.14140724,4563.32217494,0.0
1.0387795186,0.926152906963,9.73360326336e-06,-56315924.4067,1.45995255169e-05,0.0,5848265.36584,678.656865791,646.799680023,67038128.4241,1677.99938187,40577435.5076,71152105.8316,4311.97378171,4303.4595482,0.0
1.16023378868,0.826460512623,9.83695193238e-06,-2938816.04998,2.33065856659e-05,0.0,5445929.11306,685.614296707,654.634306178,65899927.864,1834.17270394,48190434.9406,68000410.4249,4816.13045681,4805.25249816,0.0
1.08757969485,1.06804303819,9.73636588518e-06,-27355861.8224,1.49046480341e-05,0.0,5773945.02261,681.134302262,650.016557133,66877245.4371,1743.86755078,36005175.7311,69425437.4378,4514.54331332,4505.84523316,0.0
1.14121488402,0.998228421226,1.04525375994e-05,-8613762.58451,2.12649063927e-05,0.0,5582302.92579,683.764661236,653.340543118,66337365.2378,1813.53578123,44927440.1428,68227756.0974,4737.18298357,4727.89624886,0.0
1.14978491506,1.04132403832,9.93407175386e-06,-7435290.2167,2.06666036993e-05,0.0,5585214.44923,684.643438956,653.938133385,66352472.9379,1824.7361598,45857739.6267,68683475.0278,4772.75718241,4763.35978328,0.0
1.15080792359,0.936411352487,1.03038475551e-05,-4321957.88654,2.11537372654e-05,0.0,5515392.77367,684.409176524,653.913511118,66111103.3124,1823.33666343,47488610.7405,68012827.4403,4777.00369082,4766.81851302,0.0
1.00873944371,0.898701665187,9.92107096088e-06,-86237006.2872,1.40897970446e-05,0.0,5963041.00483,677.813323112,644.904245862,67326419.1382,1640.22813627,62353573.6569,70879514.9617,4187.27743084,4180.24480305,0.0
1.09616765936,1.15718873443,9.52776251683e-06,-25058068.2876,1.44260536048e-05,0.0,5764249.71902,681.674891376,650.508941846,66856339.7214,1755.05013284,36641143.4211,69379308.5007,4550.191954,4541.35813077,0.0
1.15434268356,0.994799602232,9.64952984318e-06,-5059248.883,2.10598876755e-05,0.0,5543936.66711,685.172658698,654.247891432,66223627.7711,1828.88227331,47478719.8109,68739612.5795,4791.67647946,4781.6632872,0.0
1.05726719137,0.800236780323,9.3578158468e-06,-42019159.6216,1.58235441691e-05,0.0,5837384.73569,679.72268754,647.962960571,67018564.9619,1703.29465795,35204434.431,70865390.868,4388.71611138,4380.21243259,0.0
1.13192563936,1.01331228464,1.02664006471e-05,-11201095.707,1.94769084417e-05,0.0,5577873.26704,683.327704397,652.721536989,66294646.6314,1799.68166245,43534462.967,67588262.9024,4698.62332898,4688.71514636,0.0
0.949411796353,1.11269374567,1.03401581684e-05,-93409530.6389,1.22908199496e-05,0.0,6068112.92248,685.021930505,641.087036792,67561870.0829,1606.20035356,68511977.5081,68730109.8525,3941.00836666,3934.46977407,0.0
0.96013408984,1.07338633128,9.88515133195e-06,-93963085.8184,1.31081489513e-05,0.0,6075353.6521,684.937984838,641.785381356,67608316.7578,1615.0655229,68999288.5466,69223752.1615,3985.51660693,3979.15111055,0.0
1.02195393312,1.14806261705,9.73531416393e-06,-72077478.6309,1.21733561316e-05,0.0,5949392.8818,677.975335111,645.742498569,67325949.9485,1657.8318664,51006789.1156,71079174.676,4242.13077638,4234.91101337,0.0
1.16578894206,0.753162167592,1.0026075692e-05,211643.118062,2.56138684895e-05,0.0,5401880.80059,685.860504075,654.967804171,65739582.1639,1840.6270513,50031885.8549,67569045.1336,4839.18989849,4828.21470811,0.0
1.01035796191,0.825813180543,9.9343037311e-06,-84112406.6365,1.46825561848e-05,0.0,5955481.79317,677.787168835,645.004659735,67306595.5594,1642.44883868,60574844.2078,70826315.9062,4193.99589989,4186.94046455,0.0
1.08002118971,1.17020860745,9.69507455596e-06,-30688436.2573,1.34317806015e-05,0.0,5808364.88276,680.488705593,649.386150977,66975835.2202,1734.08823907,35498799.5522,69431388.5101,4483.16795849,4474.68489915,0.0
1.2189033139,0.916410803296,1.00243206555e-05,12805282.462,2.67271684284e-05,0.0,14067451.686,689.029474658,658.281865714,65100709.8542,1903.69553304,58190102.0188,66370740.4844,5059.667656,5047.61576823,0.0
1.2362633187,0.925973065434,9.89529302019e-06,16840236.8166,2.81796958612e-05,0.0,18362711.2059,690.057737428,659.369329662,65098655.7973,1925.53387328,61628046.793,66927383.4941,5131.72903592,5120.08681555,0.0
1.15815718544,0.894051139541,9.33119212112e-06,-4588385.34038,2.26617576893e-05,0.0,5528409.13349,685.680836348,654.489115441,66183278.1821,1833.64163255,47802500.8674,68693699.2794,4807.51047676,4797.32412714,0.0
1.03600113995,0.890867576481,9.99348642811e-06,-56686857.477,1.4839675619e-05,0.0,5843550.40791,678.324053221,646.616975218,67020781.3415,1674.40174671,40750368.9353,70960026.9285,4300.44073193,4291.96981969,0.0
1.16817776537,0.860166594898,9.86266041877e-06,-800024.364353,2.54092284457e-05,0.0,5495291.8479,685.998226283,655.153232363,66082600.8724,1847.28753583,49601014.0122,67872600.017,4849.10590405,4839.29080669,0.0
1.02461478746,1.06421424852,1.01708538651e-05,-66020095.1891,1.31570487638e-05,0.0,5865530.23279,677.709727227,645.878333534,67072543.8986,1658.76968924,46608379.4256,70941525.4421,4253.17598275,4244.80177993,0.0
1.13417418168,1.23648552286,9.7907860443e-06,-11275696.3043,1.62738121543e-05,0.0,5628161.663,683.74385039,652.956921238,66458793.139,1803.17705701,43722573.3682,67703022.7798,4707.95702815,4698.29005231,0.0
1.05913394672,0.923136311555,1.02229733871e-05,-38815305.0452,1.52471364499e-05,0.0,5816645.71392,679.119255668,648.08565349,66966278.7705,1706.59274078,34723727.3755,69798667.8295,4396.46501283,4388.21038313,0.0
1.22364351342,0.956743459327,1.00418891474e-05,13604000.2425,2.64650910504e-05,0.0,14909963.0654,689.30629862,658.586929235,65048967.1657,1909.29163195,58909731.8356,66456840.3595,5079.34422421,5067.20109781,0.0
1.18725318212,0.745386605804,9.99911900182e-06,5296894.30764,2.8002144162e-05,0.0,6879315.90162,687.233339346,656.271623067,65427757.4749,1866.48691144,52773865.5487,66718665.954,4928.28795898,4916.72713788,0.0
1.03640507957,0.913126274923,1.03715608058e-05,-52951273.39,1.48435781143e-05,0.0,5819399.6187,677.977949956,646.616215524,66953616.353,1674.34169759,38789439.9213,70832121.8387,4302.1174853,4293.4661871,0.0
1.0741105348,0.976231919942,1.01959458775e-05,-32405683.2808,1.57233908044e-05,0.0,5797122.34305,679.868059956,648.996566254,66939448.912,1727.12368386,34946027.6682,69553931.3745,4458.63282995,4450.43265183,0.0
1.18028888982,1.05668301406,1.07075468421e-05,4334354.74351,2.19647745294e-05,0.0,5851427.78556,686.118327182,655.824087077,65502159.441,1856.97266386,51798396.5123,66662624.6366,4899.37918164,4887.95804692,0.0
1.06372618955,0.793364471579,1.04660163824e-05,-34911147.7782,1.70948208202e-05,0.0,5788697.36001,679.22300108,648.386521522,66892731.818,1712.6018413,34636276.95,69829169.7383,4415.52741282,4407.20062721,0.0
1.08604747626,1.04354608027,1.00329500895e-05,-27347604.3629,1.54210255201e-05,0.0,5766258.80175,680.847167522,649.916130944,66849471.4183,1742.08407563,35939374.523,69317803.8931,4508.18307396,4499.60625147,0.0
1.10574631661,0.969798968822,9.95170278512e-06,-20945204.8566,1.78097264013e-05,0.0,5710488.98436,682.094724588,651.184872558,66693274.6292,1768.01255544,38007331.3625,68720884.7073,4589.95296025,4581.06659418,0.0
1.07923733745,0.853510232274,1.05105919036e-05,-28350114.94,1.75809524425e-05,0.0,5756792.81985,680.20263329,649.487409308,66808229.7007,1733.61275183,35632689.2898,69120089.1018,4479.91418776,4471.53979021,0.0
1.20012848194,1.11567186932,1.02867184769e-05,8415817.45489,2.1872996207e-05,0.0,9776145.94792,687.577517525,657.095463446,65337885.0376,1880.9088732,54700009.5376,66635958.4981,4981.73332853,4969.90742286,0.0
1.0035748417,1.11627674649,1.04674271407e-05,-87733037.2458,1.26289869171e-05,0.0,5889819.18601,677.375286949,644.545633988,67096818.7763,1629.84898089,63581347.4587,70598991.5398,4165.8391679,4157.55430481,0.0
1.19260646639,0.676350766274,9.89002933701e-06,6371494.97948,3.00040304495e-05,0.0,7921371.95256,687.686172162,656.652906961,65445233.9532,1874.26391756,53484382.1763,66591593.5186,4950.50944198,4939.25742165,0.0
1.11790074858,0.981213695011,9.809298135e-06,-17378496.424,1.84810316122e-05,0.0,5675467.89845,682.827608761,651.882853597,66596995.8661,1783.44904113,40103457.2897,69319474.8831,4640.40600736,4631.22409688,0.0
1.10664180308,0.970440861836,1.02429043482e-05,-18194409.7421,1.7862933179e-05,0.0,5670133.53108,681.897948705,651.206052181,66566290.5603,1767.42641057,39640982.1842,68874082.776,4593.67012459,4584.38377563,0.0
1.05549898027,0.915925038,9.87052104853e-06,-42637501.683,1.50406461821e-05,0.0,5816235.08512,679.232800092,647.840439734,66960829.2899,1700.59809782,35260019.174,70559775.6252,4381.3762671,4372.73781875,0.0
1.07696832886,0.870194084663,1.06250667932e-05,-29434710.5069,1.74325162493e-05,0.0,5761651.29305,679.989358395,649.347597745,66829678.896,1730.86419969,35307625.2853,69085758.6992,4470.4955331,4462.25119581,0.0
1.18084118319,0.888723505514,9.70800720033e-06,3413402.13364,2.37189595449e-05,0.0,5609091.05125,686.801497267,655.902022998,65812241.8357,1860.26189798,51971502.5458,67080917.787,4901.67175142,4890.86353595,0.0
1.07474634165,1.2156007045,9.72694278203e-06,-32838221.3293,1.27592579122e-05,0.0,5822837.8759,680.161814038,649.052787957,67011147.0711,1727.14848464,35000182.0642,69938894.5759,4461.27206419,4452.87072889,0.0
1.00897819617,0.619736565161,9.76509298586e-06,-87382877.6678,1.67294785196e-05,0.0,5953227.04641,678.143028017,644.92261058,67295821.616,1640.68644006,63320379.1129,70896755.2616,4188.2684923,4181.23250209,0.0
1.07415474905,0.767277554737,1.00742608327e-05,-31335677.4285,1.79157179902e-05,0.0,5770521.69126,680.044844986,648.992821482,66846623.344,1726.02942192,35192185.3521,69463781.2966,4458.81636331,4450.23413916,0.0
1.07121977515,1.04182881451,1.0032896138e-05,-31015006.8247,1.41269977602e-05,0.0,5804131.19055,679.909037334,648.915173903,66930416.5565,1721.94390249,35220739.16,69887278.7648,4446.63328665,4438.07082848,0.0
1.07023024341,1.07165382364,9.98922896685e-06,-34336934.7135,1.40466145123e-05,0.0,5804689.6046,679.832259557,648.798991442,66941461.3255,1720.81126348,34800923.0836,69890284.3794,4442.52574039,4434.00343513,0.0
0.954070069208,1.00995423945,1.00525937078e-05,-93672224.5502,1.34931536736e-05,0.0,6080545.9535,685.253681127,641.393884661,67612822.9222,1611.42759934,68743220.2225,68964935.7322,3960.34485728,3954.05862303,0.0
1.11941507857,0.972351528369,1.01441581744e-05,-13845330.5368,1.91547533737e-05,0.0,5677155.87615,682.598024067,651.974860567,66603577.2006,1785.53602544,42043118.1267,68919151.7061,4646.69199114,4637.82332878,0.0
1.19998940547,0.912496547654,1.03752414346e-05,8580536.07452,2.57730427665e-05,0.0,9930742.68606,687.664460487,657.080976641,65270071.6391,1881.04147605,54767535.8566,66543784.79,4981.15602211,4969.35947817,0.0
1.15764835456,1.00372595435,9.68833577612e-06,-3932691.4774,2.02511673132e-05,0.0,5482509.81707,685.375213787,654.432223702,66016662.1701,1830.91312697,47970633.4555,68291183.8399,4805.39831978,4794.5413982,0.0
1.00250649655,1.14342257228,9.88716377508e-06,-95785426.8432,1.21721049906e-05,0.0,5987386.18039,678.184388507,644.504900331,67394076.8999,1631.49922918,70605819.0138,70898854.7548,4161.40446718,4154.45942392,0.0
1.16906390423,0.927863414108,9.98670155319e-06,863381.580524,2.24625655332e-05,0.0,5414823.57935,685.945818775,655.173668958,65781389.8181,1844.41256501,50379579.6638,67543241.188,4852.78426646,4841.75028414,0.0
1.09779089454,1.08393653069,1.01649218064e-05,-23068976.2617,1.58981714849e-05,0.0,5730699.6024,681.423427993,650.675938955,66745780.9343,1757.37339288,37125043.1411,68869755.9385,4556.93000324,4548.16925407,0.0
1.11506365728,1.0584502344,1.00135162761e-05,-16135222.9424,1.72433756927e-05,0.0,5676632.84012,682.447747139,651.69411507,66590102.7364,1779.03178635,40770395.5102,69380725.727,4628.62924137,4619.40243632,0.0
1.18481839638,1.01112601056,1.01672758715e-05,5205279.0111,2.23459472234e-05,0.0,6805543.23839,686.725523878,656.116569566,65564445.0343,1862.88227836,52703311.6839,66819548.5998,4918.18116337,4906.75543585,0.0
1.030490256,0.756929859982,9.93215083939e-06,-60171792.4033,1.57920459451e-05,0.0,5900920.87747,678.126123427,646.289349765,67197931.4147,1669.45125335,42894960.8218,70926565.924,4277.56505266,4270.2232911,0.0
1.09461547922,0.998007964479,1.00319644603e-05,-24456127.794,1.66862232529e-05,0.0,5738942.20483,681.319695724,650.424000362,66778309.9073,1753.31899598,36664043.8226,69074538.6095,4543.74885424,4535.03799612,0.0
1.11364425046,1.12099644986,9.92643358051e-06,-16713853.321,1.62355096032e-05,0.0,5689999.34262,682.415983106,651.631325028,66641759.9601,1777.17183105,40489832.1113,69281900.3552,4622.73728366,4613.53438453,0.0
1.08407929958,1.12469807481,1.03259583989e-05,-27308670.6288,1.46614594095e-05,0.0,5769236.86159,680.496150533,649.787484223,66851043.0663,1739.7843712,35908761.0741,69229854.4284,4500.01317256,4491.56421855,0.0
1.05761125418,1.04451374323,9.63722910454e-06,-44014490.9154,1.39129696013e-05,0.0,5810418.39049,679.51123957,647.97250661,66947318.4582,1702.4423503,35578703.1125,70398973.1658,4390.1443161,4381.1433809,0.0
1.08046352014,0.830855330545,1.01169633987e-05,-29028337.4627,1.75982746717e-05,0.0,5763497.28365,680.56311199,649.562222456,66833203.1345,1734.92845795,35615774.2017,69250316.6949,4485.0040721,4476.51414492,0.0
1.03792949716,0.690696822009,9.82869756723e-06,-55845005.1751,1.67862924461e-05,0.0,5882114.82122,678.504932315,646.750029798,67150141.5265,1679.40699222,40366964.4352,71086424.6791,4308.44534271,4300.99799508,0.0
1.1505333205,0.964476219155,1.01420649634e-05,-6695677.51025,2.22810344252e-05,0.0,5564894.24038,684.635636696,654.013305858,66293741.7065,1825.66202076,46196463.7378,68675637.5906,4775.8638134,4766.45440426,0.0
1.18470778674,0.970773698302,1.00785073344e-05,4857700.23266,2.3066612744e-05,0.0,6484860.11709,686.74640946,656.123275812,65733672.3768,1864.74100982,52621480.2966,67002140.6375,4917.72202276,4906.94059924,0.0
1.18604310101,1.02742386924,9.58918688657e-06,4270546.63754,2.1291260871e-05,0.0,6030428.33655,687.125882451,656.207175323,65719471.4011,1865.4105292,52444238.6368,67076301.2889,4923.26491229,4911.93080478,0.0
1.05918950643,1.07755602925,9.64380746114e-06,-43141509.7013,1.36462735664e-05,0.0,5808781.77124,679.556939156,648.062293398,66945161.4405,1704.52816876,35363762.0821,70083145.6062,4396.69564119,4387.66848672,0.0
1.03961436186,0.799356237793,1.02408212756e-05,-51702643.2043,1.5439770983e-05,0.0,5844390.82065,678.208578048,646.82771364,67030218.9326,1680.3635402,38241283.2676,70742726.1075,4315.43921608,4307.32159825,0.0
1.13664003431,1.00586046269,9.69278472616e-06,-10860959.5788,1.94814293451e-05,0.0,5612692.40219,684.064919151,653.11827882,66418769.1613,1806.90270678,43951884.9094,67782690.805,4718.19278242,4708.58947275,0.0
1.04796264361,1.05922837799,1.0064751187e-05,-47334792.7774,1.36615091356e-05,0.0,5823971.47277,678.71426934,647.37229512,66983219.132,1690.15569725,36531875.6879,70324649.0929,4350.09293363,4341.43031623,0.0
0.960597546717,1.08924214158,1.00356244718e-05,-93954212.9754,1.28762687115e-05,0.0,6069242.23359,684.421408501,641.81430185,67592006.9717,1613.48555442,68991480.7459,69216252.6478,3987.44041642,3981.06627751,0.0
1.11112604556,1.21794200567,9.79438199212e-06,-17586556.1271,1.46049702784e-05,0.0,5690092.13157,682.369100069,651.490545919,66626810.7679,1773.06517336,39936421.6452,69119820.8704,4612.28421512,4602.72604878,0.0
1.20259892894,0.969227055118,1.0157665423e-05,8791284.81309,2.45912406e-05,0.0,10161403.1422,687.899897165,657.239795217,65296223.2349,1884.30587404,55013151.8873,66684144.7861,4991.98815403,4980.13636663,0.0
1.11208344277,1.29282825207,9.59932156858e-06,-19692517.0,1.41363365858e-05,0.0,5725069.0218,682.555389716,651.571832021,66749920.9135,1775.72796295,38841987.7207,69051525.0345,4616.25837094,4607.16996798,0.0
1.16473457631,0.742071756659,9.97381171175e-06,-414236.881777,2.56934764759e-05,0.0,5407432.92656,685.849564287,654.904393609,65773389.0707,1839.52392196,49649279.1031,67616965.2494,4834.81322626,4823.85537836,0.0
1.15229259039,0.827146258146,9.76148662386e-06,-5401705.36107,2.38638211083e-05,0.0,5530164.26609,685.072076465,654.116593564,66183194.8011,1826.47888144,47265698.658,68718631.7555,4783.16654271,4773.21330642,0.0
1.147688899,0.82239904718,9.91529774792e-06,-7996200.11432,2.42246474931e-05,0.0,5573792.88781,684.610002451,653.773908604,66312502.4792,1822.3264684,45530433.3714,68477774.3824,4764.05661975,4754.6944982,0.0
1.11790253661,0.931890915919,9.84574425675e-06,-15365393.809,1.88708390134e-05,0.0,5615535.04869,682.839385873,651.848844224,66406696.3589,1780.8765749,41168197.8035,69221076.7944,4640.41342947,4630.34905955,0.0
1.12688034613,1.13171597038,9.74316696801e-06,-13424918.3337,1.68998149114e-05,0.0,5602475.48757,683.387452047,652.450134194,66365127.7884,1792.10782349,42236913.2266,67968560.2741,4677.68031679,4667.46071604,0.0
1.01553014294,1.10259933038,9.68738508552e-06,-80221854.7392,1.24745493069e-05,0.0,5965447.56228,677.966175263,645.326011674,67352634.8085,1649.20448937,57382367.0013,70900648.2731,4215.46562334,4208.33709209,0.0
1.01832312928,1.03648519062,1.01536905513e-05,-71908532.3787,1.32955090686e-05,0.0,5878575.99459,677.648860838,645.49191378,67095379.0214,1650.36984704,50857345.5729,70872283.0598,4227.05930964,4218.78591097,0.0
1.06623598533,0.75857016217,1.00143756112e-05,-35153883.9355,1.73852451733e-05,0.0,5793734.64288,679.711318588,648.546525839,66910759.7812,1715.61056211,34676959.8256,70067808.0732,4425.9455751,4417.4861643,0.0
0.939561323195,0.886096632727,1.04111083875e-05,-92687095.6515,1.43869582427e-05,0.0,6023565.28613,686.72173747,640.43771455,67412135.4379,1603.31232331,67876306.1715,68087989.8382,3900.11905258,3892.84244925,0.0
1.01466705136,1.03885166104,9.8264427404e-06,-79915960.6993,1.30082423802e-05,0.0,5958650.70823,677.830072185,645.268802906,67327882.9513,1648.11568915,57129995.548,70831728.2904,4211.8829302,4204.76661896,0.0
1.12482191548,0.942871831262,1.00838059268e-05,-13050093.3521,1.96434417541e-05,0.0,5602070.85057,683.113015132,652.321111293,66371749.5288,1790.55651102,42535285.3106,67603722.5572,4669.13577116,4659.34817267,0.0
0.989625913888,1.01452892746,1.04051104051e-05,-95060870.9792,1.34472942519e-05,0.0,5920375.98981,678.788397418,643.658282022,67167908.6662,1611.36803723,69966006.9244,70214901.7235,4107.93716855,4099.87683358,0.0
1.06227816938,0.741476106474,1.0173615656e-05,-37117739.7766,1.72795484532e-05,0.0,5796485.24031,679.392906203,648.288536116,66904480.7671,1710.63211131,34621786.5646,69982637.4437,4409.5166811,4401.11881773,0.0
1.07353194591,0.937183281336,9.51414099382e-06,-34030170.9711,1.54947376998e-05,0.0,5817254.4817,680.396211996,649.011051772,66986852.2064,1725.76118308,34833393.4583,70127931.455,4456.23110747,4447.84836167,0.0
1.04961220217,0.989494976329,9.78848933925e-06,-45593503.8454,1.39478832141e-05,0.0,5831619.45516,678.973692893,647.471523529,66997343.5844,1692.19591097,36024642.6618,70623774.4928,4356.94025121,4348.21877718,0.0
1.02748933432,0.783055682077,1.01400908323e-05,-63550579.2923,1.57000479989e-05,0.0,5843815.85859,677.924429862,646.057597053,67009122.3205,1662.79027045,44933089.8219,70868075.4176,4265.10822676,4256.68780371,0.0
1.13669794407,1.0202243436,1.06472695239e-05,-9101087.08862,2.01763616393e-05,0.0,5542364.46496,683.328996406,652.974737832,66165190.4751,1805.59637295,44473888.9919,68024744.7974,4718.43316583,4708.44311911,0.0
1.11477953514,0.812331352869,1.01456586926e-05,-15725435.2956,2.05295648291e-05,0.0,5630484.53481,682.468715542,651.657876921,66448642.0261,1777.96377785,40762127.4094,69336007.5459,4627.44985037,4617.92899985,0.0
0.984981944431,0.95997390334,1.01649783745e-05,-94908812.4628,1.39844326281e-05,0.0,5938634.62876,680.123489656,643.364674314,67209046.332,1610.72945304,69832134.3741,70072987.9498,4088.66005133,4080.67391236,0.0
1.2017589377,0.706317301987,9.83448660153e-06,8387441.33816,3.01280497779e-05,0.0,9821502.21924,688.262431232,657.226480268,65351368.1058,1885.23929644,54901118.4016,66606154.0761,4988.50135039,4977.07057526,0.0
1.13517132391,1.04036643034,9.92994691597e-06,-11060491.7179,1.90941432327e-05,0.0,5602431.9099,683.822337546,653.019106309,66382562.6592,1804.77296373,43729251.6326,67674193.9268,4712.09616555,4702.41235007,0.0
1.10622951522,0.862038889622,1.02911983968e-05,-17887941.5973,1.90767357763e-05,0.0,5656803.84029,681.895401579,651.175340131,66518709.7867,1766.810485,39725373.9637,68846030.7611,4591.95871768,4582.58015789,0.0
1.02469181767,0.625016759049,9.92122193088e-06,-66724621.2013,1.69607547737e-05,0.0,5907183.68556,678.015115761,645.907787302,67205768.2229,1661.81080587,47125039.1297,70898089.5967,4253.49573515,4246.23693796,0.0
1.24073649991,0.810296406276,1.00798694463e-05,17940863.1653,3.17438462454e-05,0.0,19542362.3526,690.433364322,659.652573158,64847102.5221,1929.99735532,62414169.3986,66985317.376,5150.29721113,5138.28449494,0.0
1.0307014329,1.02157967273,1.03990626086e-05,-59259266.4944,1.36595150591e-05,0.0,5820218.1167,677.708002902,646.259644201,66946984.2435,1665.65177744,42165722.8484,70605364.0486,4278.44164797,4269.54339917,0.0
1.01016729672,1.11131270873,9.64084087101e-06,-87261363.406,1.23622313776e-05,0.0,5981255.76966,678.113814141,644.998501381,67381140.175,1641.96497078,63221469.9524,71086259.8565,4193.20444868,4186.15170177,0.0
1.08658452215,0.882239315834,9.9051471919e-06,-27499599.1527,1.72620146594e-05,0.0,5758897.12599,681.043281545,649.953520921,66825373.8373,1742.92109962,35944823.452,69327775.1673,4510.41235144,4501.82715255,0.0
1.17413847602,1.0515846416,1.01457929473e-05,2188107.13062,2.08821976413e-05,0.0,5386347.57427,686.080197221,655.463663315,65693586.3305,1849.85676146,50981045.9884,67006413.3865,4873.84881396,4862.5156482,0.0
1.1563114396,1.05341315921,9.88877493894e-06,-5305340.28068,2.08503206554e-05,0.0,5560329.99024,685.099763988,654.3739785,66273109.3421,1832.59928661,47090408.2877,68658449.3656,4799.84878578,4790.25162317,0.0
1.15463003736,1.09483173475,1.0056360866e-05,-3968797.12435,1.85879610371e-05,0.0,5501017.0485,684.738989643,654.146343943,66059241.1246,1827.025928,47792477.1323,68261084.9061,4792.86928508,4782.20649632,0.0
1.17225008304,1.04668488828,1.05841211921e-05,2667008.84372,2.12364971861e-05,0.0,5402000.64028,685.65660037,655.343048027,65708027.6255,1848.20409498,51078033.3932,66953605.2863,4866.0100947,4855.14111602,0.0
1.07470909846,1.22114165636,9.99422421862e-06,-30912192.1848,1.27514731772e-05,0.0,5802807.09905,679.908712729,649.035483315,66939831.2008,1726.10213589,35437523.0214,69466132.9421,4461.11746771,4452.53673864,0.0
1.07414722484,1.141976786,1.0333929151e-05,-30784122.3515,1.38571987776e-05,0.0,5785320.09921,679.893075539,649.129457122,66887944.3243,1726.06032803,35234291.1844,69272858.6794,4458.78513031,4450.29641053,0.0
1.16833993367,0.865775715542,1.01903767359e-05,892096.566417,2.38156851641e-05,0.0,5431796.97737,685.789048938,655.139543158,65842291.7574,1844.68012825,50274194.785,67449789.8862,4849.77906466,4839.17450499,0.0
1.06862344137,0.943033327772,9.67431982522e-06,-34506877.3053,1.50757924955e-05,0.0,5805860.03066,680.014192844,648.697601771,66937956.4102,1718.01975982,34839668.5143,70175677.4379,4435.85590513,4427.17360466,0.0
0.947571049394,0.903294241022,1.0136989481e-05,-93379722.0329,1.40408626567e-05,0.0,6088420.96292,685.864262325,640.974924505,67627118.1579,1608.52207297,68485723.9945,68703941.3217,3933.36742603,3927.16818705,0.0
1.07004637843,0.879273536603,9.75138600442e-06,-34698726.7495,1.60692040007e-05,0.0,5812881.09315,680.068172345,648.797769176,66971735.4668,1721.23976811,34736027.4794,70121502.3453,4441.76251686,4433.43354632,0.0
1.16551586556,0.843922029594,1.05034637779e-05,594384.727235,2.4405352196e-05,0.0,5374304.07149,685.504931027,654.939117834,65631804.3233,1839.44834908,49811424.9251,67181115.2363,4838.05635794,4826.89210284,0.0
1.13146866631,0.926494898757,1.00671003375e-05,-11614231.109,2.04883375377e-05,0.0,5581338.7523,683.473573878,652.690917346,66299670.3121,1799.26056928,43320576.4822,67461546.5817,4696.72643385,4686.82599879,0.0
1.14333414203,0.971799045753,9.85058811309e-06,-7993689.44623,2.07540337216e-05,0.0,5580568.28224,684.191302202,653.404760201,66335275.2387,1815.16590459,45805363.3749,68410642.8828,4745.98002357,4736.26933332,0.0
1.11761430581,0.915459625807,1.05000010764e-05,-14551193.8995,1.96865559299e-05,0.0,5611523.69914,682.385635179,651.847196451,66384977.0353,1781.63718629,41415733.2115,68429812.559,4639.21698342,4629.64950445,0.0
1.03841902726,0.994024030548,1.03283755967e-05,-51891794.7208,1.38204306317e-05,0.0,5838559.84153,678.079217774,646.768687298,67014462.0905,1677.90694854,38304340.8743,70781961.941,4310.47738216,4302.05660978,0.0
1.13833762415,0.888717039305,9.4945252269e-06,-10725052.2979,2.12025896908e-05,0.0,5605973.4044,684.35874291,653.229311673,66412171.5964,1809.30227576,44051979.2505,67815882.3922,4725.23947785,4715.60662647,0.0
1.13923612643,0.935804025223,1.0119057614e-05,-9435930.31651,2.11847377204e-05,0.0,5540417.45261,684.016160063,653.247062943,66178971.4833,1808.80505571,44606126.5729,68021580.5997,4728.96916081,4718.81009876,0.0
1.11949532153,0.746241319347,9.96665379648e-06,-14756343.435,2.19524943425e-05,0.0,5583573.2654,682.983327666,651.950951775,66298934.3437,1783.0678967,41392909.9394,68562179.1573,4647.02507967,4636.93408017,0.0
1.14021118057,0.831548080809,1.02914785011e-05,-9115645.31855,2.35940293662e-05,0.0,5576625.02304,683.918819599,653.302354535,66312240.6196,1812.31996139,44712380.625,68097519.7531,4733.01661055,4723.69298243,0.0
1.14320018759,0.806706137698,1.0230776329e-05,-8363853.90656,2.43288327217e-05,0.0,5565220.08228,684.129630102,653.469276888,66276889.4935,1816.11862924,45214097.4747,68281059.0892,4745.42397869,4736.02747653,0.0
1.08006684164,0.721542354872,1.01820529569e-05,-28918551.1591,1.9061717179e-05,0.0,5754333.06838,680.540296867,649.538818897,66805826.9912,1734.49211383,35598718.3151,69205237.9997,4483.35745965,4474.8736916,0.0
1.13877867877,1.00658465055,9.97230616986e-06,-8931326.49816,1.99902378981e-05,0.0,5583429.28602,683.986467235,653.235219976,66332017.6669,1808.96110618,45199292.0426,68135271.5019,4727.07029557,4717.33162926,0.0
1.10686111865,0.94009356338,1.01830769286e-05,-18260193.792,1.81914662069e-05,0.0,5669895.57254,681.967214508,651.221674561,66564401.7686,1767.74533604,39612561.3659,68870683.7525,4594.58050352,4585.29056132,0.0
0.968216940096,0.741364639464,9.88637686856e-06,-94261600.7243,1.56844908738e-05,0.0,6009663.84164,683.595545719,642.296881644,67397781.7075,1613.13071668,69262087.271,69491547.4048,4019.06851834,4011.9450746,0.0
1.14821401604,0.829039834021,1.06052002234e-05,-4379071.33757,2.29442929177e-05,0.0,5495561.26342,684.314326339,653.885519076,66018452.2468,1820.0439523,47258411.1401,67850653.2937,4766.23638058,4756.12117202,0.0
1.20324110697,0.660514993216,9.58299014417e-06,8778431.49455,3.14395932682e-05,0.0,10239807.0301,688.489197991,657.329820693,65459962.1688,1888.11715385,55262086.6174,66778095.7758,4994.65383503,4983.54961812,0.0
1.06479980421,0.918040697426,1.01670958065e-05,-36029583.6851,1.54974183268e-05,0.0,5801253.28063,679.468693343,648.452686073,66923952.654,1713.80872879,34641160.5511,70058766.4663,4419.98398728,4411.54674392,0.0
1.07107748998,0.948169697179,9.85359314031e-06,-33987684.1917,1.55476765866e-05,0.0,5809146.19899,680.01532915,648.854533181,66958537.6593,1722.50253442,34798077.9633,69984462.4501,4446.04266091,4437.69774043,0.0
1.10470493981,1.17574798039,9.52510863042e-06,-22080489.9373,1.47486700182e-05,0.0,5743479.50387,682.242601317,651.129526475,66792073.6709,1766.30853479,37664559.0843,68772341.6394,4585.63020515,4576.65892746,0.0
1.04681549522,1.19224729786,9.98200697061e-06,-49484123.7548,1.24265144961e-05,0.0,5881350.91159,678.601839562,647.320876975,67164061.6521,1691.02737572,37419491.4836,70683464.4293,4345.33112066,4337.75509114,0.0
1.0693085228,1.07987734328,9.71150197369e-06,-35206414.6335,1.38040296411e-05,0.0,5828979.86498,679.976131873,648.749383231,67018859.0554,1720.1306914,34726665.4554,70244729.9508,4438.69967814,4430.38225107,0.0
1.02445502092,0.987478615077,9.68648309831e-06,-69436799.9081,1.36464251058e-05,0.0,5936575.5512,678.127946248,645.902839038,67291671.5098,1661.22908341,49070613.1948,71009248.3788,4252.51279184,4245.25737422,0.0
1.18029025859,0.873986016019,9.91484617093e-06,3258926.70887,2.42263175041e-05,0.0,5412877.13251,686.703220432,655.852649238,65682404.5908,1858.74823815,51692753.0836,66759406.3444,4899.38486341,4888.25226769,0.0
1.12441443171,0.866314483214,1.04178856039e-05,-13222711.7112,2.158680811e-05,0.0,5633445.16547,682.859980364,652.315445899,66471015.1598,1792.36414912,42376932.6233,67930104.2477,4667.44430603,4658.47721308,0.0
1.02183907086,1.05998431614,1.01748681143e-05,-68532873.7197,1.31397931251e-05,0.0,5871552.32958,677.654590441,645.71430018,67084159.4171,1655.05745952,48383137.2293,70739714.3661,4241.65398314,4233.32431354,0.0
1.13791389694,1.08274297017,1.04900415464e-05,-9630098.11464,1.9668035004e-05,0.0,5602059.03579,683.528310868,653.164775529,66398554.9167,1809.40231506,44355153.719,68043221.5032,4723.4805862,4714.29940984,0.0
0.999462845407,0.827767800637,9.87533519914e-06,-95835496.4452,1.47690183482e-05,0.0,5980080.51926,678.563031464,644.311320037,67367590.8891,1627.59758065,70646447.8263,70849092.95,4148.77027128,4141.86780116,0.0
1.15126074502,1.0098997959,9.6751817498e-06,-5971743.49459,2.05371527012e-05,0.0,5556946.39881,684.936060203,654.040379667,66263569.3386,1824.98559828,47003156.5606,68906717.6364,4778.88335258,4768.94742662,0.0
1.10227724049,0.843197167847,9.52946770501e-06,-22958056.6625,1.86149920905e-05,0.0,5724048.73967,682.229342116,650.958409958,66728346.6154,1763.29401076,37282417.1491,69159789.5523,4575.55282527,4566.62036105,0.0
1.12963701459,0.887328128445,9.60806864618e-06,-12600082.2066,2.05195177025e-05,0.0,5623406.68821,683.731715085,652.646287581,66448575.9127,1797.77320533,42760931.3061,67985002.9532,4689.12324756,4679.53227022,0.0
1.0769513395,1.03142129989,1.00834088733e-05,-30425609.6146,1.49786496296e-05,0.0,5776756.20186,680.280978863,649.312473994,66870678.3599,1729.4948461,35383119.9102,69319601.5398,4470.42501026,4461.79871965,0.0
1.07995004019,0.883852490303,9.70088030304e-06,-30643270.7417,1.66140961611e-05,0.0,5789687.88549,680.601920349,649.384425881,66917828.6997,1734.21718002,35407559.2259,69382098.5978,4482.87261683,4474.39066199,0.0
1.08204497834,1.10383000705,9.73896492269e-06,-29740340.2563,1.4267901924e-05,0.0,5797449.27932,680.610708302,649.525914282,66946214.1132,1736.79989491,35660149.343,69438354.6652,4491.56870509,4483.05420472,0.0
0.981498696667,0.777793898266,1.00490744527e-05,-94828801.192,1.52663343209e-05,0.0,5992962.65444,681.121820328,643.154882599,67379204.9612,1614.73505916,69761435.8163,69999792.1814,4074.20108986,4067.20995322,0.0
1.19237675034,0.831936855705,1.02433037973e-05,7116041.34685,2.65685410534e-05,0.0,8534643.56589,687.309108268,656.655356971,65471198.478,1873.44882934,53746121.0041,66480826.5905,4949.55589066,4938.43882647,0.0
1.00470482744,1.0483079742,1.00837701867e-05,-89869022.3706,1.28502233044e-05,0.0,5967504.27383,677.662802699,644.645725604,67334483.3291,1634.39557459,65445239.968,70949666.2007,4170.5297387,4163.46694025,0.0
1.02840089068,0.671947165689,9.36784237638e-06,-67644677.4222,1.66706568031e-05,0.0,5923017.96536,678.648289902,646.159945042,67254262.1924,1666.58099701,47806211.8864,71199769.3068,4268.89209721,4261.58027665,0.0
1.07680628739,1.30608590512,9.94392615737e-06,-31231864.8853,1.22403576348e-05,0.0,5813177.07979,680.085907566,649.176099867,66989541.7272,1729.80183122,35285768.5141,69643179.2175,4469.82289896,4461.38968727,0.0
1.17611680048,0.972996883377,9.76574172278e-06,2425619.66026,2.18896491046e-05,0.0,5429116.08005,686.43375012,655.611861891,65858333.9269,1853.94472638,51427771.2675,67110019.7007,4882.06083879,4871.21557941,0.0
1.09701071358,0.705966862468,1.0035471828e-05,-23543579.7645,2.08270549167e-05,0.0,5709212.98983,681.627435811,650.60867053,66690416.4568,1756.72118521,36897751.0125,68970502.7762,4553.69147207,4544.94223356,0.0
1.05111860798,1.07999399023,1.0219430069e-05,-44782451.2187,1.35446657616e-05,0.0,5809764.31633,678.729938451,647.568946829,66944864.55,1694.16706674,35724448.4245,70439846.9135,4363.19334173,4354.39014995,0.0
1.11877788489,0.984934442828,1.01797540907e-05,-14493457.1149,1.86228073131e-05,0.0,5624747.23967,682.621654422,651.914704089,66433501.3888,1782.69734465,41660716.6338,68674730.2475,4644.04700018,4634.3602732,0.0
1.08207928022,1.1303013789,9.61685628506e-06,-30120267.7939,1.39136706813e-05,0.0,5804054.86671,680.681521791,649.52594597,66964388.1973,1736.82430731,35601441.9617,69469302.6246,4491.71109219,4483.19605851,0.0
1.11810661877,1.22807763624,9.76615505445e-06,-17499783.8502,1.53290579229e-05,0.0,5695099.99516,682.761576407,651.899230055,66656781.8335,1783.51147769,40091583.9745,69375323.8337,4641.26057451,4632.07534778,0.0
1.07736350173,1.15589088438,1.01119037026e-05,-31425939.7239,1.39272016225e-05,0.0,5799281.08028,680.243782995,649.347349986,66950023.6361,1731.24067493,35132841.3047,69294562.0469,4472.13589568,4463.88706785,0.0
1.10676761192,0.896090798188,1.01566110378e-05,-18324547.5398,1.87055727438e-05,0.0,5667944.35353,682.001248472,651.217085461,66557594.6238,1767.67636378,39578614.6458,68854387.5831,4594.19235708,4584.9030243,0.0
1.09833423953,0.885510569538,9.69467696898e-06,-23801871.5353,1.78429604012e-05,0.0,5731925.53318,681.832912198,650.67679227,66749088.272,1758.08941331,36943646.5988,69226331.2769,4559.18542829,4550.31722454,0.0
1.15701009381,1.03866894086,9.89090925034e-06,-3465533.65745,1.94958616016e-05,0.0,5517888.71433,684.999226044,654.309512801,66111482.1539,1831.0108282,48150518.1923,68364122.3179,4802.74889941,4792.36647607,0.0
1.12851012775,0.969262171049,9.54153941301e-06,-13066776.0258,1.91095486781e-05,0.0,5614264.20118,683.688165051,652.552160602,66411792.9724,1795.31376067,42521009.9045,67906136.3823,4684.44554029,4674.46988278,0.0
1.17726387406,0.941077245787,1.04416608029e-05,3305405.50843,2.34114203966e-05,0.0,5419609.5945,686.13001408,655.648694971,65651940.3265,1854.7453395,51499392.7387,66886519.704,4886.82234122,4875.84945878,0.0
1.03046080133,0.751626731433,9.99198911135e-06,-61465656.8913,1.59500817428e-05,0.0,5847284.63432,678.186494583,646.267782393,67024094.1647,1667.14243764,43587723.2962,70984937.8049,4277.44278632,4269.06071556,0.0
1.08144240805,0.901189530901,1.01838439881e-05,-28458958.8909,1.68513972851e-05,0.0,5762705.58922,680.547617755,649.631898141,66833390.6464,1736.1529619,35676510.3806,69236972.8541,4489.06743582,4480.5623018,0.0
1.03171506939,0.743117204912,9.55156022776e-06,-62251077.9138,1.60220752614e-05,0.0,5848560.93214,678.617268594,646.34749194,67022181.0007,1667.82961136,44122103.5204,71017456.3655,4282.64925304,4273.94559439,0.0
1.16783420393,1.04357068463,9.92701894887e-06,-817436.401399,2.19709520613e-05,0.0,5512984.43418,685.822843094,655.130064381,66138013.5862,1846.56679445,49551261.6222,67886573.7251,4847.67978051,4837.87032141,0.0
1.2696217533,0.788577506037,1.01240034911e-05,23415008.9532,3.53538535836e-05,0.0,25282465.2567,692.316614107,661.476045603,64320393.1918,1961.89846515,66487969.1588,67400813.737,5270.19989795,5257.4679727,0.0
1.20815519992,0.72819941474,9.68971763832e-06,10169865.3691,2.98952077617e-05,0.0,11598739.1448,688.653487233,657.571144743,65285992.6361,1892.51668446,56194126.6067,67003216.819,5015.05223487,5003.41600901,0.0
1.12255424531,0.836639408575,1.02436655692e-05,-13851393.4746,2.09740951439e-05,0.0,5599061.54521,682.908151232,652.172476898,66350362.2711,1788.04662377,41944088.0371,67970133.835,4659.72267228,4650.07273542,0.0
0.990493140095,0.799921609078,9.6700325172e-06,-95280998.2065,1.55412199185e-05,0.0,5985514.98585,680.852296255,643.735166114,67365180.7107,1620.31451936,70159521.7985,70402949.6627,4111.53702453,4104.41495463,0.0
1.00824683561,0.866424485297,9.57016705054e-06,-92377152.8046,1.48379205346e-05,0.0,5892195.18226,678.6415729,644.852206718,67096549.535,1635.62556105,67616253.515,70868885.1014,4185.23261462,4176.70941289,0.0
1.18478985269,1.02755862332,1.03529216142e-05,4931771.95925,2.22394283109e-05,0.0,6483177.78229,686.588814001,656.129386296,65650006.7929,1864.12004388,52445091.0214,66825356.3619,4918.06267852,4907.06287575,0.0
1.14817092158,0.931848251142,1.01369341455e-05,-7387209.1072,2.25910781077e-05,0.0,5570827.8863,684.473454859,653.835830282,66309093.2653,1822.6987695,45779267.3008,68592152.9969,4766.05749548,4756.68765178,0.0
1.08653886186,0.762226103129,1.05280117262e-05,-25758308.9574,1.94529388284e-05,0.0,5729767.76343,680.607214821,649.912210609,66735727.2915,1743.25402795,36152548.1431,69013787.9224,4510.22281558,4501.73588516,0.0
1.13459964625,1.10874316177,9.94009859304e-06,-10192369.4983,1.79573302525e-05,0.0,5618054.97995,683.699116906,652.986499614,66439609.0297,1803.89207984,44392390.7755,67845531.1513,4709.72313158,4700.18084114,0.0
1.11166772335,0.984365542331,1.03099512458e-05,-16580277.6856,1.80773589351e-05,0.0,5649025.97985,682.123048731,651.483756897,66487111.1781,1774.01485232,40308723.2274,69152959.4385,4614.53271963,4605.06468429,0.0
1.11988825189,0.893882557486,1.00454829542e-05,-14618157.4495,1.99394550347e-05,0.0,5646207.33415,682.796598129,651.995180389,66504813.3689,1785.41770375,41463746.9303,68920148.5143,4648.6561336,4639.35197539,0.0
1.14237607849,0.918624473463,9.86676052132e-06,-7962680.85088,2.13516782174e-05,0.0,5550153.28694,684.186948851,653.338932041,66231994.0403,1812.86301756,45772432.8271,68345902.5287,4742.00310181,4731.89588929,0.0
1.10032591056,1.16867231436,9.82861824327e-06,-23003486.1081,1.48004292604e-05,0.0,5746194.45953,681.763791213,650.835921321,66804242.5677,1760.79407024,37224066.9811,69127403.0791,4567.45285473,4558.65046398,0.0
1.1234299554,1.18432086516,9.62800300833e-06,-14383618.5902,1.58326539548e-05,0.0,5648388.09684,683.183631538,652.216873144,66511919.8911,1788.6007938,41783696.634,68859909.0235,4663.35774487,4653.49365782,0.0
1.13247663736,0.908631011853,1.02966906592e-05,-11420034.3845,2.16906884632e-05,0.0,5615579.63431,683.442290593,652.857541447,66427255.4388,1802.70840674,43450958.3519,67659839.916,4700.91052168,4691.81632304,0.0
1.11334921694,0.8633071282,1.0009433241e-05,-16558383.1329,1.96257363347e-05,0.0,5666808.95191,682.459825068,651.604789224,66556372.1465,1776.9984493,40513601.5637,69217531.6665,4621.51259952,4612.31354941,0.0
0.99004941635,0.855839504084,1.0378926688e-05,-95055395.5521,1.46536526806e-05,0.0,5912191.86049,678.859258472,643.686993066,67143025.4304,1612.01065836,69961209.2594,70209724.0262,4109.69512727,4101.62801221,0.0
1.15293724381,1.1670409394,1.02834826023e-05,-5747633.45486,1.93677821334e-05,0.0,5566118.86608,684.655173481,654.20826098,66301451.962,1828.41012455,46635342.4151,68563567.3468,4785.84249906,4776.39447095,0.0
1.13959328285,0.848721295162,1.00505536344e-05,-9891835.96093,2.30478440077e-05,0.0,5598354.43969,684.069266637,653.30194031,66377365.9223,1811.97385549,44383209.129,68015325.4651,4730.45171711,4721.21724649,0.0
0.999841493306,1.1839593477,9.98295231466e-06,-95668224.6278,1.19050699708e-05,0.0,5920449.98314,678.445257767,644.314646049,67176273.4604,1624.52793123,70500776.6533,70788748.6671,4150.34203871,4142.03876935,0.0
1.06092235645,1.11406393023,1.03004118019e-05,-37695579.9286,1.33934093569e-05,0.0,5821198.8245,679.083716297,648.201181416,66984381.1061,1708.85290426,34662199.1786,69982854.3889,4403.88870162,4395.60501531,0.0
1.06468628746,0.890169383318,9.71018921688e-06,-37908002.7435,1.5577915404e-05,0.0,5817439.13758,679.816316239,648.446073607,66975953.782,1713.64983062,34704495.3457,70130510.1948,4419.51277925,4411.07731029,0.0
1.13740335876,0.676116044105,1.00359515224e-05,-8834199.61191,2.54331270699e-05,0.0,5520882.33361,684.110654856,653.142524268,66131530.2636,1806.50772474,45186241.7545,67941800.4746,4721.36134221,4711.2363117,0.0
0.989663808682,1.1177031106,1.00755706741e-05,-95380039.4036,1.23553902571e-05,0.0,5991221.14166,679.228658708,643.67976661,67377685.0474,1613.73606854,70246733.0848,70489798.3585,4108.09446984,4100.99127028,0.0
1.03382981268,0.844214907853,1.01169563683e-05,-56658998.0836,1.51184761937e-05,0.0,5839351.79727,678.132653378,646.472463761,67004956.8981,1671.35531941,40730106.9465,70917120.1793,4291.42755243,4282.90449465,0.0
0.993268344454,0.976537007529,9.81286292438e-06,-95331418.5921,1.41044874142e-05,0.0,5931174.52883,679.834593782,643.896995619,67198040.4882,1616.383837,70204166.7195,70449421.3563,4123.05689783,4114.9379726,0.0
1.08706719253,0.9801036707,9.4975453613e-06,-28248627.9803,1.57405511556e-05,0.0,5779321.83061,681.320828571,649.993859695,66888110.3667,1743.2617786,35931477.4434,69477840.666,4512.41591619,4503.72590963,0.0
1.1381157037,0.628407544408,9.76241188116e-06,-9477777.8647,2.62045441682e-05,0.0,5535844.81483,684.267387991,653.119976036,66179527.841,1807.98438567,44845904.2491,67865165.0548,4724.31828606,4714.28171353,0.0
1.05832417126,1.01310694685,1.02555032506e-05,-39052167.3151,1.43070872754e-05,0.0,5822702.17649,679.015288961,648.032288537,66984488.9054,1705.4587212,34740396.0488,69763824.5233,4393.1036349,4384.86003469,0.0
1.03396117865,0.856803209562,1.02471968914e-05,-55527724.179,1.50028549307e-05,0.0,5834967.1155,678.018626693,646.483210237,66990739.2817,1671.52571292,40117735.1638,70872455.5842,4291.97285258,4283.44766958,0.0
1.09497793519,1.23154613536,1.02454392273e-05,-23738945.2824,1.41144581443e-05,0.0,5744622.38969,681.121493778,650.470147541,66784869.6876,1753.59359091,36843659.1525,68976458.1611,4545.25340897,4536.53686195,0.0
0.976547730742,0.880337358388,1.01031186245e-05,-94630810.06,1.43908346507e-05,0.0,6007411.96861,681.64151707,642.836470901,67415993.6105,1613.03654396,69587046.3278,69822233.399,4053.64963031,4046.73037475,0.0
1.09146889649,0.950829547391,9.82678371779e-06,-25882696.089,1.67070134477e-05,0.0,5756171.05696,681.308763088,650.232725993,66821235.6883,1749.39632279,36328929.0545,69346389.3655,4530.68738933,4522.02568384,0.0
0.994144076878,0.922228537792,1.01521963138e-05,-95285797.5208,1.4371079198e-05,0.0,5913679.98978,678.889598247,643.951352339,67150903.4532,1617.30030014,70164045.1371,70392412.207,4126.69206312,4118.55907391,0.0
1.11758203186,0.946287819199,1.01632468994e-05,-14756449.4558,1.89772357497e-05,0.0,5626752.58113,682.567831303,651.835655373,66435656.7908,1781.19445123,41365661.0308,68889154.1721,4639.08301425,4629.41729011,0.0
1.12277617177,0.898894160633,1.03614178157e-05,-13771420.8045,2.08822776789e-05,0.0,5643845.05597,682.76845989,652.204140869,66498238.8129,1790.25691517,42065916.2315,68257969.4001,4660.64388902,4651.70253474,0.0
1.09464755564,0.835404023931,9.49811434679e-06,-25563308.9968,1.8021082982e-05,0.0,5747228.64387,681.761109052,650.424029469,66800310.95,1753.32891954,36500463.6727,69373331.4411,4543.88200346,4535.07226964,0.0
0.95127031323,0.787910566366,1.02865477076e-05,-93392997.159,1.48673197999e-05,0.0,6052918.73295,685.195445634,641.207431895,67523309.4412,1608.28567603,68497479.4634,68717159.5454,3948.72307022,3942.18791779,0.0
1.16820773477,1.01978012859,1.05725101451e-05,1700082.83515,2.1394121583e-05,0.0,5415182.42078,685.436217102,655.100020754,65744133.8581,1843.31726412,50488118.6941,67030603.1099,4849.23030703,4838.43282815,0.0
1.0647625322,0.885381588674,9.8148182756e-06,-36956109.8272,1.55850985152e-05,0.0,5775698.73992,679.761764385,648.434647077,66841284.6174,1711.59140629,34787035.8703,70064628.8413,4419.82927116,4410.65961897,0.0
1.17262866275,0.959824529833,9.85353390589e-06,259336.248549,2.39150191647e-05,0.0,5498365.42518,686.2007826,655.433789351,66083105.5435,1853.03392081,50188168.5599,67772647.0202,4867.58157908,4857.80362604,0.0
1.24582402208,1.11135069222,9.99034553993e-06,18920854.765,2.54499245126e-05,0.0,20543796.6365,690.526489673,659.962688675,64968348.7014,1935.58616023,63233013.9285,66136464.3027,5171.41551565,5159.42929659,0.0
1.11495039288,0.932194061481,1.01717683696e-05,-15752022.4565,1.88330765258e-05,0.0,5639162.91042,682.389957976,651.667324223,66477193.3688,1777.96656678,40842142.864,69307400.0321,4628.15908084,4618.63532978,0.0
1.10856896891,1.10152468302,9.72575206341e-06,-20358772.9685,1.60299591165e-05,0.0,5718019.22109,682.352917443,651.360046527,66724637.3635,1771.29601938,38410209.8332,68864264.575,4601.66978995,4592.63676709,0.0
1.09203309522,0.984212320682,9.51926204048e-06,-26459456.4379,1.60927453898e-05,0.0,5764557.79729,681.561223419,650.288176575,66851059.37,1749.77534219,36297437.9702,69453906.2622,4533.02937826,4524.26101368,0.0
1.0818625012,0.845103151702,1.00200214595e-05,-28830488.6002,1.74540479439e-05,0.0,5764645.35421,680.711339802,649.656964168,66837694.0217,1736.7651583,35698828.4135,69281156.4625,4490.81124248,4482.29957898,0.0
1.21586805828,0.736778542378,1.03717167995e-05,12687020.9402,3.15900530405e-05,0.0,13911684.516,688.817672312,658.088322696,64993990.2023,1900.50525906,58025503.4578,66218312.649,5047.06830992,5035.18984763,0.0
1.03534214586,0.929366143995,1.02001718223e-05,-54678763.1192,1.44275234529e-05,0.0,5837668.7649,678.089580214,646.57136841,67001237.1986,1673.31310028,39671610.0013,71051506.103,4297.70524746,4289.1577105,0.0
1.05894285514,1.22728117424,9.89806305306e-06,-40925979.0584,1.22377456076e-05,0.0,5826059.00856,679.256643771,648.054105053,66997801.513,1704.96670411,35042501.5646,69753005.6731,4395.67179169,4386.97790044,0.0
1.16229471355,1.21247922656,1.01473906077e-05,-4399787.70985,1.91014054976e-05,0.0,5448790.30445,685.400549208,654.755963232,65909145.184,1836.60031275,47046026.2924,67817384.4905,4824.68535595,4813.69834272,0.0
0.983006472732,1.03476947378,1.02217273903e-05,-94832930.3796,1.32674817929e-05,0.0,5946366.82837,680.215558731,643.237642235,67229037.94,1609.7032099,69765297.4571,70004893.3578,4080.45986831,4072.50500887,0.0
1.16609426833,1.05748914472,9.89049584682e-06,-128595.934169,1.98880003844e-05,0.0,5447451.73118,685.72767533,654.990502281,65896509.9361,1840.63596294,49964162.0977,68309416.6389,4840.45730784,4829.47664143,0.0
1.10996792893,0.977758544857,1.01727205817e-05,-17394522.6954,1.80237977464e-05,0.0,5663104.04871,682.126452896,651.405036947,66549002.6151,1771.73337006,40038406.0437,69060228.5262,4607.47687299,4598.13596912,0.0
1.06833022983,0.863966384984,9.91762702699e-06,-35395381.8926,1.61792677476e-05,0.0,5798652.62642,679.870337602,648.682180043,66929120.1065,1718.47869571,34687825.2096,70065261.2953,4434.63878402,4426.14628005,0.0
1.11970012536,0.896697077315,9.86709708508e-06,-15065273.2932,1.97087673519e-05,0.0,5655489.49138,682.896837817,651.984095275,66529595.0075,1785.21133727,41292212.483,69178303.0965,4647.87522037,4638.57411956,0.0
1.02877909471,0.948024062414,1.00485525233e-05,-62550427.4981,1.41528591281e-05,0.0,5860283.41665,678.000562693,646.158168405,67062554.2481,1664.77162331,44287574.7151,70988591.0162,4270.46202214,4262.10684297,0.0
1.09658525974,1.02872315656,9.89990787637e-06,-24198569.4856,1.6335081628e-05,0.0,5741535.99804,681.520270886,650.562367412,66786163.7353,1755.87635808,36781754.189,69129666.1651,4551.92541318,4543.18298634,0.0
1.02979042811,1.11928242629,1.03170519514e-05,-60187567.7429,1.27652602948e-05,0.0,5852386.62769,677.712495119,646.21506481,67040726.1635,1665.66264586,42781212.0882,70965925.9472,4274.66006708,4266.20257023,0.0
1.1329345506,1.01002894262,9.93690280647e-06,-11025852.0158,1.96574516401e-05,0.0,5632689.12823,683.637782351,652.887850241,66484491.3917,1802.74276748,43932681.7578,67748122.8894,4702.81131954,4693.60708646,0.0
1.12985146045,0.967270210613,1.01849169011e-05,-11799578.5498,1.98831855981e-05,0.0,5582466.4018,683.378849787,652.660997275,66303924.7819,1797.11394033,43171018.5313,67386871.3233,4690.01341233,4680.14037617,0.0
1.08983186741,1.12105379902,9.96916467322e-06,-26280807.1644,1.47279792665e-05,0.0,5764006.8638,681.050722679,650.13520646,66847474.2207,1746.9689761,36205740.8578,69323238.5674,4523.89208162,4515.25616196,0.0
1.2493743276,0.826081041579,9.87813073078e-06,19661692.9873,3.18280081806e-05,0.0,21319110.2924,691.041074107,660.177098714,64783343.2619,1940.15136743,63806342.0769,64856073.8796,5186.15283387,5174.04308503,0.0
0.975758195201,0.938220042459,9.92608952738e-06,-94778540.622,1.41126843792e-05,0.0,6030803.53266,681.966902084,642.790781661,67482707.2549,1613.69068389,69717111.462,69953122.2217,4050.37226828,4043.71733296,0.0
0.963452455918,0.920539378113,9.94509221985e-06,-94056655.2323,1.44716362939e-05,0.0,6057680.27487,684.399571903,641.998608782,67558697.947,1615.49398643,69081723.9631,69307795.9342,3999.29114452,3992.87839293,0.0
1.11425715691,0.814083710511,9.28970740468e-06,-19906960.8131,2.00359527432e-05,0.0,5709694.61445,683.109082774,651.72109825,66713946.2078,1779.73753873,38685974.8277,69051705.6273,4625.28145833,4616.36066613,0.0
1.1476809863,0.755686776614,9.91842028509e-06,-7509524.54396,2.48733576685e-05,0.0,5510231.49447,684.630720552,653.681517628,66101794.5252,1820.14774784,45700308.3127,68508509.9081,4764.02377413,4753.82188295,0.0
1.16176281341,0.938612735874,9.77209917058e-06,-2624922.7319,2.22810475127e-05,0.0,5484628.04127,685.670754139,654.741549378,66023594.2541,1837.25832977,48547783.1475,67990259.6711,4822.47743846,4811.97475294,0.0
1.16166466796,0.930151658887,9.88844331941e-06,-2537400.16038,2.16812218532e-05,0.0,5450168.36128,685.593607147,654.720982862,65916959.8274,1835.75856109,48399371.4137,67736062.5462,4822.0700367,4811.16649926,0.0
1.07455083361,0.870583807758,9.90676099815e-06,-32236796.9745,1.65476199907e-05,0.0,5794624.09268,680.138550614,649.023364284,66926699.2743,1727.13832661,35059765.4022,69709882.1669,4460.46051032,4452.0621978,0.0
1.11719321505,0.649632381747,9.63462217683e-06,-15941149.6502,2.3071615008e-05,0.0,5617694.03097,683.11218024,651.827154476,66405941.5932,1781.20436635,40759089.6256,69329760.9346,4637.46903567,4627.71073419,0.0
1.14579250969,1.08631986161,1.02951646674e-05,-7717443.23733,1.99968854614e-05,0.0,5585238.519,684.132612102,653.668859649,66352185.9377,1819.43646564,45527118.0646,68514054.132,4756.18470772,4746.8529418,0.0
1.08805775217,0.881806974833,9.73470037401e-06,-27089044.016,1.70784645137e-05,0.0,5759591.89648,681.241282277,650.044080331,66832756.7162,1744.6435664,35985219.48,69381277.8337,4516.52772926,4507.82211536,0.0
1.11949034973,0.713157886296,1.02496601516e-05,-14538916.7944,2.27139500567e-05,0.0,5595813.62573,682.785054752,651.969910916,66335125.5931,1784.31080705,41412541.2958,68463643.0546,4647.00444173,4637.40564304,0.0
1.14379151721,1.00311021019,1.05274798641e-05,-5840599.98063,1.98426060954e-05,0.0,5536220.39226,683.779396519,653.455929986,66138493.9107,1814.31403852,46476733.5486,68692939.296,4747.87858794,4737.83854367,0.0
0.956994560551,0.726681314574,1.03400898129e-05,-93642105.6689,1.55382473681e-05,0.0,6030085.86148,684.243225898,641.574992927,67459696.9227,1608.94897344,68716766.694,68938129.7265,3972.48442085,3965.83985004,0.0
1.02701372593,0.936424158603,1.01633021546e-05,-63864189.0662,1.43593363674e-05,0.0,5852630.64842,677.832193928,646.028253091,67036088.7799,1662.06448943,45140223.5863,70865224.8612,4263.13397634,4254.72120777,0.0
1.11656239499,1.1300764925,1.05001839342e-05,-14907479.5409,1.67346217163e-05,0.0,5633001.37606,682.210592955,651.777179847,66448898.1016,1780.07766661,41251411.7784,68698456.1201,4634.8505016,4625.29961555,0.0
1.05492587723,0.881078291225,1.0273543586e-05,-42558972.4402,1.55827266412e-05,0.0,5794569.37065,678.936180504,647.795417378,66898116.327,1699.90886124,35156779.4717,70205860.854,4378.99731638,4370.31115154,0.0
1.10898478254,1.10038167717,1.00697863085e-05,-19610430.9322,1.64291685529e-05,0.0,5699085.53246,682.125407415,651.365494322,66660602.4754,1771.63787121,38749640.2793,68895752.0884,4603.39583232,4594.35626507,0.0
1.13816160583,0.953320007814,1.01265196592e-05,-10106666.7668,2.12060498402e-05,0.0,5602210.36642,683.891775313,653.214734728,66383989.4219,1809.69137133,44253649.6543,67968335.0713,4724.5088258,4715.21806541,0.0
1.05252199374,1.15749945112,1.03230720261e-05,-43032590.176,1.2848456436e-05,0.0,5855022.71798,678.571191031,647.654873349,67095246.4713,1698.45237332,35400805.5134,70273062.4878,4369.01879601,4361.26547968,0.0
1.00969787194,1.06548079094,1.01303345967e-05,-85059000.6101,1.30128494174e-05,0.0,5883393.01745,677.67992582,644.939927896,67079537.4804,1637.79169749,61366150.0429,70704550.2631,4191.25586642,4182.78931296,0.0
1.10405103484,0.878735964052,1.04647070644e-05,-18114964.0005,1.87885544841e-05,0.0,5657109.68623,681.64289101,651.038111874,66519269.0024,1763.92481578,39534508.6356,68751279.7205,4582.91584562,4573.57416108,0.0
1.09076414587,0.86080492907,1.00632550756e-05,-25614094.2007,1.79788843843e-05,0.0,5738938.5527,681.128566455,650.173701184,66772947.2733,1748.39816378,36299297.4306,69184766.0621,4527.76196951,4519.11146587,0.0
1.19823290592,0.926529897794,9.60318351985e-06,7346254.56121,2.41034983339e-05,0.0,8866561.13643,687.981966674,657.029834582,65564531.8115,1880.66330922,54288369.9098,66724465.3788,4973.86479247,4962.50023598,0.0
1.10209255608,0.88859662368,9.69623514391e-06,-22575738.4667,1.81449327938e-05,0.0,5721195.92167,682.092432013,650.955460542,66722864.8268,1762.99855786,37393518.8248,68879230.8972,4574.78620029,4565.85822872,0.0
1.23710378206,0.976219086412,1.01222915472e-05,17230353.5594,2.78534716934e-05,0.0,18789187.7866,689.797850868,659.298539538,65076907.5364,1926.22179088,61960507.3424,66954648.5026,5135.21779933,5123.59691279,0.0
1.21004940976,0.771203616134,1.00844535284e-05,10985711.7533,2.95528750128e-05,0.0,12287979.5202,688.514712817,657.67245718,65141301.4989,1893.93427795,56716344.158,66307460.9098,5022.91509991,5011.11411268,0.0
1.2796819108,0.912807927544,1.03311009333e-05,25170041.5,3.55326797898e-05,0.0,26813076.8288,692.77849434,662.034855982,64091057.8184,1972.70999273,67551902.9202,68446594.4134,5311.95961173,5298.81166798,0.0
1.21947755118,0.867140865951,9.65706345871e-06,12462276.4023,2.73271048474e-05,0.0,13730911.617,689.301972576,658.319758879,65176604.9224,1905.34935495,58021882.0764,66309957.1123,5062.05131495,5050.08590978,0.0
1.04139400987,1.03766021957,1.04699134751e-05,-49538719.7371,1.38751591061e-05,0.0,5811754.13467,678.086159184,646.950882926,66936507.6725,1680.88144549,37328591.0683,70711073.1677,4322.82653497,4314.09492654,0.0
1.06999386204,1.10937923896,1.01807776994e-05,-32919196.0854,1.38010118969e-05,0.0,5799988.64088,679.623756524,648.754548323,66930078.6297,1720.29548498,34982700.4251,69681992.0433,4441.54452133,4433.02621836,0.0
1.14160227342,1.04731480539,1.00850019613e-05,-8950689.03409,1.95276074883e-05,0.0,5555898.25526,683.971290975,653.293540557,66235539.3528,1812.02328638,44846559.6349,68220484.9832,4738.79103697,4728.69331654,0.0
1.12421964861,1.07136784352,1.02796699947e-05,-13425718.6538,1.7874896556e-05,0.0,5612169.87021,682.872784018,652.283112528,66395180.6236,1789.91877011,42218388.069,67614868.8717,4666.63576138,4656.9579825,0.0
0.969453933789,0.903063409432,9.93540479377e-06,-94328348.8143,1.44632572072e-05,0.0,6012355.39,683.22279553,642.376150237,67408812.5371,1612.81536248,69320838.8224,69550980.0796,4024.20327916,4017.06162263,0.0
1.1543235348,1.06892678614,9.75816148838e-06,-3688289.63065,1.86104845471e-05,0.0,5507801.57786,684.908796082,654.133451649,66087063.5303,1826.30503977,48211585.068,68467022.9383,4791.59699295,4780.85235567,0.0
1.19792115592,0.863149459157,9.9290769993e-06,7501871.46446,2.6046276018e-05,0.0,8997689.44177,687.8708339,656.982770216,65361288.9464,1879.14722117,54130760.2093,66499987.9132,4972.57071822,4960.80589938,0.0
0.954651580632,1.09118219585,9.78804471544e-06,-93768722.6117,1.28974576332e-05,0.0,6093526.67481,685.904413751,641.433042327,67652679.1819,1614.38815376,68828165.9995,69049937.9011,3962.7587112,3956.46451661,0.0
1.15891608097,0.988209391705,1.00650290046e-05,-4326039.84327,2.25998880491e-05,0.0,5539145.89142,685.253272036,654.58169423,66220687.7047,1836.14911827,47474365.4886,68419229.4119,4810.66065211,4801.11611195,0.0
1.04811781943,0.857422118718,1.00884166605e-05,-45729448.5817,1.54580450397e-05,0.0,5811475.85287,678.729825006,647.37806492,66938149.4504,1690.23415154,36105690.4772,70455243.8749,4350.73706845,4342.04018629,0.0
1.14176891337,0.649461472167,9.91232072344e-06,-9126534.21321,2.63364678013e-05,0.0,5519004.89281,684.365244591,653.318420688,66118152.1826,1812.85211978,44812333.6725,68052140.4504,4739.4827594,4729.38211793,0.0
1.18149591505,0.988248161351,1.03757988714e-05,4393909.38995,2.29494471597e-05,0.0,5952481.80336,686.433413017,655.898077628,65502881.7191,1858.67022944,52067581.9609,66781931.1858,4904.38954337,4892.92171969,0.0
1.1154417914,1.0314181453,1.01938908383e-05,-15669258.8338,1.75976619027e-05,0.0,5644725.82727,682.355362111,651.69829587,66496781.6737,1778.5039526,40979086.2779,69253877.5316,4630.1988761,4620.66786956,0.0
1.29964659733,1.12642822507,9.48242979391e-06,27409135.4286,2.87030082579e-05,0.0,28912266.1465,694.191937051,663.30043076,64067553.3638,1995.46096886,68655662.4657,69770003.4421,5394.83302552,5381.23094619,0.0
1.03934603548,0.964296718462,1.01426942338e-05,-52410913.5513,1.40924916767e-05,0.0,5841908.41119,678.292343851,646.830917494,67023144.1194,1679.15582061,38566005.4825,70928232.5673,4314.32539328,4305.8884361,0.0
1.02736306721,0.969550234793,9.81884592125e-06,-64478493.9551,1.38517398106e-05,0.0,5922912.98874,678.068815316,646.083900852,67258575.6557,1665.14339824,45609911.1395,70934852.9835,4264.58409199,4257.28712427,0.0
1.24640296294,1.17936202267,9.91011007849e-06,18730231.2789,2.38954715568e-05,0.0,20292328.3391,690.588206572,659.987887754,64902686.5331,1935.47802321,63043728.9361,65941466.8828,5173.81869916,5161.47028717,0.0
1.10082491747,1.11056235582,9.96843801293e-06,-22448161.8215,1.55784641635e-05,0.0,5735127.19298,681.733214231,650.877533903,66759065.706,1761.46735707,37401707.4416,68725403.6712,4569.52423242,4560.7155928,0.0
1.13395176041,0.835252010173,1.07474851822e-05,-10020611.9802,2.35118657443e-05,0.0,5582097.04748,683.251308867,652.924355953,66297033.9718,1804.48781167,43990950.7462,67815823.3126,4707.03375746,4697.91538454,0.0
1.05212541912,0.78954303924,1.016347142e-05,-41438485.9164,1.61849401756e-05,0.0,5814183.59315,678.818637344,647.621242968,66950780.0568,1696.28114736,35029532.2849,70506444.1917,4367.37261477,4358.95221367,0.0
1.07745130498,0.901735048525,1.00528735862e-05,-29597666.6933,1.61752847214e-05,0.0,5741983.67776,680.413917243,649.330206888,66746450.0659,1728.9653423,35506107.2504,69235192.4724,4472.50036697,4463.30331797,0.0
1.05434059257,0.899225330198,9.8388166932e-06,-44686849.1454,1.53766924834e-05,0.0,5800766.99797,679.26382665,647.772097472,66914397.4501,1698.27860023,35702797.1775,70402696.1492,4376.56779976,4367.62110252,0.0
1.21171351976,1.08432142089,9.92002813828e-06,11286096.7034,2.26532625525e-05,0.0,12607902.5628,688.400335132,657.794278977,65411695.3604,1896.26087745,57068463.6581,66664590.3395,5029.82282052,5018.34517582,0.0
1.15585240342,0.937847061432,9.89556088945e-06,-4233492.68885,2.24722798581e-05,0.0,5521181.53659,685.151541551,654.334176889,66144239.5958,1830.76397423,47700669.6702,68486192.5615,4797.9433266,4787.92794067,0.0
1.18845711346,1.00780721129,9.97320866273e-06,5358738.33583,2.2478854233e-05,0.0,6937302.07407,687.094763148,656.35116347,65545046.8823,1867.47249667,52825984.392,66831653.4553,4933.28547797,4921.70245319,0.0
1.09436751835,1.02906860249,1.00432872642e-05,-24493348.7516,1.62497157427e-05,0.0,5742096.99613,681.27966361,650.407078675,66786982.6432,1752.97638732,36646685.1885,69082603.3151,4542.71956867,4534.01184641,0.0
1.10717545719,0.985200483833,9.67353947463e-06,-19700100.3857,1.73796466824e-05,0.0,5642843.61396,682.405420071,651.244924107,66471998.7587,1766.34411409,38962481.2117,68721366.8144,4595.8853228,4585.72269792,0.0
1.08962182705,0.916216412948,1.01146663966e-05,-25834929.6384,1.72547635351e-05,0.0,5743808.53897,681.01314999,650.110086779,66787064.683,1746.85815701,36233717.1183,69201108.3551,4523.02020408,4514.38756878,0.0
1.15664788102,1.22425996165,9.71641855433e-06,-4645191.79474,1.78255808145e-05,0.0,5554278.50466,685.15332037,654.390127572,66260055.057,1831.61200441,47624288.368,68662418.863,4801.24535411,4791.19032957,0.0
1.06012664728,0.745992994426,9.87978657156e-06,-38526805.8544,1.67406769126e-05,0.0,5779591.36698,679.535282993,648.133497434,66841946.0674,1705.92757825,34649867.9192,69795453.775,4400.58571286,4391.51083886,0.0
1.12238226804,0.976108354776,1.0114378626e-05,-14170945.8149,1.95478411418e-05,0.0,5661703.12436,682.854681422,652.178441899,66567090.2868,1789.57913721,41894893.0477,68630333.8703,4659.00879463,4650.07453738,0.0
1.22277448187,1.10611979659,1.01618190574e-05,13583805.5878,2.35558813386e-05,0.0,14880220.148,689.041487949,658.538021341,65181300.3453,1908.38019176,58907906.9408,66582717.1743,5075.73687424,5063.83481438,0.0
1.09971418074,1.04221038121,1.01290343712e-05,-22549810.8644,1.65755614666e-05,0.0,5723443.15021,681.586335625,650.803670554,66726475.0665,1759.91487059,37304468.5891,68548565.5476,4564.91356425,4556.12254052,0.0
1.17656261545,0.937447084713,9.80387026529e-06,2187263.39407,2.25953315118e-05,0.0,5405125.41068,686.496931219,655.632240422,65764676.8659,1854.19489,51162603.5256,67014261.0541,4883.91141673,4872.8456911,0.0
1.08546636615,1.02904737225,9.56556034089e-06,-28620284.4356,1.51016268792e-05,0.0,5788429.22262,680.968137583,649.755684594,66914645.1125,1741.12670081,35858778.2325,69483207.8338,4505.77088589,4497.10607791,0.0
1.0913364116,0.991967922492,9.7508037894e-06,-26096228.9685,1.61816275426e-05,0.0,5768847.02055,681.339995867,650.236707632,66870511.0248,1749.51970963,36415379.796,69442136.7687,4530.13744455,4521.57565943,0.0
0.998648252304,0.677776599721,1.00003187321e-05,-95461485.1444,1.62884626129e-05,0.0,5892286.30833,678.7295488,644.238440497,67087569.8381,1623.2873477,70318851.3235,70708800.1413,4145.38889531,4137.10249844,0.0
1.11404089041,1.03262013332,1.01877901313e-05,-16001330.2428,1.74536807073e-05,0.0,5649788.38806,682.276031995,651.611053829,66505893.5527,1776.69832727,40712537.6599,69436461.3546,4624.38373609,4614.87509842,0.0
1.06315416663,1.00658699361,9.87986182964e-06,-37962615.0816,1.43367057423e-05,0.0,5822173.48323,679.561406309,648.346878893,66990771.3276,1711.56650347,34702419.2612,70074803.4092,4413.15294568,4404.74141054,0.0
1.25475321701,0.865869262806,1.00960804812e-05,20498656.6992,3.25346435353e-05,0.0,22420419.3588,691.355386529,660.487220928,64481472.5127,1944.61032585,64442763.3102,65269636.5192,5208.48060381,5195.6366779,0.0
1.04293222573,0.935015731339,1.00639243473e-05,-50136614.8446,1.46783206277e-05,0.0,5827717.08005,678.510218593,647.034225231,66984610.5091,1683.57164105,37515142.2673,70938688.4412,4329.21166901,4320.6304631,0.0
1.21950666584,0.857086434932,1.01566356575e-05,12973122.3263,2.84037994082e-05,0.0,14193524.6507,689.060881361,658.319903359,65037536.4129,1904.4966279,58328980.1767,66333174.9471,5062.1721699,5050.10648162,0.0
1.12161726534,0.796854476501,9.75095490985e-06,-14513681.1485,2.11219890708e-05,0.0,5640371.00144,683.149804093,652.105713335,66492478.4724,1787.58812428,41562546.3609,69004429.9598,4655.83326843,4646.3998276,0.0
1.25200250194,0.984612646471,1.02689714762e-05,20258968.7343,2.95231630573e-05,0.0,22106750.275,690.923744913,660.324535927,64657805.4362,1941.55261728,64236183.3677,65070865.6426,5197.06238555,5184.6205451,0.0
1.05310532615,1.11096380961,1.0184983203e-05,-43979104.9541,1.33125700858e-05,0.0,5808463.2368,678.833165261,647.68640786,66944195.1908,1696.78594296,35526570.4263,70347275.7449,4371.44020885,4362.60443436,0.0
1.17207035937,0.873703599512,9.85309592974e-06,1306358.08187,2.35011702997e-05,0.0,5445292.02144,686.192933784,655.378517844,65888383.1814,1849.79320991,50782908.6187,67590237.6098,4865.26406174,4854.7024243,0.0
1.01000370751,0.957167235006,1.03128455496e-05,-82327853.7722,1.37665195902e-05,0.0,5942681.26763,677.314036333,644.978338502,67275380.5349,1641.81190401,59081634.2776,70675559.9441,4192.52538987,4185.47522178,0.0
1.1507518047,1.05029046594,1.01425324454e-05,-6679634.70346,2.0829507453e-05,0.0,5572484.6598,684.599761925,654.026150841,66316942.5737,1825.84081351,46157395.2572,68704329.9908,4776.77074131,4767.35950708,0.0
1.18767906585,0.937527607108,1.00790788438e-05,5477646.05402,2.39149742806e-05,0.0,7081397.02101,686.965090824,656.321116929,65693487.9389,1868.4241213,53025566.8444,66921679.6936,4930.05580234,4919.23611522,0.0
1.10559502749,0.96285985618,9.92640984132e-06,-21081925.1412,1.78597628033e-05,0.0,5711517.52221,682.106840317,651.177804261,66694784.8319,1767.82171139,37988911.7011,68710533.063,4589.32495911,4580.44098659,0.0
1.0634101018,0.936077859974,1.02905295273e-05,-36562051.3139,1.53935350635e-05,0.0,5804461.1707,679.297042942,648.36427818,66937544.3057,1712.28974901,34616469.6599,70070827.5146,4414.21533257,4405.89318923,0.0
1.08573247344,0.974610749326,1.06048131149e-05,-25584228.1695,1.66019292093e-05,0.0,5725757.70524,680.420012907,649.851739075,66708302.9781,1741.01477224,36096555.1613,68823813.5229,4506.87549725,4498.11024338,0.0
1.19402835351,1.00404644643,1.0080827782e-05,7177318.78623,2.29694538159e-05,0.0,8656784.21801,687.385351554,656.756789641,65532200.3853,1874.93574952,53886380.4013,66598979.8778,4956.41169542,4945.12966731,0.0
0.973525994091,0.854985651589,1.01593463243e-05,-94596839.7886,1.48375872094e-05,0.0,6024269.79364,681.826984114,642.64647176,67468860.9349,1612.12592914,69557361.1823,69790708.5436,4041.10640147,4034.56239859,0.0
1.07661037757,0.886890823162,1.00177781762e-05,-30344824.2863,1.65046024617e-05,0.0,5776319.47635,680.179014294,649.159523757,66861215.6271,1729.18450245,35397988.941,69336180.1728,4469.00967729,4460.38827679,0.0
1.19074656613,0.979951529947,9.86784921091e-06,5485848.85961,2.30954131311e-05,0.0,7075499.12695,687.342809184,656.50465729,65516359.7312,1870.51606406,52954427.7695,66806619.4131,4942.78899601,4931.14224101,0.0
1.15529018172,1.09693786136,9.99296278365e-06,-4067710.05535,1.87097224926e-05,0.0,5485643.50017,684.843156973,654.183382323,66019627.6622,1827.25972429,47563757.1885,67903603.7713,4795.60954432,4784.73090699,0.0
1.01245799799,0.936570186513,1.01545154349e-05,-81683645.4418,1.42908163487e-05,0.0,5866983.73059,677.675180588,645.113507007,67033826.6663,1641.58310692,58547103.8424,70640407.1632,4202.71314966,4194.20130042,0.0
1.04314093759,1.0408917741,1.03069652478e-05,-48515876.8029,1.36481481274e-05,0.0,5822651.68774,678.297783335,647.06796964,66970029.5364,1683.59345841,36942861.7564,70744886.4731,4330.07803194,4321.40518822,0.0
1.12754883662,0.926157949565,9.55686683553e-06,-13369354.1464,1.92835914049e-05,0.0,5617038.47227,683.627117543,652.487972971,66416386.6409,1794.20867069,42357206.0872,68262527.601,4680.45522081,4670.51347668,0.0
1.10583067602,1.01274065117,9.91456246971e-06,-21252901.9405,1.74224127432e-05,0.0,5726428.03468,682.106711759,651.197268654,66752024.3804,1768.73110259,37891893.8599,68711401.7245,4590.30313616,4581.61652982,0.0
1.05521111063,0.978760222571,9.79915670027e-06,-44440984.3239,1.45919951518e-05,0.0,5805429.2637,679.300514691,647.824549217,66930044.508,1699.35931996,35612659.9278,70381666.4625,4380.18132023,4371.22019982,0.0
1.10415181701,1.04895230856,1.00941880622e-05,-21329595.1556,1.68286748426e-05,0.0,5712511.60889,681.865931455,651.082770982,66700218.0589,1765.70226358,37845978.1781,68670752.4811,4583.33419241,4574.47251213,0.0
1.1180165412,1.03200708738,9.81357840853e-06,-17361445.9317,1.77799302043e-05,0.0,5679032.89264,682.805423654,651.888421993,66608177.7825,1783.55063325,40135380.2892,69337282.4297,4640.88666252,4631.70288686,0.0
1.17692425719,0.91432455897,9.91713932361e-06,2466954.16075,2.32954557501e-05,0.0,5427581.03965,686.425668914,655.660123028,65841996.7525,1855.68029227,51326838.61,67110321.4456,4885.4125916,4874.76515867,0.0
1.10939941403,1.12524594646,9.78898215886e-06,-19992986.4595,1.58571358666e-05,0.0,5714413.9331,682.337603458,651.404572508,66717040.3086,1772.3332942,38626744.5506,68910458.4451,4605.11696764,4596.07157709,0.0
1.20374252949,0.753905388473,9.73305070764e-06,8693204.51334,2.87668077198e-05,0.0,10108761.7446,688.368940561,657.349777209,65408805.1179,1887.87360542,55049527.7011,66728644.1214,4996.73523991,4985.37818814,0.0
1.03052477456,0.773307440774,1.05633835985e-05,-58556046.8698,1.59173141267e-05,0.0,5831398.92804,677.649753004,646.257973519,66985575.1042,1667.69550817,41777891.9822,70704088.7515,4277.7083392,4269.49948976,0.0
1.13327519313,0.994307835507,1.02798940236e-05,-11270743.6376,2.04784862173e-05,0.0,5620000.82846,683.465361355,652.908920128,66441001.9201,1803.65631685,43532908.2134,67726364.7643,4704.22532668,4695.11766037,0.0
1.18547465546,1.00301341188,1.0373779453e-05,5811861.92402,2.28882578199e-05,0.0,7312299.12473,686.677218266,656.176933085,65481717.3707,1863.43476747,52957790.1658,66675106.4583,4920.90529481,4909.46888655,0.0
1.13308356972,0.83854843746,1.01208675577e-05,-10273240.8452,2.12352910137e-05,0.0,5575123.25438,683.533775477,652.796713364,66274719.5191,1801.28748123,44140076.7329,67771221.59,4703.42989791,4693.54084084,0.0
1.01191536748,1.2496638292,9.79697194902e-06,-82092108.0266,1.12060193482e-05,0.0,5909693.50309,677.853726788,645.087986128,67148584.0243,1640.70324517,58904271.516,70858230.3393,4200.46069041,4192.0117454,0.0
1.14992770989,0.673132299203,1.0227988553e-05,-6601163.84232,2.80979515433e-05,0.0,5533133.22163,684.712824444,653.971594322,66195860.8817,1825.20102623,46137504.4965,68556210.129,4773.34992375,4763.95191388,0.0
1.09413539514,1.0435251034,1.03132273574e-05,-23879152.1097,1.63649174002e-05,0.0,5736990.0489,681.078500211,650.410250972,66767400.9383,1752.99268458,36627981.9797,68957029.1297,4541.75602523,4533.15136046,0.0
1.1669106547,1.17780070116,9.78265665758e-06,-183882.383913,1.80477904824e-05,0.0,5462825.7727,685.77907378,655.044128335,65942192.6763,1841.57771807,49995907.5222,67864846.8454,4843.84612766,4832.85081414,0.0
0.992489580074,1.01149633927,1.02125873494e-05,-95221394.6665,1.35959550662e-05,0.0,5920628.48231,678.906916521,643.844756838,67170353.6371,1615.06159975,70107346.315,70347609.1706,4119.82424689,4111.71782007,0.0
1.0658640998,1.0145498746,1.00965683555e-05,-35847071.578,1.44815170017e-05,0.0,5807578.95916,679.541806665,648.522326289,66944228.9566,1715.13558686,34656528.8291,70078237.9006,4424.40187827,4415.94799137,0.0
1.14447216645,1.15111643695,9.89521345191e-06,-7854870.28182,1.73810832022e-05,0.0,5574269.39856,684.136234573,653.460782377,66283062.6704,1815.51871214,45684346.167,68548657.083,4750.70396293,4740.59772404,0.0
0.900914260626,0.919515308774,9.73822921578e-06,-91365906.3471,1.37581886115e-05,0.0,6191120.26692,693.235933172,637.964398843,67854091.7543,1599.87954151,66713156.5974,67854091.7543,3739.69509586,3733.81591313,0.0
1.0234778817,0.81974775523,9.76982059441e-06,-69819880.2069,1.5057082476e-05,0.0,5927966.98137,678.075593376,645.841921103,67264611.0095,1660.02305846,49339800.0055,70912538.7865,4248.45668694,4241.21644722,0.0
1.00177114061,0.861471991653,9.9650004315e-06,-95868286.8517,1.48294932673e-05,0.0,5896237.46163,678.448477624,644.438919988,67104220.1397,1627.32209661,70675603.0954,70675603.0954,4158.35200467,4150.01479159,0.0
1.22752663242,0.917274594862,9.85714416654e-06,14568019.0583,2.71733864106e-05,0.0,15963902.9728,689.630767157,658.850103519,65125894.5907,1914.86039778,59707778.8443,66661207.067,5095.46305118,5083.63567673,0.0
1.16500265191,1.20785203521,1.01426352655e-05,-27673.6530759,1.78646285936e-05,0.0,5455821.84043,685.421516092,654.918797123,65909466.7677,1838.96003913,49872266.9092,67684954.7128,4835.92600808,4824.99073173,0.0
1.15021819297,1.26210719112,1.00536388124e-05,-5667999.34326,1.73262461066e-05,0.0,5572343.3978,684.391359257,653.895317529,66306052.8578,1823.45079359,46942860.1969,68801449.3777,4774.55571902,4764.73088796,0.0
1.10995023762,0.965552457152,9.81013106051e-06,-19733626.4514,1.79615219193e-05,0.0,5699985.35397,682.422748373,651.434721054,66673599.0753,1773.1740197,38730919.9583,68898899.9467,4607.40343636,4598.34922543,0.0
1.14370645068,1.12007404676,1.02527407923e-05,-7320710.39375,1.92260706734e-05,0.0,5589377.012,683.972786249,653.508798516,66355017.3035,1816.14263882,45939805.5302,68528507.5621,4747.52547677,4738.12378762,0.0
0.978157295716,0.976971601713,1.01663284359e-05,-94856387.6018,1.34600987806e-05,0.0,6007240.61985,680.716781848,642.940259007,67409928.0165,1609.8043058,69785635.7158,70022654.4446,4060.33093452,4053.39362733,0.0
1.16700373753,0.880559841491,1.00103504145e-05,-203688.276096,2.34804515798e-05,0.0,5444592.16556,685.836667661,655.055652273,65881822.646,1843.26330747,49766718.0363,67560175.8507,4844.23251449,4833.62613255,0.0
1.06432103947,0.948784428372,1.00123021676e-05,-36874636.99,1.50724566563e-05,0.0,5810499.88664,679.544175706,648.421485276,66959328.2904,1713.16567162,34647135.622,70126741.3316,4417.99663484,4409.56761883,0.0
1.17380337334,1.0232817477,9.87026027821e-06,1845039.10408,2.09362163039e-05,0.0,5422941.62051,686.219753141,655.465112796,65817079.9639,1850.47217063,50998921.5338,67074694.8446,4872.45780273,4861.44302022,0.0
0.980066701962,0.982795224299,1.02437911119e-05,-94692594.7858,1.3710008537e-05,0.0,5948877.15923,680.637050664,643.048740208,67232945.6166,1609.07826403,69641610.3239,69879565.3913,4068.25687984,4060.35123102,0.0
1.00117481139,0.917467330725,1.00336316281e-05,-95839569.6108,1.4341683843e-05,0.0,5898269.21342,678.337405167,644.399951801,67110710.6377,1626.5109566,70650301.7359,70650301.7359,4155.87664208,4147.54914224,0.0
1.23488555835,0.968138221462,1.01006301174e-05,16327578.998,2.74320469076e-05,0.0,17905302.4032,689.891241191,659.278425383,65000389.2156,1923.1575512,61173800.6997,66799043.7115,5126.00995271,5114.08323034,0.0
1.19613984076,0.813477379605,9.91659358588e-06,7424963.47624,2.68222020217e-05,0.0,8874432.04553,687.764002215,656.894204008,65476355.2532,1878.04268573,54162518.8317,66564118.1197,4965.17647899,4953.8767919,0.0
1.07656205879,0.881499357035,1.03684942828e-05,-29696205.1344,1.69981847699e-05,0.0,5760035.99952,680.132696828,649.300197438,66814443.2869,1729.43025923,35372856.5586,69185215.3501,4468.80910604,4460.28267946,0.0
1.08663652302,0.793168762528,9.64442856661e-06,-27892765.0515,1.80953683832e-05,0.0,5760636.86549,681.273937194,649.962672094,66831839.8522,1742.8700113,35922939.5008,69390072.5138,4510.62820706,4501.94407287,0.0
1.0740002103,1.03741606266,9.98008893388e-06,-31841284.6055,1.46686101374e-05,0.0,5793282.84978,679.987022354,648.98205363,66914132.5582,1725.60806417,35163792.5706,69620057.4122,4458.17487296,4449.59508122,0.0
1.04152411701,0.831785165196,9.81639494987e-06,-51636039.8404,1.54722259166e-05,0.0,5828377.90939,678.711185304,646.96295323,66981996.5736,1681.2816829,38309653.7827,70847360.1535,4323.36660971,4314.63255035,0.0
1.17401571059,0.949848182312,1.03793349603e-05,2715095.6715,2.29026609178e-05,0.0,5393010.59828,685.964319695,655.460562138,65701401.5818,1850.67398227,51268904.9006,66937119.2387,4873.33921466,4862.4257642,0.0
1.08864700703,0.906732828321,9.89403853895e-06,-26870158.7219,1.71272039962e-05,0.0,5755259.14446,681.148767146,650.078165204,66817116.6302,1745.60513036,36098047.4064,69320637.3639,4518.97372618,4510.35632721,0.0
1.07061445968,0.93437799882,1.00275006786e-05,-33157899.6731,1.56627134067e-05,0.0,5793239.56779,679.847653316,648.80264414,66907536.1077,1721.2417917,34932619.1142,69742554.9328,4444.12062213,4435.5925773,0.0
1.13384988674,0.953015682803,1.04600669412e-05,-10759758.14,2.13338498088e-05,0.0,5606552.0459,683.40373885,652.944245176,66404307.4029,1804.36024106,43764891.2146,67798834.4894,4706.61087986,4697.4941194,0.0
1.04105558962,0.950822030877,1.0162798152e-05,-50824767.4133,1.42660010511e-05,0.0,5836560.38699,678.319818854,646.908567112,67011494.4264,1681.43871381,37849907.9845,70860818.3073,4321.42175251,4312.95884912,0.0
0.950229690586,0.978660618168,9.87517993945e-06,-93551772.0255,1.37938066558e-05,0.0,6095313.52696,686.265066047,641.147703856,67649114.5282,1612.16265847,68637123.8448,68856731.2331,3944.40344562,3938.16853241,0.0
1.02202406799,0.956873643321,1.01139298802e-05,-68799877.2395,1.40839447947e-05,0.0,5867102.32804,677.762268568,645.7251658,67070350.102,1655.35907246,48576334.6124,70741755.6842,4242.42190623,4234.08927156,0.0
1.14139068619,0.911894289483,9.93667488255e-06,-9439628.44909,2.1085564551e-05,0.0,5554936.51395,684.148471834,653.306742468,66226148.9398,1812.08101694,44721960.9019,68086525.5452,4737.91273837,4727.83522752,0.0
1.0206988417,0.81638312421,1.03274813955e-05,-69425240.3091,1.50972364531e-05,0.0,5908774.83168,677.462487931,645.65536254,67209151.8391,1656.19474099,49030445.5399,70689037.984,4236.9208919,4229.71927598,0.0
1.17150337174,1.07836930089,1.01508853392e-05,1676993.87012,2.01870138901e-05,0.0,5431090.19296,685.865578861,655.319805809,65831829.9219,1847.63041307,50744965.8088,67096280.9038,4862.91049609,4852.04159912,0.0
0.963910671934,0.961037247849,9.98480777915e-06,-94071610.0123,1.41517125758e-05,0.0,6056586.48801,684.216609825,642.027892304,67557189.935,1615.21390641,69094893.5759,69321250.3407,4001.1931992,3994.77664062,0.0
0.961093288704,1.21951606961,1.00024442466e-05,-94004728.3998,1.18295785555e-05,0.0,6075937.92075,684.396736199,641.846552839,67612683.6109,1613.88353826,69035955.4442,69261177.8071,3989.49824141,3983.11740482,0.0
1.17595670551,0.975503244499,9.47693635964e-06,102913.165961,2.32142657272e-05,0.0,5501354.93441,686.636773511,655.64719263,66121649.1515,1857.31278368,50292617.5273,67883180.0196,4881.39628457,4871.46483369,0.0
1.11790349088,0.781954261775,1.00150446576e-05,-15096024.0111,2.12287600322e-05,0.0,5590947.78136,682.823121276,651.846436955,66319974.8336,1780.94825229,41220151.1328,68863541.0851,4640.41739064,4630.35311729,0.0
1.07038736821,0.989021785446,9.95025081419e-06,-33580396.3793,1.50039382233e-05,0.0,5800440.47003,679.882420821,648.800806627,66928189.0473,1720.89517361,34878098.8188,69866352.4099,4443.17796544,4434.65495899,0.0
0.956301040858,1.10763371123,9.85734513318e-06,-93823560.4819,1.27396463096e-05,0.0,6088575.61651,685.481210251,641.538888218,67638528.1375,1614.10986003,68876434.5204,69099327.5306,3969.6056206,3963.28925052,0.0
1.11809572066,0.989165808605,1.00281201281e-05,-15213150.4895,1.85194589608e-05,0.0,5660105.78257,682.648243566,651.876591008,66543886.7432,1783.01431724,41207481.6492,69209363.6491,4641.21533646,4631.93936283,0.0
1.07055633441,0.926102877183,9.89356644806e-06,-34544131.5558,1.56005502079e-05,0.0,5797875.71558,679.982404948,648.82196826,66920001.029,1721.34580825,34776907.8422,69937799.4085,4443.87934414,4435.35339409,0.0
1.15779573285,0.964744536113,9.72202197459e-06,-4267333.10626,2.19534410709e-05,0.0,5524456.84081,685.366996466,654.458897604,66168896.4777,1833.33289824,47757515.014,68487455.3194,4806.01008706,4795.93569118,0.0
0.954626281484,0.94924338344,1.03794632893e-05,-93577585.4715,1.37942627289e-05,0.0,6045086.24368,684.328100541,641.42240096,67501803.5159,1607.56763209,68659946.8295,68880231.6782,3962.65369444,3956.04230136,0.0
1.09868549828,1.11639316848,1.03260172068e-05,-20466298.0,1.5480527405e-05,0.0,5663614.29593,681.374387806,650.715988719,66528792.844,1755.35111196,38380148.8013,68423249.1917,4560.64350336,4550.81730748,0.0
1.10034364408,0.951406185394,1.02648565387e-05,-21983069.9325,1.78886988872e-05,0.0,5708682.8689,681.576942619,650.846170435,66685469.416,1760.8102803,37500341.6055,68478377.8934,4567.52646658,4558.72552516,0.0
1.0819071636,0.731532953667,9.70011343745e-06,-29809635.6,1.8763716678e-05,0.0,5773574.88171,680.788072962,649.515501467,66871936.3115,1736.91526519,35581554.7218,69362037.9063,4490.9966361,4482.4842783,0.0
1.08946854316,0.945755290898,1.0197568787e-05,-25649117.1355,1.69635540256e-05,0.0,5742740.90802,680.927466553,650.093897617,66784665.4915,1746.62788597,36259357.5313,69151189.0467,4522.38392266,4513.75368389,0.0
1.03876758073,0.892951561638,9.80348752924e-06,-55433422.6678,1.48520580893e-05,0.0,5891174.21138,678.482132594,646.792224329,67178950.9273,1680.40271197,40165245.4765,71113730.9968,4311.92422761,4304.46478328,0.0
1.08310218933,0.806921674652,1.03924938699e-05,-27365825.7973,1.84154976801e-05,0.0,5748059.63752,680.523838627,649.725812914,66786805.4545,1738.74063931,35848049.0236,69140363.2226,4495.95718791,4487.52330134,0.0
1.07226181184,0.778412336537,9.74775801307e-06,-33729316.145,1.74125740541e-05,0.0,5800950.40457,680.217542892,648.927679209,66938871.563,1724.20775602,34820219.8871,69979819.181,4450.95878095,4442.59582615,0.0
1.03546498168,0.871856591025,9.97123660231e-06,-57141229.1914,1.50010230555e-05,0.0,5844297.82787,678.32514772,646.579301151,67022039.2196,1673.70265647,41023342.4459,71001039.1341,4298.21513895,4289.75284081,0.0
1.13259587395,1.13478259843,1.03067629728e-05,-11016373.6709,1.77901312175e-05,0.0,5585114.88707,683.275250247,652.763722838,66319120.5283,1800.38220545,43657127.436,67676168.6753,4701.40547277,4691.48592258,0.0
1.10798173842,0.691410980922,9.94447900585e-06,-18019979.1565,2.17168550342e-05,0.0,5618669.09352,682.398475479,651.283065901,66401022.8361,1768.287683,39604653.5188,68812837.0965,4599.23219618,4589.3403148,0.0
1.08778840116,1.06146325507,1.01812557297e-05,-26307791.4305,1.54192774876e-05,0.0,5756403.17214,680.814483278,650.008246687,66824099.2275,1744.3309222,36112042.9108,69227912.521,4515.40965322,4506.80566503,0.0
1.0464683773,0.930381794957,9.84399004052e-06,-48223629.7093,1.46192753153e-05,0.0,5861736.56797,678.760614484,647.291648706,67089407.4278,1689.59261521,36907314.6849,70725517.796,4343.89023417,4335.9491823,0.0
1.09045565311,0.871296373394,1.01659370853e-05,-25399882.3962,1.79005739052e-05,0.0,5735943.5963,681.027028429,650.147524218,66764791.372,1747.97719819,36337404.6252,69115859.0976,4526.48141606,4517.8357394,0.0
1.04053496689,1.01979343129,1.04998266829e-05,-49951209.2069,1.40297095779e-05,0.0,5811369.09637,678.025386535,646.892539824,66934330.3202,1679.75780554,37531995.5713,70704010.2222,4319.26064756,4310.54312328,0.0
1.18172845787,1.05079989662,1.01031613902e-05,4438081.63887,2.13726620633e-05,0.0,6163801.66265,686.4766658,655.931116635,65793446.5715,1860.85497683,52386024.4037,67075069.767,4905.35482862,4894.6277492,0.0
1.10358782009,1.05009583554,1.01570762968e-05,-21339108.2247,1.68116126725e-05,0.0,5711379.97807,681.790240391,651.046146496,66697550.0366,1764.95004566,37824973.9034,68652487.1384,4580.99304119,4572.140913,0.0
1.14103680222,0.908955756931,1.01311468381e-05,-9162458.37718,2.18389558155e-05,0.0,5559424.12352,684.081993096,653.353728862,66264276.3184,1812.26816254,44788582.534,68122484.4963,4736.44376602,4726.66227539,0.0
1.0791519528,0.895123535376,1.00230512859e-05,-29810718.949,1.66497526995e-05,0.0,5775222.37586,680.512910823,649.465168238,66865923.1779,1733.16820209,35487686.2024,69302430.3215,4479.55975607,4471.09018631,0.0
1.08543163914,1.03378007754,1.00979528925e-05,-27358411.6184,1.5541307759e-05,0.0,5764520.1822,680.769025995,649.875241226,66843838.0221,1741.27934709,35902168.5699,69292701.9605,4505.62673407,4497.05951279,0.0
1.14997143951,1.09400712747,9.84059417121e-06,-7352019.12505,1.89073897301e-05,0.0,5546786.90612,684.605325216,653.84203795,66212564.1405,1822.74210047,45909589.3508,68698902.4569,4773.53144541,4763.30724582,0.0
1.11599395556,0.847763959085,9.83128329983e-06,-16034119.7782,1.9829575715e-05,0.0,5667051.92338,682.723469989,651.759319418,66572150.5517,1780.53847008,40787305.4368,69364490.945,4632.49090953,4623.24892222,0.0
1.0201859409,0.801358841653,9.64968799577e-06,-74938280.5009,1.51702595446e-05,0.0,5940659.37566,678.152573525,645.63382537,67292399.6781,1655.63199665,53190480.6593,72004118.9434,4234.79184068,4227.59723634,0.0
1.09222581167,0.971814986585,9.8108637837e-06,-25680876.5826,1.65208851569e-05,0.0,5756079.49128,681.344982118,650.273131446,66821907.4166,1750.3693869,36390926.8403,69348731.1311,4533.82934424,4525.15584559,0.0
1.1760401643,0.767163427957,9.91358234277e-06,2351638.65581,2.612605153e-05,0.0,5377420.51881,686.534085192,655.595467744,65680752.8916,1853.7414437,51174715.4988,66919099.436,4881.74272201,4870.68635607,0.0
0.98730925996,0.612103123451,9.54879136226e-06,-95133148.9485,1.73728888222e-05,0.0,5986640.10753,681.746929652,643.531539262,67360368.2003,1621.03086156,70029322.4691,70270741.5833,4098.32073809,4091.24459992,0.0
1.21562177935,0.861345548747,1.04982235277e-05,12696901.7098,2.84481383687e-05,0.0,13931939.0455,688.598742387,658.072013075,65050942.9953,1899.74821026,58029621.4588,66292618.5314,5046.04600608,5034.17209697,0.0
1.12658826357,0.840697603816,1.00277550687e-05,-13138818.5237,2.18197433355e-05,0.0,5641496.45564,683.246832032,652.459117833,66509945.4268,1795.14865087,42485382.5355,68158826.0311,4676.46788208,4667.4675048,0.0
1.05652990307,0.907164953224,9.65881575169e-06,-44435094.0647,1.53382195356e-05,0.0,5802340.35088,679.509446331,647.908915208,66920884.4034,1701.1250894,35681353.4923,70417855.4014,4385.65562764,4376.67263917,0.0
1.01753666308,1.0132188412,1.0063632708e-05,-74268950.1897,1.33619768118e-05,0.0,5933616.29831,677.63563632,645.458390568,67266845.7735,1651.67012744,52667082.0499,71851674.1673,4223.79468845,4216.54896877,0.0
1.09618605758,0.937851634228,9.95144198279e-06,-24164298.2456,1.74335972234e-05,0.0,5733734.10421,681.504256893,650.536836255,66762977.3791,1755.42502801,36775217.9721,69081316.1047,4550.26832501,4541.53274324,0.0
1.03752569038,0.881126103884,9.96796366083e-06,-53703466.8416,1.48719483633e-05,0.0,5834869.12563,678.38067909,646.696467224,66995836.8671,1675.9474385,39200636.8346,71194923.7932,4306.76914077,4298.10056938,0.0
1.08650207988,1.05723260932,1.03033322234e-05,-26547252.5065,1.5591760583e-05,0.0,5759232.22268,680.667990768,649.933907268,66823733.6512,1743.01308615,36078488.9972,69208172.6568,4510.07013358,4501.58377161,0.0
1.04710519138,1.04116276448,9.85231798507e-06,-47431654.9202,1.36085750857e-05,0.0,5834389.97642,678.804907464,647.319923508,67002076.2906,1688.7147591,36643303.7867,70557698.4652,4346.53364942,4337.85322286,0.0
1.08504640487,1.0358128961,9.83540513627e-06,-28327921.376,1.532109921e-05,0.0,5776781.8846,680.945101388,649.863745581,66877177.9489,1740.7859266,35835553.1369,69377482.5202,4504.02762662,4495.46640909,0.0
1.1618183567,0.940427949873,9.91803498247e-06,-2455942.19236,2.15599821933e-05,0.0,5449143.77143,685.577351999,654.729491588,65915258.8514,1835.90972921,48433036.8598,67718658.8006,4822.70799866,4811.80171245,0.0
1.13214139564,0.900920541846,9.7183331647e-06,-12912352.0934,2.09795298735e-05,0.0,5551605.84047,683.928229461,652.795131356,66231531.812,1799.14734157,42565985.246,67454248.2951,4699.5189333,4689.07181823,0.0
1.13901188052,0.904287281114,9.99147869615e-06,-10158512.2464,2.19908747609e-05,0.0,5607621.23935,684.045870193,653.277287058,66404033.934,1811.19748263,44262952.1891,67985763.949,4728.03831604,4718.81475978,0.0
1.00131059425,0.821612264025,1.00014645105e-05,-95820586.2044,1.51152260146e-05,0.0,5893933.49991,678.425830804,644.408367395,67096998.8386,1626.74087352,70633584.9676,70661838.4123,4156.44027673,4148.11056561,0.0
1.05628713502,0.881394714279,9.85691407823e-06,-42271491.7857,1.54283948049e-05,0.0,5812651.8777,679.292816953,647.886679561,66951177.8856,1701.66921903,35179876.9695,70389826.8207,4384.64789747,4375.99677332,0.0
0.912551500969,0.968092788543,9.82755756098e-06,-91799698.4969,1.35316956434e-05,0.0,6134202.34704,691.535853939,638.706384354,67691264.5058,1600.65406556,67094949.498,67691264.5058,3788.00128052,3781.41633394,0.0
1.09054706979,0.858346303024,1.02973454664e-05,-25151347.3044,1.82864377581e-05,0.0,5734486.00227,680.944783457,650.151580579,66754021.7435,1748.46156399,36402258.0248,69086508.9328,4526.8608867,4518.31191836,0.0
1.04273944336,1.15747998656,1.03367416822e-05,-48557102.7985,1.25444210183e-05,0.0,5829832.27826,678.207301582,647.042696313,66991598.9874,1682.97750118,36888785.1619,70792152.3048,4328.41142939,4319.74512503,0.0
0.955702361157,1.08036752349,9.67836157232e-06,-93877205.1417,1.2762308946e-05,0.0,6071276.49413,685.715302323,641.494098957,67561308.5062,1611.88511331,68923538.0854,69147311.0603,3967.12050116,3960.25781377,0.0
1.14826559683,0.991775430891,9.99048689928e-06,-7635792.2434,2.14489711915e-05,0.0,5583078.23757,684.535203673,653.83255345,66343517.5605,1822.83695606,45639648.2597,68580866.8206,4766.45049244,4757.07913171,0.0
1.03205807718,0.825246243598,1.02337306697e-05,-57362452.4538,1.52018429149e-05,0.0,5837923.46554,677.956023212,646.352526898,66999220.9464,1669.01492079,41102108.9991,70941068.031,4284.07307837,4275.57866245,0.0
1.15029875598,0.905618506044,9.69743718153e-06,-6155257.63772,2.21917983487e-05,0.0,5548898.51965,684.91364958,653.968950153,66237910.7626,1823.8771428,46817529.3225,68800957.7149,4774.89013607,4764.97033769,0.0
1.24445887954,1.09233514571,9.8206600993e-06,18221967.9967,2.51649054013e-05,0.0,19794005.6986,690.585673197,659.867441634,64886885.3146,1933.29167545,62623485.5903,67042039.2385,5165.74880897,5153.3259281,0.0
1.03771130474,1.01888041633,9.91504935543e-06,-55851541.0786,1.37283259506e-05,0.0,5850001.35509,678.415204079,646.730298599,67043758.9095,1676.55040465,40320284.719,71115561.4768,4307.53962598,4299.04258564,0.0
1.09335528715,0.704867566013,1.00221564206e-05,-24821675.503,2.04684232897e-05,0.0,5720757.42117,681.374439839,650.330229315,66719776.6199,1751.93104731,36514814.7769,69060538.18,4538.51779696,4529.82670627,0.0
1.25994643937,0.734917414687,9.96071984125e-06,21560093.4061,3.552721536e-05,0.0,23438049.0708,691.826142296,660.843825958,64481941.6669,1951.67358136,65171876.0357,65967710.0367,5230.03766982,5217.44319367,0.0
1.14753442078,0.861866764587,1.00060214134e-05,-7400814.48876,2.29874293793e-05,0.0,5518698.18465,684.503780203,653.679875844,66130168.2128,1819.76644737,45734540.4844,68546798.8733,4763.41538066,4753.21600613,0.0
1.01247609557,1.06067841948,1.03102949732e-05,-76392558.7263,1.28204020423e-05,0.0,5908251.64767,677.354700658,645.110085669,67161252.7504,1643.4429418,54305222.4656,70534200.9076,4202.78827271,4195.00085307,0.0
1.04165088108,0.797886852012,1.01472627766e-05,-49956992.3058,1.58562918519e-05,0.0,5817366.08908,678.426113738,646.943834219,66947087.3337,1681.77502,37529935.5386,70890684.0261,4323.89280736,4315.24422304,0.0
1.0410447742,0.850352010907,9.98022862032e-06,-52465857.3583,1.53991135285e-05,0.0,5829814.52744,678.556518706,646.935729656,66985118.9974,1681.10766244,38608588.1685,70931488.451,4321.3768577,4312.82611782,0.0
1.03486773214,1.06132733764,9.98362507687e-06,-57335556.4864,1.31112666028e-05,0.0,5871604.38882,678.178246864,646.546749939,67101561.7996,1673.5000536,41150697.8512,71088035.4091,4295.73595611,4287.60310037,0.0
1.20723774698,1.18784062375,1.01876737139e-05,10271999.4409,2.11396764075e-05,0.0,11569340.1729,687.95275687,657.48878468,65318973.9259,1889.1894589,56174354.2751,66881536.2946,5011.24388771,4999.30509388,0.0
1.10748833944,0.998160903367,9.766120381e-06,-18947412.3699,1.69841195464e-05,0.0,5690934.08307,682.289442887,651.278964291,66627766.39,1768.76977341,39343019.0639,68802526.0433,4597.18409702,4587.78361434,0.0
1.09625525159,1.32235098823,1.00250906031e-05,-24018988.7194,1.32601066912e-05,0.0,5755004.94371,681.314016094,650.547118072,66829823.0174,1755.22145304,36842015.078,69122926.4269,4550.55554935,4541.81894222,0.0
1.05491094599,0.763100478149,9.84931271377e-06,-44320638.9379,1.68811555879e-05,0.0,5789039.22864,679.341849691,647.803831175,66879927.082,1699.15194123,35599134.3637,70307700.0355,4378.9353368,4369.97919072,0.0
0.983607193284,1.03190619504,9.95968171802e-06,-94942266.0344,1.32336429822e-05,0.0,5950221.36882,680.685186166,643.276322459,67243997.7559,1611.21615256,69861484.6605,70103006.7068,4082.95345932,4074.91025058,0.0
1.09592681996,0.893462194725,9.88328559443e-06,-24214400.2693,1.77898840199e-05,0.0,5736799.00191,681.537007952,650.508888726,66769251.6445,1755.2668873,36755369.8182,69136178.961,4549.19222965,4540.46067168,0.0
1.0358086098,0.829621736252,1.00101271933e-05,-56225128.6074,1.53446306139e-05,0.0,5887810.90375,678.222812396,646.624415064,67165268.5774,1676.53092118,40586969.4946,71000674.0,4299.64153928,4292.22333014,0.0
1.01580364666,0.989848495069,1.02186545689e-05,-77499537.8125,1.38627969331e-05,0.0,5859791.07265,677.585197485,645.32594909,67030502.3278,1646.03686261,55172167.7988,70547827.045,4216.60093729,4208.03405351,0.0
1.08454504507,0.911475495157,1.02045652028e-05,-27306881.2537,1.69756324864e-05,0.0,5753822.48313,680.69479727,649.817204433,66811781.4066,1740.2098434,35876767.5216,69224031.2797,4501.94648209,4493.3930755,0.0
1.05174853877,1.07922639931,9.83563388054e-06,-46095638.7187,1.339757296e-05,0.0,5819745.28783,679.06200608,647.61273902,66969798.0537,1694.68379037,36163017.5457,70607462.6148,4365.80818443,4356.90576673,0.0
1.07942302505,0.946419058501,1.0428234983e-05,-28550979.2804,1.64567218674e-05,0.0,5765538.02426,680.240527585,649.502018535,66833482.7239,1733.80349414,35595151.7908,69167203.6393,4480.68497698,4472.30772524,0.0
1.00307290107,1.11681139012,9.59168693696e-06,-95942823.738,1.2475480939e-05,0.0,5920361.21271,678.885686077,644.523905632,67175144.8804,1628.56350366,70742063.6278,70810378.8628,4163.75561234,4155.31634783,0.0
1.10232719989,0.788731114971,1.00157538031e-05,-21764830.0589,1.99194445291e-05,0.0,5703481.33521,681.942402731,650.974501022,66665693.8242,1763.71994611,37617290.2759,68508007.8967,4575.76020674,4566.92710629,0.0
1.10810676584,1.06037760627,9.867847744e-06,-18409867.6927,1.63573702541e-05,0.0,5682903.40073,682.223638317,651.307341235,66601927.1357,1769.20329963,39520856.58,68898174.9601,4599.751185,4590.24348698,0.0
0.994113529452,1.07710027351,9.94955072519e-06,-95393698.1634,1.28376280301e-05,0.0,5929787.74893,679.163523172,643.951860332,67194740.0857,1616.94744124,70258897.3479,70497824.4422,4126.56526076,4118.3524306,0.0
1.04737705782,1.06038222269,1.0162639495e-05,-47205865.845,1.36505464487e-05,0.0,5821595.91264,678.608960629,647.33423527,66977195.197,1689.39219101,36444206.2283,70247002.0389,4347.66216701,4339.00904261,0.0
1.14037642168,0.848980633023,1.05721851436e-05,-6609641.54458,2.18931000282e-05,0.0,5532463.89975,683.568248903,653.187804989,66121922.3486,1810.17275235,46051364.401,68490192.631,4733.70252639,4723.72023175,0.0
1.17192990077,1.06849422876,1.01330221023e-05,1742212.91082,2.03589684798e-05,0.0,5429215.11987,685.908092861,655.345270231,65826136.8755,1848.18102915,50794259.1101,67086439.9938,4864.6810181,4853.80456213,0.0
1.10061796809,0.889248265369,1.06227132142e-05,-19468814.6542,1.86933158208e-05,0.0,5623853.91848,681.400312752,650.8177868,66399645.7836,1758.2816974,38799409.9748,68457642.6538,4568.66518554,4558.80558095,0.0
1.19686207469,0.829943102623,9.93722442143e-06,7571969.78044,2.65258684932e-05,0.0,9018789.85065,687.777279276,656.935165755,65472782.6085,1878.85728133,54277037.1358,66566209.3913,4968.17447204,4956.86179266,0.0
1.13617511136,1.12481821103,9.88263042903e-06,-9771309.88976,1.78900057485e-05,0.0,5608016.61987,683.832702931,653.083782242,66401987.786,1805.56169027,44729516.2161,67954504.097,4716.26288726,4706.56590816,0.0
1.17350633981,0.953703492299,9.79319323588e-06,1722146.18593,2.21611773964e-05,0.0,5451761.19146,686.257674076,655.461100332,65927369.6912,1851.38020268,51056858.8723,67476768.7559,4871.22481655,4860.63807847,0.0
1.10507514437,0.864098286109,1.00809321863e-05,-21019140.7831,1.92446298702e-05,0.0,5695950.97287,682.012294997,651.137562686,66651148.7205,1767.07235793,37946940.4122,68668061.8916,4587.16692428,4578.29064674,0.0
1.00912170432,0.982994485892,9.73311618759e-06,-87653040.3685,1.34756208296e-05,0.0,5973183.5057,678.055527894,644.931315112,67355782.1859,1640.65447116,63558028.1613,71017177.6124,4188.86419463,4181.82618302,0.0
1.03673575162,1.05460612976,9.71530400807e-06,-57362913.8116,1.3266484308e-05,0.0,5908044.88096,678.452768587,646.685427925,67228578.4769,1677.57865482,41271860.4813,71158049.2222,4303.49010497,4296.0599732,0.0
1.21279913379,0.811456331727,9.98718119887e-06,11395523.8135,2.86150565233e-05,0.0,12686821.65,688.733531567,657.861260303,65132356.6065,1896.94116011,57049360.048,66223648.9722,5034.32920436,5022.36798587,0.0
1.12497316981,0.929386934499,1.01977954541e-05,-12101712.0724,1.92289808757e-05,0.0,5605820.49384,683.014447039,652.331104991,66357414.5285,1790.81729249,43059218.3951,67532163.0163,4669.76362788,4660.01187344,0.0
1.06418850786,0.847123865319,1.00163167085e-05,-36899517.7614,1.61603420661e-05,0.0,5804236.84174,679.575011577,648.412709453,66939919.6288,1713.06217854,34637712.4251,70099814.4023,4417.44649613,4409.01880622,0.0
1.03675471642,0.93263605816,9.93059904951e-06,-56484975.0499,1.44894985373e-05,0.0,5846597.07207,678.393864926,646.666639167,67030920.7986,1675.36153241,40652016.8142,71021962.9571,4303.56882786,4295.08580239,0.0
1.05283780933,1.20002141857,1.01533334819e-05,-42372875.6482,1.2495339357e-05,0.0,5818520.10313,678.74031312,647.659471213,66969356.1709,1696.10946558,35220282.3145,70274270.9167,4370.32974653,4361.55620876,0.0
1.03860269438,0.847721512852,9.89371190931e-06,-53175760.8197,1.52145544941e-05,0.0,5833413.28235,678.493686526,646.758336776,66991949.9586,1677.40260583,38883768.7976,71166688.3854,4311.23978437,4302.55359284,0.0
1.0822909026,0.9103415221,9.69350016583e-06,-29678824.3916,1.64696919372e-05,0.0,5785494.33634,680.737626947,649.541626993,66908851.4094,1737.27895964,35639362.7222,69405092.4178,4492.58953669,4484.07121246,0.0
1.13843574222,0.875680130814,9.55610323267e-06,-10609282.9659,2.14827161756e-05,0.0,5601522.65777,684.331928893,653.233458975,66384929.4968,1809.40419721,44139252.6393,67828421.5733,4725.64676596,4716.01391694,0.0
1.05163403366,0.971104171675,1.00068545133e-05,-43016019.5646,1.43492746537e-05,0.0,5828844.84044,679.007406075,647.688372704,66993094.66,1695.66314169,35367882.201,70573364.6552,4365.33287372,4356.91982519,0.0
1.09049445154,0.920812237283,1.00997121758e-05,-25578072.9606,1.72613195073e-05,0.0,5743014.07327,681.062936599,650.157407003,66783467.0177,1747.99908182,36282457.1783,69183946.3142,4526.64246834,4517.99618467,0.0
1.09975467227,0.799799163555,9.77606439563e-06,-22846817.0368,1.88676327529e-05,0.0,5696851.86018,681.954841826,650.78436792,66637692.1567,1759.11760929,37353448.6236,69157294.6273,4565.08164459,4555.7991145,0.0
1.22406899909,1.10519150953,9.97390652932e-06,13541374.0076,2.35467394623e-05,0.0,14846869.7265,689.258725534,658.613981664,65112184.2825,1909.58543363,58894145.7405,66524704.5844,5081.11041522,5068.93167154,0.0
1.1079878973,0.875038681033,9.99165336688e-06,-17982429.8074,1.88474843196e-05,0.0,5636361.59444,682.244124043,651.282079712,66456503.2274,1768.03534533,39635829.8936,68876008.9356,4599.25776169,4589.36489031,0.0
1.03051562406,0.723053781999,9.91484374545e-06,-60193441.2164,1.61051838175e-05,0.0,5899803.81147,678.15206881,646.289099295,67194563.2618,1669.49620199,42864149.8251,70924072.0896,4277.67035547,4270.32823007,0.0
1.07402347448,1.01829359112,1.03157150994e-05,-30880579.3834,1.52285947291e-05,0.0,5778064.57304,679.948359427,649.119693083,66865263.095,1725.9958134,35209444.7757,69275646.1984,4458.27144257,4449.78465326,0.0
1.05341709898,1.03814676947,1.0335362785e-05,-43119318.2245,1.3984384847e-05,0.0,5805783.63741,678.756129049,647.705765066,66929870.7071,1697.79159602,35307113.4461,70365673.8821,4372.73437787,4364.07258974,0.0
1.0347573985,0.86792196249,9.88158178387e-06,-57490434.7811,1.49432671198e-05,0.0,5894459.60295,678.391172928,646.630356837,67184574.5083,1675.08872737,41269347.699,71076044.9427,4295.27796117,4287.87488913,0.0
1.07047292767,1.07442755012,1.01222611065e-05,-32903786.0146,1.41489288222e-05,0.0,5799042.88081,679.704346077,648.78498815,66926955.2717,1720.95016746,34980567.5539,69701643.2161,4443.53312276,4435.00730003,0.0
1.06487304954,0.83322078332,1.04579802691e-05,-34440272.2178,1.67428178958e-05,0.0,5788409.28361,679.276241767,648.461007645,66894021.8251,1714.07837842,34677322.0298,69786167.6677,4420.28802864,4411.94348449,0.0
1.01566892551,0.934792509935,1.01544852886e-05,-75565269.7814,1.39486348947e-05,0.0,5931591.74503,677.53262681,645.345125665,67254724.9868,1649.23384012,53660558.9072,70724839.2161,4216.04170979,4208.82273898,0.0
1.02478080272,0.908442105263,1.00882317287e-05,-66454807.2299,1.45504067201e-05,0.0,5858938.52306,677.865216222,645.898437269,67051975.6096,1659.07421616,46910277.0338,70950733.1206,4253.86511209,4245.48824269,0.0
1.07304652345,1.08803569512,9.54367851183e-06,-32962195.6928,1.36480797322e-05,0.0,5809955.12056,680.2710956,648.966930742,66956652.2201,1723.70871507,35033197.2124,69981227.5384,4454.21611884,4445.46312382,0.0
1.13800614985,0.899776818599,1.02114293425e-05,-9603474.17686,2.16463102641e-05,0.0,5538611.67333,683.901629733,653.173530869,66175329.3736,1807.30764729,44466578.6662,67946747.8672,4723.86352803,4713.74956875,0.0
1.02155179055,0.953249614052,1.0122004998e-05,-69166003.7035,1.41018601711e-05,0.0,5867717.45805,677.74519682,645.695279914,67071191.4949,1654.73163334,48841218.9266,70705047.0001,4240.46148257,4232.13641656,0.0
1.16551750053,0.91502848177,9.95049307077e-06,-86058.5651371,2.23476702278e-05,0.0,5429235.53747,685.763793264,654.953271139,65841047.7197,1840.08366873,49918895.7282,67697146.3727,4838.0631447,4827.09282173,0.0
1.03433401478,1.12710465669,1.01598985258e-05,-55935774.7086,1.25585253338e-05,0.0,5853874.28241,678.005158079,646.506971294,67051618.5461,1671.83163785,40333730.1725,70922299.2335,4293.52049535,4284.98927952,0.0
1.10013528608,0.844219656031,9.90770575557e-06,-22768813.8317,1.88204389148e-05,0.0,5719454.04288,681.849208175,650.826925769,66723418.4945,1760.81220126,37262703.3651,68905196.5397,4566.66157252,4557.86380239,0.0
1.19232114629,1.18180721282,9.78489037051e-06,5770714.7135,1.96050222582e-05,0.0,7360324.27436,687.323688689,656.60968106,65654257.0052,1872.72872001,53237624.8586,66876864.1217,4949.32507825,4937.87506322,0.0
1.10727472014,1.23312551449,1.00009545164e-05,-20478678.0432,1.4759469591e-05,0.0,5722313.88155,682.029271054,651.272125861,66733010.5367,1769.75770141,38275555.0107,68848374.6394,4596.2973633,4587.3868017,0.0
1.20829457697,0.821898798189,9.79151368592e-06,10218130.2969,2.76333614973e-05,0.0,11553432.4668,688.527845929,657.568258108,65263493.3459,1891.83289631,56156875.0217,66971564.8691,5015.630789,5003.77375809,0.0
1.2236018038,1.00467654629,1.00444289389e-05,13573835.2769,2.55408428991e-05,0.0,14878153.2946,689.264803917,658.584229394,65070340.9289,1909.15800763,58890675.7229,66477594.7688,5079.17108757,5067.0287423,0.0
0.969189729388,0.825663745814,9.87902264715e-06,-94242872.8074,1.51981553228e-05,0.0,6025690.92994,683.784093882,642.362965795,67460121.354,1616.20207939,69245578.1366,69476207.8107,4023.10656669,4016.2389602,0.0
1.08536530641,0.974460712326,1.06062795527e-05,-25725911.3809,1.65763543763e-05,0.0,5726685.47936,680.400455937,649.831243989,66710484.9273,1740.53015442,36071277.146,68842513.1325,4505.35138691,4496.59196164,0.0
1.14910118321,0.858696610465,9.80734610769e-06,-7424508.93875,2.29710221049e-05,0.0,5519670.76645,684.846716764,653.869961966,66129299.6958,1821.86049559,45830428.867,68596339.2557,4769.9190115,4759.69110713,0.0
1.10752805593,0.860746996079,1.0096514932e-05,-18023770.7051,1.90672761001e-05,0.0,5637191.54724,682.147348442,651.254187582,66450787.7114,1767.66159969,39538220.3468,68859478.3471,4597.34896017,4587.56087708,0.0
1.17334175273,1.02782148656,9.61149713926e-06,963301.158037,2.06119458863e-05,0.0,5423678.29717,686.376602161,655.444720833,65839563.978,1849.73342408,50581238.1702,67676777.7122,4870.54161558,4859.33798807,0.0
1.20722520287,0.946592464285,9.97819789551e-06,10278170.0233,2.52373647586e-05,0.0,11599463.5139,688.25729913,657.494287697,65244439.1652,1889.75742459,56191742.8085,66960200.4283,5011.19181711,4999.22600337,0.0
1.21251638402,1.04871583108,1.00342514617e-05,11257785.3889,2.37158435028e-05,0.0,12527420.8577,688.485664623,657.842511501,65242284.7667,1896.09411562,56982201.4816,66329794.3511,5033.15551007,5021.19955944,0.0
1.13039975924,0.835172659678,9.8824633072e-06,-11727247.8856,2.14375093861e-05,0.0,5584434.76396,683.650927109,652.694333914,66319787.2699,1797.93915979,43230201.6723,67375506.9594,4692.28940061,4682.40737687,0.0
1.02916597667,0.92907350825,1.03215908834e-05,-60657466.7292,1.44580268054e-05,0.0,5841969.59023,677.765721366,646.17857682,67007174.7521,1664.95652131,43065494.1315,70801742.5011,4272.06796916,4263.6205396,0.0
1.20732774252,1.01057329596,1.02518837678e-05,10745626.0226,2.41796742457e-05,0.0,12059594.5402,687.982203825,657.494449214,65351043.3206,1890.44895495,56569524.4214,66749474.6297,5011.6174592,5000.11554729,0.0
1.17222647963,1.03060005569,9.63942301905e-06,748097.207006,2.05201642403e-05,0.0,5426063.6495,686.290519258,655.373819111,65845523.6848,1848.30216775,50445197.1652,67704411.1357,4865.91211694,4854.71574377,0.0
1.09848480281,1.03437856229,1.02908113202e-05,-20633319.8497,1.64736801614e-05,0.0,5658470.95552,681.431084091,650.703007883,66512129.9122,1755.17708407,38341494.163,68373707.4978,4559.81041646,4549.98828546,0.0
0.979858728249,1.05023307037,1.02024236937e-05,-94707907.0401,1.30996705519e-05,0.0,5955388.68027,680.742276214,643.035777735,67251885.1651,1609.37058132,69655173.5978,69893113.5584,4067.39358096,4059.49123436,0.0
1.06291092928,0.597364941677,9.71736964807e-06,-38642774.6332,1.89630693965e-05,0.0,5801529.35457,679.844558469,648.332198124,66923856.8018,1711.51931297,34746878.3722,69972592.8729,4412.14326744,4403.73552944,0.0
1.24363906774,1.10272074522,9.93781871944e-06,18125628.9178,2.50701382579e-05,0.0,19767551.6028,690.451929825,659.816716862,64920137.777,1932.42131832,62580451.726,67037283.713,5162.34577019,5150.04906896,0.0
1.10955384754,1.14493919116,9.6481116559e-06,-19081236.9237,1.55349724938e-05,0.0,5650207.92773,682.466127081,651.386370747,66498045.5517,1769.24764831,39310722.3864,68894466.588,4605.75802114,4595.55259429,0.0
1.25167751024,0.965412676274,9.77580048174e-06,19749785.6183,2.85650703211e-05,0.0,21508208.7204,691.153917361,660.313551345,64777751.7196,1942.27198562,63839963.4,64810656.7501,5195.71334501,5183.32432205,0.0
1.08956113537,0.915870927576,9.99280587217e-06,-26242100.0614,1.71646891348e-05,0.0,5749155.13621,681.108068962,650.118287753,66801875.5056,1746.78603691,36184729.7118,69267184.8819,4522.76827292,4514.13658654,0.0
1.11281060726,1.00758876448,9.44963457992e-06,-17723514.6694,1.70789460343e-05,0.0,5677204.83001,682.810690563,651.601354815,66591520.267,1775.23512045,39871844.2071,69151087.5836,4619.27683074,4609.59259442,0.0
1.09585075579,1.00086968273,9.61700460231e-06,-24887940.1036,1.6279944692e-05,0.0,5750933.27195,681.663765565,650.490564308,66815909.3266,1754.7622184,36652758.7563,69292403.4734,4548.87648728,4540.0476883,0.0
1.02485034976,0.742516418891,9.69124164756e-06,-68851620.3143,1.57932030803e-05,0.0,5923921.36209,678.20913153,645.930283141,67253648.6911,1661.88671326,48646855.4757,71009077.4072,4254.15380185,4246.89274172,0.0
1.03796348128,0.940631887224,9.92620370529e-06,-55541824.9804,1.44539589731e-05,0.0,5844308.57574,678.44394537,646.744208942,67027009.6807,1676.94239267,40149845.3211,71116542.8686,4308.58641079,4300.08531288,0.0
1.07610120654,0.773797365047,1.00392560435e-05,-30808254.7301,1.79681371594e-05,0.0,5766998.49221,680.187094244,649.1254064,66838821.982,1728.58558159,35331096.9917,69287878.2691,4466.89610835,4458.2832232,0.0
1.17197461079,0.855919321725,1.01590052457e-05,1703295.21443,2.42738801372e-05,0.0,5384176.06725,686.072507449,655.338113522,65697149.4046,1848.10578763,50631343.467,66936688.1533,4864.86660939,4853.778705,0.0
1.0197702661,0.847327835751,9.79461453935e-06,-74054820.4897,1.47267810489e-05,0.0,5938277.57767,677.972266171,645.599196091,67284050.5758,1655.0860395,52501492.0496,70893888.2438,4233.06637458,4225.8776799,0.0
1.11166435507,1.0844184335,1.01730812112e-05,-16817308.1413,1.67368872753e-05,0.0,5630947.47092,682.194816747,651.479049794,66437857.1447,1772.38066026,40394058.4236,69160308.6014,4614.5187379,4604.56257019,0.0
0.936211719121,0.908027629034,9.91499231782e-06,-92977433.8022,1.38616104123e-05,0.0,6124484.89198,687.961601557,640.244253225,67712170.3441,1607.19697214,68131468.136,68344214.1436,3886.21484607,3880.1662498,0.0
1.09261173594,1.11650569498,9.91226091515e-06,-25506359.0441,1.49405553379e-05,0.0,5758483.83156,681.220069728,650.285388888,66833645.7567,1750.61204903,36419600.8649,69283990.6139,4535.43131589,4526.75181848,0.0
1.27081503278,0.821543171896,1.0323562452e-05,23630169.4347,3.51433742976e-05,0.0,25407121.0128,692.269337559,661.522379316,64225549.9408,1962.39590223,66589320.8536,67491876.1486,5275.15320107,5262.2284739,0.0
1.16532161038,0.898933015672,1.03085591275e-05,616548.68194,2.30442962394e-05,0.0,5442155.53213,685.493296415,654.944920843,65853606.502,1840.66899134,50109170.7345,67475844.3856,4837.25000469,4826.71253269,0.0
1.0969217328,0.885863062514,1.01051789673e-05,-23456121.3466,1.82270068778e-05,0.0,5720928.43018,681.489878694,650.60676212,66712900.5633,1756.41801727,36964615.8465,68981509.2801,4553.32211285,4544.57503123,0.0
1.1669814877,1.10655623641,1.03146636e-05,-827239.365758,2.08147123092e-05,0.0,5400988.83389,685.592608524,655.034416505,65749385.0011,1841.39580235,49061620.4075,67388636.473,4844.14015544,4832.89499084,0.0
1.16655629867,1.15553835442,9.82152583755e-06,-172132.013866,1.83698474994e-05,0.0,5459934.11179,685.746371914,655.02136233,65933714.3185,1841.1368544,49969409.1342,67846784.8202,4842.37519578,4831.38624084,0.0
1.03219160133,1.15446140013,9.76759425277e-06,-60029084.1972,1.2290161668e-05,0.0,5922499.16428,678.209602925,646.397970295,67265244.2999,1671.47031038,42820055.9145,71098115.3105,4284.62733712,4277.26115654,0.0
1.0132091769,1.04260818082,9.96089786531e-06,-80382764.7341,1.29323496097e-05,0.0,5957297.00169,677.669139959,645.171982495,67316885.379,1646.18052561,57504442.1971,70774722.3502,4205.83129331,4198.73560295,0.0
1.02804814685,0.694567021589,9.9991473954e-06,-61736934.9084,1.62419439413e-05,0.0,5900827.52916,678.005059514,646.130354363,67193185.7393,1666.23642442,43751718.7345,70947644.6255,4267.42785757,4260.12108676,0.0
0.933229240533,1.14646874889,1.03307068815e-05,-92507994.7559,1.20966308958e-05,0.0,6057767.43939,687.59334482,640.03093329,67497366.8805,1601.51987497,67718622.0864,67927710.6256,3873.83457745,3866.65489468,0.0
1.14755532745,0.898835507225,9.84026142259e-06,-7871834.96471,2.21700243421e-05,0.0,5531009.95874,684.55808074,653.65919598,66163106.0054,1819.84056883,45632439.5393,68541560.7825,4763.50216425,4753.30081966,0.0
1.04425455269,0.737754046281,1.01135567744e-05,-48902590.564,1.66545346984e-05,0.0,5810478.78982,678.633454318,647.142121284,66935074.8465,1685.47013052,37090931.3189,70975766.8021,4334.70064822,4326.09807208,0.0
1.22924482254,0.941074817836,1.04331554587e-05,15570981.4609,2.82013639932e-05,0.0,17131797.627,689.375768395,658.959466273,65072120.0263,1916.73399818,60537923.026,66672974.6978,5102.59525836,5091.02869808,0.0
1.1121139825,0.935359980456,1.00120497794e-05,-16736726.8598,1.85367059822e-05,0.0,5626244.31909,682.422929911,651.519196242,66419321.2679,1773.30228381,40388266.2717,69121516.4651,4616.38514136,4606.42108697,0.0
1.08387251124,0.845678766449,1.03094523757e-05,-27367715.8726,1.79139660386e-05,0.0,5752056.32437,680.611124078,649.776420175,66797445.812,1739.73240584,35864316.8695,69181987.6129,4499.15479416,4490.70902983,0.0
1.03794920408,0.847057099776,9.83349414143e-06,-55812341.5427,1.52587894746e-05,0.0,5889828.8644,678.446951037,646.749158521,67173739.9944,1679.351043,40362596.3371,71110836.0629,4308.52714614,4301.07951416,0.0
1.06262614295,0.790545752427,9.61579861384e-06,-38051764.0923,1.63305567334e-05,0.0,5794034.04345,679.952291037,648.388736405,66890001.3125,1709.43961823,34755044.9632,70046957.958,4410.96111939,4402.07589569,0.0
0.993495862607,0.755127944721,1.01969720183e-05,-95219200.8113,1.55614311401e-05,0.0,5905317.69101,678.916490094,643.909293106,67124694.7421,1616.53698956,70105445.2328,70362047.3186,4124.00132568,4115.87874753,0.0
1.15860476653,1.13471841114,9.91313065229e-06,-3610489.337,1.93744512092e-05,0.0,5529467.0485,685.259875839,654.553650635,66173081.2455,1834.07771472,47991940.5282,68325214.3061,4809.36838587,4799.3068548,0.0
1.10655975341,0.859792900722,9.94867508728e-06,-20700593.6531,1.92589229071e-05,0.0,5699839.1925,682.191651979,651.231972988,66660807.7089,1769.16931856,38132946.439,68731136.3319,4593.3295364,4584.42872777,0.0
1.08207372794,0.79455545233,9.80596611263e-06,-29440789.3048,1.79751604252e-05,0.0,5769374.56,680.881601065,649.657996303,66860639.5671,1737.07814597,35649291.7994,69338263.7943,4491.68804468,4483.17309732,0.0
0.959795218144,0.947118036315,9.88482329506e-06,-93926579.4116,1.42354601626e-05,0.0,6069724.24902,685.037993769,641.763543242,67589622.2965,1615.04955602,68967174.7449,69191375.1396,3984.10995052,3977.74664494,0.0
1.10992720134,1.03931913703,9.81824141006e-06,-19765088.5883,1.70083079827e-05,0.0,5705098.56689,682.383215837,651.43325007,66689378.7574,1773.06915038,38729688.0564,68916870.7182,4607.30781276,4598.25304528,0.0
1.07254747454,0.921547842654,1.03053801496e-05,-31604898.6851,1.62213152908e-05,0.0,5775971.90821,679.902567167,649.013743835,66868079.8224,1724.12830503,35118324.5268,69367795.0351,4452.14456682,4443.68078888,0.0
1.01633769022,0.952215779215,1.02514554737e-05,-73321492.6763,1.40448822557e-05,0.0,5877085.45476,677.562131918,645.364000232,67088183.487,1647.95077255,51931749.6471,70629955.7107,4218.8177521,4210.66074118,0.0
1.10499926593,1.22552051962,1.02402648256e-05,-18903206.7348,1.46797167182e-05,0.0,5648656.45851,681.729386054,651.089003908,66489158.0302,1763.08842466,39345582.3911,68807350.3561,4586.85195288,4576.82196515,0.0
1.17532362605,0.868505340306,9.67907157023e-06,1944751.98667,2.35790148485e-05,0.0,5408774.47001,686.539534753,655.56556825,65790825.8733,1852.76914063,51150189.5457,67032375.3207,4878.76837173,4867.7395283,0.0
1.20344244339,1.00300461469,1.02845239263e-05,9090365.84671,2.40631255608e-05,0.0,10410805.689,687.807282312,657.275888651,65321740.7623,1885.60891486,55154081.7213,66793039.0601,4995.48958251,4983.82448242,0.0
1.14641269168,0.924075613585,9.55071494904e-06,-7380797.85095,2.12506044155e-05,0.0,5543593.44188,684.738229954,653.668018012,66205803.9668,1817.86076641,46220615.2498,68566613.2297,4758.75908316,4748.49143295,0.0
1.05072121149,1.12784114979,1.00266309713e-05,-44688194.7341,1.29703529511e-05,0.0,5824575.59525,678.806687963,647.549854994,66983117.524,1693.50001732,35747947.8801,70518632.8931,4361.5437489,4352.80450285,0.0
1.197351568,0.858441017249,1.05095609525e-05,9201276.45783,2.70092271338e-05,0.0,10540892.8458,687.364914269,656.933036469,65417823.4992,1879.30210622,55280121.6967,66659947.0144,4970.20635877,4959.2059659,0.0
1.18783960198,0.796170213949,1.01250405654e-05,6053413.48811,2.68478268097e-05,0.0,7611636.74217,687.076310885,656.33053784,65556521.693,1868.03791104,53250624.3009,66743249.2852,4930.72218782,4919.68131621,0.0
1.08975891286,0.908426917999,1.00612948967e-05,-25951605.8946,1.73197179971e-05,0.0,5745265.80025,681.063819741,650.121795333,66790438.5747,1747.05630539,36243451.8867,69225736.3312,4523.58924728,4514.95355011,0.0
1.12840415635,0.899387887931,9.8319964375e-06,-12602040.0119,2.04903129221e-05,0.0,5564236.35414,683.58172004,652.549830778,66246732.6516,1794.1134155,42645500.1055,67689823.1223,4684.00565301,4673.66115759,0.0
1.08251912706,1.14212550196,1.03805683902e-05,-27663046.1981,1.44059633176e-05,0.0,5772084.4183,680.366335495,649.692079125,66858298.5269,1737.72298676,35807912.083,69219623.4879,4493.53689643,4485.11199564,0.0
1.16255856381,1.02987896708,9.90667262053e-06,-994478.072743,2.01103160951e-05,0.0,5457143.30253,685.535780575,654.772015016,65922609.2674,1836.29446161,49449716.1583,67869950.8767,4825.78059838,4814.86327952,0.0
1.1401451428,0.896742694218,9.97783756027e-06,-8881593.66003,2.21717684728e-05,0.0,5595720.13392,684.08868893,653.323133004,66380768.6266,1812.00133955,45207890.5305,68155018.5246,4732.74248776,4723.39655384,0.0
1.05645711924,0.778880919202,1.01732147166e-05,-41142903.5483,1.71365471897e-05,0.0,5833692.17222,679.018367168,647.915274782,67031184.2462,1703.99448957,35067283.6404,69590558.564,4385.35350197,4377.63567605,0.0
1.17255592958,0.897801138777,1.02197279015e-05,2171807.19649,2.35328400844e-05,0.0,5401152.71204,686.011584904,655.379162159,65742513.366,1849.11761176,50945386.7052,66994459.0538,4867.27966369,4856.39210946,0.0
1.13084466583,1.18410105487,1.02013602708e-05,-11613484.9691,1.69255566199e-05,0.0,5600608.6186,683.209383303,652.650935318,66361677.4884,1798.13892876,43313544.2782,67530764.9662,4694.13620786,4684.24634826,0.0
1.14894537475,0.848690449108,1.02216490443e-05,-6917187.63349,2.42522781217e-05,0.0,5556470.67199,684.53663958,653.904909838,66265880.0226,1823.72655798,45962806.7299,68635953.4013,4769.27225059,4759.88831652,0.0
1.01813075095,1.22979500458,1.00474964145e-05,-73676309.9278,1.15827955236e-05,0.0,5943550.99177,677.593778751,645.497592766,67298586.0159,1652.32242771,52215938.9501,70913545.6651,4226.26074719,4219.00651045,0.0
1.14508874006,1.05809130218,9.96007264408e-06,-8548606.66551,2.00019690681e-05,0.0,5594052.76104,684.295616949,653.595230089,66365129.3505,1818.39402274,45270582.1743,68404993.7574,4753.26335999,4743.83647399,0.0
1.0125888386,0.914173067994,9.54083562891e-06,-82214128.8432,1.43911793646e-05,0.0,5905502.2467,678.438430824,645.135240342,67141504.8714,1642.424765,59011773.4083,70966978.3493,4203.25626903,4194.99060478,0.0
1.05556440291,0.891671149301,1.03211732946e-05,-40870967.2003,1.55059043975e-05,0.0,5800685.37005,678.873437439,647.826756455,66913706.5943,1701.00808618,34931297.601,69543295.3624,4381.64783648,4373.10058502,0.0
1.12733034653,1.00397127501,9.72001256467e-06,-13119444.7632,1.88080957264e-05,0.0,5583898.83076,683.515974244,652.476633089,66318833.6189,1792.66244662,42358935.4685,67988166.1724,4679.54826845,4669.22266735,0.0
1.03702832548,0.961981392658,9.68678756968e-06,-57222822.4297,1.41564621933e-05,0.0,5903483.6877,678.521211326,646.704345123,67214109.426,1678.0174252,41151349.3166,71140631.7949,4304.70457907,4297.27022944,0.0
1.06236147046,1.03100863639,9.98980399641e-06,-37901453.7675,1.40758870618e-05,0.0,5821485.04997,679.426857413,648.295391122,66989236.5076,1710.51975393,34691239.5738,70040977.7637,4409.86246388,4401.46330081,0.0
1.08389995215,0.992138316031,9.78143508604e-06,-28910577.6463,1.57534316384e-05,0.0,5778901.50717,680.934849367,649.788013123,66892351.2856,1739.32111547,35755279.5551,69386058.9244,4499.26870137,4490.72534073,0.0
1.11239953903,0.941106419122,1.01089671604e-05,-16662124.0281,1.85359673684e-05,0.0,5626726.354,682.352427196,651.529305589,66426540.081,1773.85228059,40396986.7054,69171517.8106,4617.57048651,4607.69814009,0.0
1.09113856246,0.990815318254,1.03427426512e-05,-24849591.9982,1.68269103651e-05,0.0,5739960.94909,680.893864525,650.190132753,66772327.0452,1749.11998218,36477623.3674,69046216.3382,4529.31617277,4520.75803376,0.0
1.19690250897,1.23048508145,9.5331458543e-06,6754236.9174,1.89388527567e-05,0.0,8355961.95569,687.703673086,656.926063862,65771714.0015,1879.40848859,54086548.0835,66975441.2244,4968.34231473,4957.21691906,0.0
1.19318594061,0.792405343286,1.01303386761e-05,6545395.14873,2.75874479795e-05,0.0,8031685.86056,687.540616491,656.687707415,65328740.3899,1873.5353187,53378181.4165,66434677.5442,4952.91483947,4941.24282619,0.0
0.99361023772,0.947903290145,1.04274575641e-05,-95315778.4858,1.37751442587e-05,0.0,5974691.83592,678.412523085,643.933215043,67358635.7808,1620.04704475,70190362.8868,70404411.1055,4124.47609678,4117.64906664,0.0
1.03493699757,0.719889431875,1.0624679295e-05,-54562235.056,1.65765619045e-05,0.0,5816923.06601,677.765920671,646.519092616,66950546.9684,1673.59819183,39567233.1802,70758909.1326,4296.02347691,4287.74509952,0.0
1.08232940813,0.956928277524,1.02424156523e-05,-27949260.2407,1.63226916886e-05,0.0,5761491.63696,680.527422371,649.682844572,66831920.2812,1737.27982794,35748903.5853,69224053.998,4492.74937315,4484.22970839,0.0
1.08905367203,0.851352096543,9.85537536258e-06,-26822394.0223,1.77994584261e-05,0.0,5751809.63268,681.224732612,650.104563078,66806518.7574,1746.18131252,36105777.5184,69321804.8219,4520.6617926,4512.03803883,0.0
1.15548989507,0.889569887829,9.99012807e-06,-5619522.82605,2.38739188579e-05,0.0,5547945.60545,685.122325293,654.363702064,66245152.8241,1832.09699721,46909307.5088,68566844.0387,4796.43855444,4786.94944783,0.0
1.2603380278,1.01398717345,1.02464880747e-05,21703163.6303,2.99655644789e-05,0.0,23688619.9624,691.468868961,660.872249449,64594218.3282,1951.51521346,65392521.5605,66280899.0147,5231.6631534,5219.18538761,0.0
1.12619017546,0.83122955881,1.02719715334e-05,-12545797.7744,2.15396009975e-05,0.0,5579287.456,683.149427407,652.411813836,66289193.2228,1792.54453816,42743279.7792,67120694.7008,4674.81541833,4665.00430068,0.0
1.13045777498,1.19189961263,9.93051991073e-06,-12046045.8191,1.66677117428e-05,0.0,5580367.06337,683.48308126,652.690159018,66301360.9246,1796.34820457,43071160.9631,67412237.6571,4692.53022394,4682.1494895,0.0
1.23483353638,0.660003370385,1.02625378099e-05,16686063.416,3.61110382999e-05,0.0,18219431.4822,690.087351693,659.24688287,64798517.9843,1923.59833694,61391858.2779,66632569.7322,5125.79400951,5113.89685835,0.0
1.10950471933,0.818553342604,9.59416468689e-06,-18814576.8253,1.93751361464e-05,0.0,5674301.14704,682.615800636,651.404667517,66575593.3319,1771.45333407,39437592.7879,68850895.1879,4605.55408994,4596.09668675,0.0
1.11503307162,0.976098064947,1.05305530038e-05,-15198312.0301,1.86917526036e-05,0.0,5623723.78821,682.168729262,651.676702854,66418953.3874,1778.27679911,41052197.848,68863380.9934,4628.50228029,4618.97837805,0.0
1.13612915764,0.927153623092,9.9902893575e-06,-10973903.4833,2.0328970639e-05,0.0,5536690.22514,683.962983747,653.061386212,66169319.7357,1804.19788985,43832944.2346,67676639.9538,4716.07213336,4705.59213256,0.0
1.14360259617,0.937391763803,1.01620935986e-05,-8594508.01385,2.20879795037e-05,0.0,5586408.11178,684.125725666,653.497934851,66347665.3755,1816.89284258,45081199.1577,68300666.6987,4747.0943767,4737.79761497,0.0
1.10803528263,1.00801085224,1.00169486093e-05,-20108649.8514,1.75657418424e-05,0.0,5703682.46725,682.154466143,651.31584237,66678073.6108,1770.91098733,38375501.8234,68825991.926,4599.4544582,4590.53120189,0.0
1.16381688119,1.30862327946,9.92464095109e-06,-1012986.87978,1.64212141146e-05,0.0,5478620.23607,685.453217593,654.849909369,65991261.4733,1837.64425024,49416736.2724,67855983.6287,4831.00387382,4820.06246825,0.0
1.17760686807,1.04730145291,1.00111668007e-05,2716186.24271,2.09693579867e-05,0.0,5403404.57027,686.358106896,655.688850248,65767189.9256,1855.11407239,51351760.7631,66987694.1435,4888.24610936,4877.16166673,0.0
1.09605691366,1.08019532466,9.92442707171e-06,-24317670.875,1.56398080225e-05,0.0,5745711.87616,681.446037216,650.524008106,66798894.0189,1755.13037892,36738885.4469,69132413.7637,4549.7322486,4540.99875758,0.0
1.17031847912,0.922142264396,1.01387708397e-05,1262606.78873,2.28890908436e-05,0.0,5433628.509,685.89688401,655.256031764,65849325.1363,1847.07052074,50483915.7914,67476897.2849,4857.99200683,4847.35299115,0.0
1.0083639646,0.901921962573,1.02826472306e-05,-80231907.9107,1.37369253927e-05,0.0,5913985.44521,677.3031806,644.863428917,67162454.13,1637.71063097,57378678.469,70614665.2694,4185.71881705,4178.00163514,0.0
1.20087851938,1.09302720723,1.00076237628e-05,9279164.61048,2.18707736568e-05,0.0,10712007.071,687.717997904,657.169100538,65554513.8113,1883.36527711,55570309.9354,66912965.361,4984.84673395,4973.68142947,0.0
1.16820049503,0.949195871969,9.50354994327e-06,-103668.62595,2.1482765581e-05,0.0,5486221.22354,686.122260099,655.141635138,66036912.7385,1844.98733732,50196170.2569,68070216.0618,4849.20025487,4838.70510333,0.0
1.04104452206,0.813204508396,1.00072479111e-05,-52263266.7577,1.57616297603e-05,0.0,5826532.77647,678.54578583,646.933982945,66976828.7017,1681.14268954,38557229.9277,70842242.1955,4321.37581107,4312.82507525,0.0
1.04716906096,1.09568519703,9.90583178109e-06,-47154163.5451,1.3103167765e-05,0.0,5832709.9451,678.855311111,647.401844627,66998377.9197,1688.77308731,36568779.1963,70438096.0351,4346.79877205,4338.11730796,0.0
1.09758204125,0.749785435472,9.65298619269e-06,-24113547.7926,1.96784585785e-05,0.0,5724297.97873,681.880262032,650.618211364,66723765.8687,1757.25112082,36833763.3943,69187647.2652,4556.06305323,4547.20679194,0.0
1.07576250472,0.872051783001,9.72726169088e-06,-32340245.5818,1.64970107414e-05,0.0,5798810.74431,680.33730269,649.103979818,66938699.8948,1728.72931872,35059399.2012,69791711.0098,4465.49015709,4457.0731035,0.0
1.17516879072,1.09276714426,9.68183131958e-06,1534283.54652,1.9744391635e-05,0.0,5420585.95021,686.396557755,655.550913589,65816306.9512,1851.81247668,50825814.1489,67060816.3635,4878.12565028,4866.8888589,0.0
1.15056190088,0.798314550131,9.95975793553e-06,-7097153.31057,2.50742597613e-05,0.0,5558778.65401,684.823114701,654.00168869,66269764.1599,1825.97267549,46030296.232,68671017.6038,4775.98245055,4766.57258265,0.0
1.22363034384,0.914944520594,1.03087582378e-05,13968810.6496,2.77324473908e-05,0.0,15264292.5809,689.174364917,658.590959684,65026463.2293,1909.49779227,59172683.7134,66474449.3589,5079.28955728,5067.34823521,0.0
1.19310624819,1.05682237386,1.03022190409e-05,7243963.06925,2.22154982995e-05,0.0,8658958.65967,687.14526919,656.697216473,65547793.1091,1873.89278487,53837586.4546,66553189.4219,4952.58403624,4941.45398979,0.0
1.20705564874,0.871032198394,1.03245289075e-05,10796334.1598,2.70749979358e-05,0.0,12128086.4052,688.042238581,657.482623845,65254617.8393,1890.27541411,56619347.8469,66603316.3615,5010.48799792,4998.99101383,0.0
0.952613025322,1.15794537175,1.01644414876e-05,-93534432.5478,1.21236408925e-05,0.0,6071931.64304,685.235192665,641.29472286,67582756.7344,1609.76167885,68621938.656,68842507.3457,3954.29666811,3947.74282616,0.0
1.03466502279,1.04790832956,1.03747999931e-05,-54614742.4909,1.35363290546e-05,0.0,5831754.70327,677.858123807,646.514976294,66987839.0294,1671.93818568,39664275.043,70974460.277,4294.8945096,4286.27162641,0.0
1.04133389601,0.862395645908,9.79845231906e-06,-51759604.1432,1.51637640704e-05,0.0,5831579.52506,678.705146843,646.952072361,66991044.0566,1681.00918299,38290492.1156,70879091.0341,4322.57700234,4313.84606298,0.0
1.18821820045,0.735752289779,9.56459676994e-06,5016247.76461,2.76280382523e-05,0.0,6742151.1161,687.466647891,656.353567118,65679349.6941,1869.65497226,52969427.4501,67001022.319,4932.29375007,4921.34916789,0.0
1.12671995398,1.02398507092,1.02407890621e-05,-13025694.9422,1.9355031547e-05,0.0,5646250.23628,683.048946679,652.468162331,66510431.6362,1795.24245386,42541795.6821,67935004.8135,4677.01452897,4668.01020212,0.0
1.01946324428,1.12511113281,1.01998607247e-05,-70510486.3429,1.25291047067e-05,0.0,5879854.8339,677.566105878,645.565366948,67103562.9233,1651.84429522,49821740.0157,70930834.9274,4231.79192701,4223.50029831,0.0
1.16874300184,0.996335834825,1.02001564173e-05,771970.094049,2.16361007005e-05,0.0,5396768.32941,685.780989458,655.146112556,65720190.3148,1843.40199601,50125209.554,67360735.4101,4851.45220064,4840.21633521,0.0
1.20046287772,1.14627250561,1.02658644038e-05,8390399.57901,2.13276969258e-05,0.0,9744491.79368,687.583476601,657.115780681,65357655.4308,1881.35097984,54692621.4666,66661679.3288,4983.12140542,4971.31586195,0.0
1.04625729017,0.898867103562,9.84735825947e-06,-47834710.0903,1.49238051108e-05,0.0,5827662.74423,678.828455586,647.268699419,66979373.5463,1687.6878625,36747683.5288,70708803.0077,4343.0140115,4334.34735399,0.0
0.900689223121,0.936190512416,1.00063245228e-05,-91202286.7196,1.32154270494e-05,0.0,6140032.77017,692.343073123,637.938076707,67696987.9635,1593.685577,66569237.6643,67696987.9635,3738.76096518,3732.10172916,0.0
1.16706311706,1.00169979406,1.02436963641e-05,-1582160.25421,2.32263893905e-05,0.0,5385508.90222,685.764270923,655.04090644,65708795.9855,1842.00104115,48607209.3996,67487780.4867,4844.47899892,4833.21387045,0.0
1.12304200179,0.913373707642,9.57767318764e-06,-15035117.37,1.97556233488e-05,0.0,5679061.52796,683.271766533,652.209314202,66619920.9746,1790.5711168,41426145.3011,69183667.3022,4661.74734943,4652.69848159,0.0
1.13619769487,1.06185202938,1.0342331325e-05,-10439401.7013,1.96992937047e-05,0.0,5613285.34158,683.564977347,653.090616217,66426743.0643,1807.29552241,44007147.491,67930943.0051,4716.35663141,4707.20267999,0.0
1.08256916549,0.704745914155,1.02462906e-05,-27803758.5755,1.95786367853e-05,0.0,5743217.94029,680.643510189,649.695683241,66776280.0343,1737.78328907,35740662.0411,69168198.8435,4493.74460595,4485.22195417,0.0
1.10966939822,0.712450277114,1.0009482944e-05,-17262104.0947,2.15799777268e-05,0.0,5611644.83313,682.422863344,651.376547696,66384419.6767,1770.31268597,40023398.1748,68936338.7999,4606.23767201,4596.31630526,0.0
1.14115580702,0.98953995516,9.50466488832e-06,-10866607.425,2.02675450992e-05,0.0,5532388.05025,684.583476109,653.383049424,66179693.7766,1810.39751709,43944276.2245,67824559.1676,4736.93775494,4726.24430261,0.0
1.20018436561,0.782102215949,1.04129686087e-05,9014207.36157,2.87230330062e-05,0.0,10434018.3018,687.708353395,657.099526572,65288067.4186,1882.42507465,55177397.4465,66606973.3551,4981.96530165,4970.59960615,0.0
1.09306940565,0.928870707401,1.0253312013e-05,-24260242.6174,1.74940268169e-05,0.0,5729122.89932,681.109403467,650.328402869,66734484.9223,1751.34647249,36641084.4322,68938296.6604,4537.33110285,4528.6435711,0.0
1.13907549606,0.974307607378,9.93065104705e-06,-8908725.35938,2.04780428824e-05,0.0,5581381.64072,684.049090272,653.254749584,66325362.3686,1809.39550076,45231097.0115,68137450.0861,4728.30238415,4718.55716305,0.0
1.20925887561,1.02692549775,1.01035995553e-05,11042023.7711,2.38804016364e-05,0.0,12350058.6448,688.16517255,657.628135488,65395319.663,1893.45585513,56812739.0869,66796248.1788,5019.63359266,5008.29042349,0.0
0.972069742662,1.07058484098,9.86292068886e-06,-94407292.5203,1.31333738999e-05,0.0,6032078.95526,683.332528038,642.548398458,67485351.613,1616.94798977,69390290.4159,69622394.0041,4035.06150179,4028.15526986,0.0
1.15625804071,1.07303538361,1.00909678858e-05,-3418741.83679,1.92081424121e-05,0.0,5514934.76197,684.997160574,654.396341649,66110407.5256,1830.13133261,48083214.8977,68055689.6501,4799.62712699,4789.3488863,0.0
1.15233355027,0.950829333393,1.00241691826e-05,-6470343.76517,2.25342090535e-05,0.0,5563419.12426,684.840213279,654.13062283,66289562.9859,1828.0226157,46373532.186,68679091.5471,4783.33656717,4773.89824343,0.0
1.01544117985,0.969744212809,9.86366761842e-06,-78624660.2891,1.36303990832e-05,0.0,5951586.54519,677.829852339,645.333160163,67311941.5404,1649.22994641,56086732.9806,70978533.8747,4215.09633756,4207.96906629,0.0
1.17304716882,0.971979917323,9.80584449587e-06,1864667.19126,2.17100289758e-05,0.0,5422391.13813,686.241057793,655.422370775,65823101.9236,1849.52535203,51088671.2005,67202121.4373,4869.31879777,4858.31339897,0.0
1.11761288698,0.986287630993,1.00311487085e-05,-15204456.9566,1.84551176909e-05,0.0,5610345.61526,682.680901531,651.82867423,66379126.3048,1780.34359816,41153093.8617,68973103.8074,4639.21109385,4629.1518604,0.0
1.22669489629,1.10081255675,9.67248277054e-06,13923426.8862,2.32797978615e-05,0.0,15374470.0437,689.553836957,658.799162586,65238835.6167,1913.80606802,59289050.6545,66682987.5089,5092.0105145,5080.14169936,0.0
1.10614984806,1.03246253326,9.61672118608e-06,-20250367.556,1.66102866565e-05,0.0,5653265.25608,682.35948591,651.18743996,66501024.1305,1764.95138894,38755258.9881,68665632.8061,4591.6280193,4581.48258386,0.0
1.26675673349,1.16823352037,1.0310239182e-05,22773625.619,2.77364535168e-05,0.0,24630817.0011,691.770508523,661.284657617,64490793.208,1957.97650764,66109947.2097,67054898.8328,5258.30720072,5245.53203388,0.0
1.03097962167,1.14629200797,9.9637274925e-06,-61236416.0665,1.24319840277e-05,0.0,5870406.21611,678.077938091,646.300661145,67095540.57,1667.55787614,43475336.9552,71032842.4528,4279.59640955,4271.20603544,0.0
1.09801357935,1.02665687594,1.06174389233e-05,-21735834.7399,1.66112783717e-05,0.0,5646861.51703,681.225118785,650.667872467,66468717.9472,1755.09980195,37531405.5676,68222241.2098,4557.85436788,4548.04808581,0.0
1.12982272066,0.981832532624,9.98263416234e-06,-11954069.774,1.94815573041e-05,0.0,5595158.74866,683.378797155,652.579091861,66356987.1001,1796.93986317,43233407.608,67397014.8754,4689.89411346,4680.02197814,0.0
1.06629209829,0.972522425839,9.74406223423e-06,-37042372.9511,1.47956997386e-05,0.0,5817401.70063,679.845064545,648.549485798,66979754.8572,1715.72098546,34681112.6316,70232786.0251,4426.1785,4417.71791624,0.0
1.12681443012,0.814076916312,9.84787855605e-06,-12941887.2206,2.15406119125e-05,0.0,5616582.09066,683.434348412,652.460795415,66414207.1416,1794.20020013,42501683.3462,68051600.8253,4677.40669943,4667.88778582,0.0
1.01862244061,0.978334691873,9.93583401303e-06,-74166860.3224,1.36011804822e-05,0.0,5940736.10175,677.789397509,645.524927671,67292327.7403,1653.50639885,52587736.5999,71412937.5749,4228.30175097,4221.12936417,0.0
1.12028805044,0.863571197381,1.04088196425e-05,-14367502.609,2.05198570157e-05,0.0,5549967.81017,682.714447046,652.003430502,66190247.6078,1783.25651501,41508696.487,67912885.9544,4650.31569738,4639.9366467,0.0
1.1794942227,1.09328647534,9.68231308578e-06,2631060.34769,1.99553149252e-05,0.0,5412128.60032,686.643171446,655.810821093,65802203.1629,1857.39300918,51463885.2968,67047690.8365,4896.08051843,4884.86994693,0.0
1.14885854019,0.76536001907,1.00263633153e-05,-7384046.6957,2.56305993429e-05,0.0,5558410.71645,684.678275361,653.878063759,66268799.4216,1823.81284425,45817203.7382,68568565.3584,4768.91180033,4759.53093629,0.0
1.14363524212,0.957212055244,9.56962975641e-06,-8182698.62173,2.06388509271e-05,0.0,5575655.53099,684.549597235,653.526954934,66316180.4045,1815.07124133,45807270.7439,68365584.9943,4747.22989004,4737.30500253,0.0
1.16305022416,0.793461067318,9.89480777111e-06,-2130567.30466,2.63632248619e-05,0.0,5505238.62893,685.710496936,654.834805074,66108175.265,1840.97736182,48912445.8001,68201099.7865,4827.82148049,4818.09039632,0.0
1.13568727294,0.958309464359,1.00709029686e-05,-11910858.9774,2.07195010062e-05,0.0,5528696.32355,683.906699848,653.032687429,66158999.9007,1803.69058262,43274944.6841,67526739.1282,4714.23786997,4703.75201877,0.0
1.01522153232,0.933893189111,9.92729216448e-06,-78259607.8655,1.3895881468e-05,0.0,5948127.6905,677.766398332,645.317374837,67302619.2851,1648.96876762,55792048.965,70916417.4683,4214.18458066,4207.06041987,0.0
1.23790852781,0.764744667199,9.81485454297e-06,17159319.0115,3.19365674282e-05,0.0,18666703.3426,690.368186266,659.453894326,64937339.5961,1927.33793912,61813032.8004,66866971.7113,5138.55829894,5126.65120363,0.0
1.11700296098,0.886740915658,9.851719376e-06,-15866046.5049,1.95485461638e-05,0.0,5664416.23922,682.740574752,651.810531606,66567342.4025,1781.74418726,40905123.5113,69433489.9557,4636.67929103,4627.42197931,0.0
1.28314377919,0.804682638546,1.02098116773e-05,25739232.8672,3.71452286764e-05,0.0,27350406.3088,693.03647763,662.202186032,64018889.3015,1976.61985788,67745268.2696,68622135.2097,5326.32982742,5313.16877635,0.0
1.15520456862,0.95805116093,9.93890264866e-06,-5392119.11895,2.21067890089e-05,0.0,5514813.59155,685.103081202,654.2914457,66134990.4447,1829.75137606,46815691.3814,68457273.1054,4795.25416434,4785.12979956,0.0
1.11770993601,1.13941182527,1.02707034428e-05,-15421319.2967,1.64717331501e-05,0.0,5595490.36842,682.467143614,651.825059733,66323800.5836,1779.72320093,40977364.5133,68713838.1364,4639.61394438,4629.2805621,0.0
1.04481798872,0.952392937493,9.97307015786e-06,-50655434.8617,1.45882583372e-05,0.0,5873506.37652,678.600672827,647.198595566,67135588.7496,1688.49313138,37854938.8118,70902045.5547,4337.03947118,4329.49244979,0.0
1.07258430143,0.815183060927,1.02979207717e-05,-31598003.8761,1.74482357986e-05,0.0,5769434.19278,679.952435144,649.016267331,66847210.9189,1724.25495727,35126580.8962,69349475.9411,4452.29743524,4443.83308347,0.0
1.11596919771,1.11028028735,1.02370860544e-05,-15314821.4736,1.67409417926e-05,0.0,5640084.49268,682.333211373,651.729077887,66478042.3966,1778.77210583,41034098.4637,69092201.5014,4632.38813969,4622.74869225,0.0
1.01903070048,0.90954112465,1.02635118431e-05,-70328137.9633,1.43647140949e-05,0.0,5865908.39655,677.572752385,645.535017193,67060495.894,1651.42312034,49681440.6829,70848428.3128,4229.99643769,4221.71172713,0.0
1.17231912552,0.728082765957,9.81409552915e-06,514405.025737,2.89582450516e-05,0.0,5474255.76459,686.352512963,655.415838721,66019476.5012,1852.86739504,50429263.5461,67724986.5204,4866.29669003,4856.5196135,0.0
1.07411864958,0.992848814012,1.03151185117e-05,-30852151.3592,1.55437987733e-05,0.0,5775937.26935,679.966810179,649.126771793,66859023.5695,1726.13894271,35214008.4521,69304881.6679,4458.66651441,4450.17955013,0.0
1.0522700189,0.95034461618,1.00688414703e-05,-43636788.1745,1.4776747865e-05,0.0,5807603.14704,678.908088601,647.635288632,66934571.2978,1695.69929229,35472081.8955,70424322.832,4367.97284845,4359.20835994,0.0
1.01612683309,0.781564820755,9.71399108529e-06,-79173989.425,1.52337517679e-05,0.0,5947493.72112,678.051272378,645.373185419,67301013.3808,1650.20843735,56529835.5977,70996965.6688,4217.94248416,4210.80549947,0.0
1.1299765792,1.02508128115,1.01519559508e-05,-11866748.3354,1.90016443441e-05,0.0,5591693.41783,683.265321285,652.589499822,66331031.1828,1797.21714077,43145520.6281,67406547.6748,4690.53278026,4680.6576254,0.0
1.07216231013,1.11087856071,9.86722610339e-06,-33440371.8559,1.37049576407e-05,0.0,5817641.6003,679.976442841,648.906442451,66992332.1803,1723.82688265,34877309.6797,69970531.6417,4450.54574935,4442.18433013,0.0
1.25863388734,0.693213698745,1.01340772805e-05,21504427.1919,3.81845400485e-05,0.0,23475386.8451,691.777989337,660.754727105,64364079.0749,1949.80245015,65137410.2807,66005610.1206,5224.58926635,5211.88420603,0.0
1.05665548197,0.839684641098,9.85686372643e-06,-43434742.7503,1.61377277561e-05,0.0,5789824.95398,679.377151873,647.904086243,66885685.4754,1701.40843905,35396109.8902,70203416.0412,4386.17690566,4377.19183374,0.0
1.05804590859,0.871747052578,9.92036592793e-06,-40172571.4929,1.54991792991e-05,0.0,5824435.74956,679.283588926,647.992588899,66989033.3339,1704.86556377,34879163.3278,69769132.1229,4391.94856656,4383.61662814,0.0
1.12862981641,0.959589554708,1.0139798058e-05,-12215230.9425,1.98273821084e-05,0.0,5588425.61582,683.327571636,652.575631177,66319020.7032,1795.57460993,42954426.1104,67277436.5243,4684.94236792,4675.09000902,0.0
1.09441641461,1.13786070285,1.04499520896e-05,-22967542.816,1.51144108335e-05,0.0,5716037.59402,681.007964716,650.448712073,66698404.2624,1752.01685604,37066369.7017,68971622.4267,4542.92253705,4533.92155795,0.0
1.04161590391,0.717621448698,1.01559220066e-05,-49914501.7026,1.66179733994e-05,0.0,5812154.46338,678.449598415,646.942147711,66931308.8638,1681.78643248,37506388.109,70873679.7563,4323.74761713,4315.09960193,0.0
1.11208204364,0.985432462111,1.00701988669e-05,-16866884.9097,1.79413308631e-05,0.0,5633191.05585,682.346800563,651.517271375,66445833.0069,1773.40719689,40326001.6611,69138480.9072,4616.25256315,4606.3856592,0.0
1.14443482524,1.11870543943,9.85195918049e-06,-8152801.06143,1.89222331444e-05,0.0,5613760.0395,684.269698837,653.564598523,66447744.364,1817.6556116,45714092.8558,68457670.9405,4750.54895957,4741.24179409,0.0
1.09645454251,0.661097936609,9.98650321781e-06,-23663591.6264,2.1493386953e-05,0.0,5711192.04962,681.639497601,650.559241328,66692259.6787,1756.17406021,36855896.5745,69012503.8754,4551.38280596,4542.64295649,0.0
1.1457646794,1.08669242353,9.64163541604e-06,-7825160.61156,1.92360076539e-05,0.0,5609111.44939,684.494822357,653.644651267,66424291.4194,1818.88415253,46002264.8451,68569468.0238,4756.06918419,4746.62673907,0.0
1.09809523158,1.16584509982,9.74893014393e-06,-23783310.1821,1.46228738865e-05,0.0,5749947.55692,681.663522527,650.662571466,66805290.5872,1757.54618535,36960176.0237,69263324.5064,4558.19330629,4549.32889792,0.0
1.09442102803,0.636873975943,9.96208570325e-06,-24402832.6384,2.16873158009e-05,0.0,5716318.03292,681.524822868,650.404556664,66704557.8854,1753.54135386,36651915.5165,69069409.1081,4542.94168735,4534.23377049,0.0
1.06709508003,1.17175554572,1.03985616173e-05,-33755581.4775,1.32391217719e-05,0.0,5806144.95499,679.29986122,648.587373722,66952188.8116,1716.76053167,34797504.2182,69758873.0219,4429.5116772,4421.13268186,0.0
1.1496750353,1.06663018312,1.0299339108e-05,-6618258.82817,2.06494130538e-05,0.0,5569792.8888,684.425796857,653.955494153,66310300.4334,1824.37040737,46166829.8405,68657834.3133,4772.30107153,4762.90543516,0.0
1.14079084659,0.988278457788,9.47354515014e-06,-8431986.05878,1.86520681842e-05,0.0,5553346.45882,684.46386071,653.36059857,66215422.3841,1809.45545844,45491440.4611,68209097.1112,4735.4228042,4724.81718253,0.0
1.04405073871,1.13180257112,9.63712384293e-06,-51097765.4375,1.26243275798e-05,0.0,5846017.65584,678.930347619,647.180195219,67038445.6037,1684.38800923,38072298.8611,71112243.917,4333.85461639,4325.07907289,0.0
1.12560661754,1.13166305863,1.04646476723e-05,-12392500.9741,1.7399624195e-05,0.0,5601685.32595,682.724849402,652.296904802,66361761.034,1791.40854043,42775765.2508,67223724.596,4672.39306941,4662.59180639,0.0
1.06663867112,1.00715522422,1.00111414912e-05,-35877181.3071,1.46212040617e-05,0.0,5811363.84965,679.653724131,648.572882332,66956140.6577,1716.36779402,34663446.3396,70129889.4222,4427.61712382,4419.19791898,0.0
1.09195058602,1.11004920792,9.85621775399e-06,-25166378.8753,1.45283347877e-05,0.0,5724948.52811,681.268963907,650.240290227,66711638.1572,1747.78825495,36448243.554,69233098.1305,4532.68688257,4523.26654223,0.0
1.07198332046,0.93039696249,1.01220665833e-05,-32172777.708,1.58444597153e-05,0.0,5785504.79331,679.822590541,648.857457909,66888595.4032,1723.05036963,35082879.897,69579733.8151,4449.80276323,4441.25321457,0.0
1.04315342704,0.906596632898,1.01953580553e-05,-48935464.3386,1.49174429465e-05,0.0,5818428.02322,678.443726392,647.068202715,66954309.8539,1683.69973166,37101224.3676,70973210.3764,4330.12987564,4321.45682847,0.0
1.03109623479,1.16948422765,1.02995053852e-05,-59176919.9535,1.23852256311e-05,0.0,5852927.61808,677.753510852,646.29473981,67044473.4291,1667.3497365,42170515.5949,70948401.4847,4280.08047061,4271.60190611,0.0
1.24076820253,0.865395321689,1.02681098476e-05,18163597.4333,3.07791727197e-05,0.0,19757293.0162,690.287701482,659.637791655,64801444.2844,1929.25282374,62539731.9392,66842048.862,5150.4288087,5138.30647134,0.0
1.03269610823,0.718325347245,1.02423529509e-05,-56754120.964,1.6159282025e-05,0.0,5830007.94279,678.017391119,646.397636006,66975584.4733,1669.93305002,40761047.2705,70854489.7138,4286.72154526,4278.21801166,0.0
1.09510256222,0.827628132593,9.95178536864e-06,-23589038.7407,1.81102723707e-05,0.0,5690710.98894,681.518798161,650.435649309,66610830.6796,1752.29743392,36889702.8882,68967093.0913,4545.77073578,4536.29748331,0.0
1.01536083742,1.28799778528,1.00867495666e-05,-75337084.383,1.12957568977e-05,0.0,5901958.55117,677.592741555,645.307545024,67154434.0617,1646.24571953,53512678.4193,70816564.3175,4214.76283613,4206.53672718,0.0
1.0746020754,0.82443961442,1.01908245074e-05,-32217470.021,1.75497596457e-05,0.0,5782417.88823,680.141059726,649.155636038,66894844.3792,1727.86359267,34962513.1673,69478862.3089,4460.67321499,4452.46632132,0.0
0.974608369484,1.03922202753,9.80528285221e-06,-94777509.0926,1.32388471338e-05,0.0,6044019.65731,682.407523075,642.7177624,67518561.8067,1614.49949431,69716087.5297,69951331.9757,4045.59934173,4038.95790775,0.0
1.17257736142,1.05726520375,9.99257631711e-06,1756214.95177,2.04005986996e-05,0.0,5425454.93488,686.046781079,655.385859901,65825847.798,1848.81187713,50872982.2565,67086081.2993,4867.36862725,4856.37576436,0.0
1.11277867058,0.864902782972,9.75074656848e-06,-17161725.1446,1.90942198425e-05,0.0,5638224.36531,682.672946142,651.578763036,66469529.5673,1774.60389385,40163488.7278,69111586.3422,4619.14426158,4609.26619316,0.0
1.03459294452,0.871949946551,9.52427724004e-06,-59741510.3226,1.48893151335e-05,0.0,5911358.03907,678.610046107,646.551157215,67232102.9226,1674.76535851,42650295.8207,71194375.498,4294.5953127,4287.19460755,0.0
1.09120922837,1.15512700409,9.87310744229e-06,-26101570.51,1.43875347163e-05,0.0,5766592.66283,681.177827775,650.217123828,66855520.6053,1748.76027307,36282840.4165,69357990.0223,4529.60950696,4520.95111685,0.0
1.03336125952,1.04720728092,9.43159917188e-06,-60258183.5705,1.30869015114e-05,0.0,5925615.73692,678.579885315,646.476834235,67268249.5096,1672.82750467,42945581.9389,71231758.2975,4289.48258827,4282.00827333,0.0
1.14684794063,0.812181526335,1.04013948942e-05,-6852909.00144,2.46369016183e-05,0.0,5451307.7137,684.459644992,653.733311843,65900068.4004,1817.44302779,45696256.6509,68214056.3076,4760.56580156,4749.8701264,0.0
1.01576935927,1.30439581083,9.88659740433e-06,-78100407.75,1.09800456872e-05,0.0,5965597.32652,677.702706571,645.352018503,67357943.2594,1649.50653854,55673401.9302,70964007.62,4216.45861033,4209.32669056,0.0
0.932143123782,1.04438538081,1.00892082153e-05,-92512708.1037,1.3282646299e-05,0.0,6079607.58562,688.57490672,639.966288204,67559134.2683,1605.10122081,67722623.1558,67932051.3087,3869.32610682,3862.45496954,0.0
1.05413692506,1.21753614017,9.78236752625e-06,-45146491.8699,1.22844332884e-05,0.0,5821171.69333,679.286739813,647.845417332,66976013.451,1697.75412645,35873813.517,70527981.1503,4375.72237592,4366.7790518,0.0
1.17179484021,0.797423215581,9.84964222469e-06,1235023.69213,2.48781330532e-05,0.0,5403096.80292,686.285131521,655.352319171,65752726.2923,1848.49446808,50639432.3587,67498991.6764,4864.12038171,4853.14177445,0.0
1.18873249583,0.974012759076,9.47383133822e-06,4893451.41788,2.24367632475e-05,0.0,6595401.06674,687.362573916,656.39025214,65790049.1885,1869.97569311,52939784.4048,67126945.162,4934.42859019,4923.47494666,0.0
1.01408347303,0.734822343284,1.01941686202e-05,-79502650.2997,1.59723498932e-05,0.0,5850205.01039,677.696944882,645.204225574,66985421.8248,1643.89767094,56773634.2629,70603135.7456,4209.46049655,4200.92192667,0.0
1.09949997594,0.943637719932,1.03873373852e-05,-20037146.2111,1.77788561686e-05,0.0,5642620.13984,681.469180487,650.761048688,66451721.4475,1756.55602455,38597915.9981,68441264.6995,4564.02440013,4554.18475557,0.0
1.15682502825,0.813926880986,9.98280672789e-06,-3589351.58152,2.3483352411e-05,0.0,5442070.22293,685.335169204,654.417349655,65884782.4906,1829.5824187,47822455.0399,68090319.855,4801.98069227,4791.07451922,0.0
1.14249370781,1.10735965954,1.0572977785e-05,-7831011.05823,1.89040193981e-05,0.0,5538133.13937,683.641988623,653.33184823,66154190.6558,1812.91351469,45185264.0041,68376915.1789,4742.49138112,4732.42088419,0.0
1.11022787047,0.94454100187,9.73770470346e-06,-20014331.4546,1.82691700572e-05,0.0,5698345.94323,682.500714127,651.454502895,66669213.1189,1773.47352503,38581746.0244,68896594.7913,4608.55589032,4599.49717046,0.0
1.1272019129,1.05007550287,9.7864687989e-06,-13016370.1265,1.80977769987e-05,0.0,5638685.86282,683.378880001,652.487134818,66497563.9032,1794.49353097,42479980.6654,68168269.8894,4679.01514045,4669.48984188,0.0
1.11757978533,1.17146948215,9.74626101101e-06,-15899219.5745,1.58378150921e-05,0.0,5695087.61151,682.702443481,651.852098433,66658845.2853,1782.39538683,40973683.2086,69540312.9149,4639.0736889,4629.9034658,0.0
1.03682582023,0.701447708766,1.00083285952e-05,-55522309.5227,1.65940902457e-05,0.0,5878808.78349,678.291876037,646.671394309,67140725.3393,1677.96164032,40194088.3856,71008841.3453,4303.86397977,4296.43111063,0.0
1.114863893,1.02978274795,9.92677193234e-06,-16268375.9154,1.71802376348e-05,0.0,5632664.13889,682.567826744,651.67746661,66439647.1515,1776.85054171,40663635.7449,69287554.5686,4627.80001984,4617.80500295,0.0
1.04301826083,0.802353993044,9.58491651343e-06,-51995026.4434,1.56743243591e-05,0.0,5871377.77766,678.83989162,647.050326656,67111421.2046,1685.04781843,38472440.3386,71040243.9491,4329.56880071,4321.67981344,0.0
1.15298347223,0.777466759851,1.01670744127e-05,-5905144.68929,2.60460661219e-05,0.0,5540293.48102,684.741367286,654.072858679,66220427.2049,1828.95291543,46588550.1196,68525563.3279,4786.03439323,4776.58730926,0.0
1.15512062309,0.940001533145,1.04375713459e-05,-3187223.16893,2.16469446075e-05,0.0,5447320.4437,684.844394678,654.302560436,65880308.5625,1827.23625247,47690850.6592,67823583.7727,4794.90570645,4784.13341943,0.0
1.115764892,1.12235524202,9.87120978305e-06,-16073738.0789,1.62240845218e-05,0.0,5687786.86665,682.554168754,651.746859716,66636215.9129,1779.97592742,40778763.4853,69419907.1869,4631.54006669,4622.30179216,0.0
1.11570954196,1.02838231206,1.04182197464e-05,-15272713.8655,1.79378785358e-05,0.0,5634150.14994,682.248393299,651.712897292,66450043.9577,1779.13348146,41056780.4623,68950171.0169,4631.31030868,4621.77360997,0.0
1.19859549561,0.721632639453,9.77620624818e-06,7789074.69999,2.92285994554e-05,0.0,9236948.6499,688.084419202,657.044452263,65417543.7623,1881.36070405,54472924.3239,66570157.3738,4975.36990228,4964.02601659,0.0
1.14378739249,0.840448064418,9.77697272576e-06,-7964655.69374,2.28650779793e-05,0.0,5570365.1097,684.339572785,653.4353695,66302494.753,1815.94235696,45813511.9808,68390899.8594,4747.86146623,4738.14334481,0.0
1.0701279997,1.04687304643,9.84820288612e-06,-34942998.5594,1.42289174826e-05,0.0,5808797.60578,679.945324161,648.798753574,66962576.6192,1720.68797378,34754131.708,70050611.5811,4442.10132675,4433.58209946,0.0
1.15030837579,0.986656358019,9.64853291096e-06,-6688147.57119,2.11744744911e-05,0.0,5586901.97072,684.860925225,653.969908111,66362434.0338,1825.05762965,46627054.5589,68793814.8398,4774.9300679,4765.43338581,0.0
1.1501519717,0.927723248886,9.67470268671e-06,-6632358.0436,2.21552871152e-05,0.0,5580669.83562,684.868273809,653.961068642,66344288.9651,1824.90705133,46632631.0744,68768832.554,4774.28083453,4764.78668235,0.0
1.19449111231,0.64704467199,1.01315414159e-05,7396747.92664,3.17386683135e-05,0.0,8877089.75939,687.774074275,656.768418288,65220145.6967,1875.22367624,53936227.227,66358034.2296,4958.3326072,4946.63978715,0.0
1.03801868017,1.2663848451,1.0263793719e-05,-52753000.775,1.14739983121e-05,0.0,5857289.63869,678.011622363,646.734380061,67069757.219,1677.18595727,38714767.6954,70961071.2762,4308.81554139,4300.39978033,0.0
1.09540946366,0.825098719359,1.02000614276e-05,-23624805.2817,1.89603763824e-05,0.0,5716686.02932,681.35371227,650.500085583,66699186.8941,1754.48966141,36840412.8843,68914169.3532,4547.04468365,4538.32136163,0.0
1.16828153012,0.969650258058,1.01913967025e-05,826829.20317,2.19635442904e-05,0.0,5444102.24953,685.716807365,655.136143362,65878747.1997,1844.46354985,50258122.3808,67489110.3615,4849.53663153,4838.93308828,0.0
1.21081616149,0.730122614894,9.5624194601e-06,10557066.7226,3.00084987089e-05,0.0,11910271.0557,688.918883551,657.72734716,65214658.5886,1895.32444947,56470598.2154,67007758.2151,5026.09788635,5014.16678391,0.0
1.02709992661,1.2361395862,9.97163556968e-06,-63969323.754,1.15545649017e-05,0.0,5881892.72768,677.889818459,646.043760198,67123961.7574,1662.13642675,45228238.8288,70993948.9549,4263.49179536,4255.07732546,0.0
1.1769198184,0.889427796571,1.03727000276e-05,3130041.25902,2.42680696705e-05,0.0,5374269.32987,686.194870455,655.634334293,65644870.4393,1854.47159716,51447611.7521,66858195.1705,4885.39416618,4874.42760094,0.0
0.989203955738,1.14796503373,9.8007334912e-06,-95268493.7107,1.24462488192e-05,0.0,6002107.90927,680.539606647,643.651650837,67416614.3204,1618.5583263,70148472.3369,70390976.0814,4106.18562027,4099.08216372,0.0
1.13160458388,0.837316868435,1.03983602281e-05,-10999026.0392,2.21890889426e-05,0.0,5553501.57178,683.425351353,652.779558377,66221612.7481,1799.42270808,43612670.9429,67550423.6955,4697.29062769,4687.38788851,0.0
1.08489902229,0.936462030609,9.79556894626e-06,-28477952.8136,1.64370875393e-05,0.0,5771895.0601,681.011049518,649.856590555,66860906.641,1740.67636666,35801950.6129,69366825.4145,4503.41584153,4494.85692045,0.0
1.1434744637,0.736038131123,9.4529305754e-06,-9213530.66645,2.4270369828e-05,0.0,5568872.11696,684.784648121,653.545208257,66299701.508,1815.8101647,45000039.2581,68139733.7587,4746.56249882,4736.75348869,0.0
1.14634386388,1.01576165336,1.00515433922e-05,-8111072.01391,2.09382006494e-05,0.0,5589042.00906,684.329576457,653.677489858,66359331.9426,1820.34040328,45439361.4919,68467380.4619,4758.47337897,4749.13111973,0.0
1.07795362185,0.871125818533,1.02469852392e-05,-29431327.9118,1.70131359137e-05,0.0,5756099.49472,680.304398069,649.391495911,66811296.7238,1730.95075716,35408252.2185,69209324.2834,4474.5854843,4465.94264805,0.0
1.18711766284,0.789219941637,9.97526820699e-06,5347102.48791,2.67804808821e-05,0.0,6989486.21971,687.112964785,656.282317495,65640525.7821,1867.79648945,52999362.0326,66892905.7672,4927.72541845,4916.80698794,0.0
1.07906691657,0.926888778876,1.04538675698e-05,-30307704.9438,1.68562937988e-05,0.0,5687603.90793,680.318011303,649.451275189,66592433.605,1730.16364372,35067893.2951,68887869.4947,4479.20677068,4469.51889627,0.0
0.975954084902,0.960941411109,9.78145164036e-06,-94822318.3686,1.40001045635e-05,0.0,6037355.20692,682.315346767,642.804277755,67500088.3734,1615.07617239,69755605.9163,69992061.799,4051.18540643,4044.52538015,0.0
1.17178631909,0.999043559586,9.94828320105e-06,190723.803237,2.32396381862e-05,0.0,5500513.61948,686.068764651,655.380216601,66090076.6143,1851.86023061,50130020.6185,67739643.4824,4864.08501054,4854.32079474,0.0
1.09472811019,0.952586447664,1.00372876335e-05,-24405093.3835,1.72060668161e-05,0.0,5735146.54114,681.346124559,650.432937138,66767018.4348,1753.50045051,36685072.4764,69052718.723,4544.2163854,4535.50375965,0.0
1.09624489521,1.05129138326,1.02948009614e-05,-23365725.3067,1.64266315718e-05,0.0,5732285.9282,681.256030228,650.571334402,66755764.244,1755.73745195,36993727.8263,68976932.9962,4550.51256002,4541.87508327,0.0
1.24688662726,0.952374114516,9.64994203453e-06,18708941.8285,2.80874887501e-05,0.0,20226231.9056,690.940374425,660.020778279,64839588.9903,1936.76303131,62988624.8112,66460939.978,5175.82638976,5163.40788412,0.0
1.20977661524,0.969615235312,1.02259346888e-05,10988929.4696,2.52020585815e-05,0.0,12245109.1778,688.2418496,657.664632296,65255482.676,1893.0895506,56707207.5545,66258472.0683,5021.78272986,5010.01412375,0.0
1.01617660651,1.01394398645,1.03033590459e-05,-75143528.1526,1.34005502638e-05,0.0,5930029.38509,677.370132809,645.367490583,67258443.3616,1650.08115979,53329519.8439,70690690.1607,4218.14909362,4211.01168223,0.0
1.13912172128,0.815719799576,1.04678993299e-05,-9279423.53079,2.41383731606e-05,0.0,5576102.93879,683.736056978,653.230055185,66319618.4277,1811.21195226,44535029.1665,68042001.5376,4728.49426503,4719.29390861,0.0
1.00136071481,1.09578366672,9.56088857576e-06,-95800173.7107,1.26503319381e-05,0.0,5924556.60718,679.115143745,644.415541796,67184957.9307,1626.28881453,70617009.6637,70837210.0761,4156.64832718,4148.23718622,0.0
0.991158163509,0.997422248435,1.02550336255e-05,-95153349.5817,1.37091118191e-05,0.0,5921269.32467,678.97516965,643.759264654,67170610.4758,1613.38345337,70047419.2504,70296722.1101,4114.29753673,4106.21266018,0.0
1.01922436562,1.14533685449,9.99712424655e-06,-72902222.1184,1.2135876448e-05,0.0,5945666.9934,677.669287504,645.57198142,67311484.2258,1654.23199488,51624248.0996,70939755.1776,4230.80034169,4223.61940493,0.0
1.32422812353,0.790126596476,9.91152327461e-06,31019523.4362,4.24168451685e-05,0.0,32298746.7254,695.993821764,664.926741587,63435184.9732,2024.13733258,70358010.0522,71937644.5338,5496.87094077,5483.10097264,0.0
1.15842135963,1.03653602612,9.71564395718e-06,-4075828.21915,2.07388256639e-05,0.0,5530427.70715,685.362994192,654.497969925,66187326.0884,1834.03535197,47883544.1275,68469303.2472,4808.60706382,4798.52210351,0.0
1.01528765426,1.04868922701,1.00728932013e-05,-76987994.7368,1.3166687967e-05,0.0,5873285.80537,677.642190741,645.293864952,67064659.3219,1645.28028166,54771891.7942,70627322.7631,4214.45905283,4205.90026411,0.0
1.02659646072,1.22911701692,9.51296816481e-06,-68606412.3941,1.16261799873e-05,0.0,5950013.46977,678.277823772,646.045980662,67335130.3281,1663.90514705,48494809.1716,71199004.6856,4261.40190845,4254.11590379,0.0
1.22031876088,1.05238697428,1.00793696833e-05,12950137.3043,2.43731673161e-05,0.0,14138271.2251,688.993636973,658.372789604,65131378.4154,1905.19719291,58350467.994,66435995.3564,5065.54317641,5053.46231317,0.0
1.009054304,1.07351932315,9.76788907169e-06,-87394239.6611,1.26492639752e-05,0.0,5976900.40881,677.975628806,644.92830232,67368462.3906,1640.52114273,63332392.8072,70958603.8771,4188.5844159,4181.54735369,0.0
0.907291976952,0.870371649644,9.70482517032e-06,-91600283.3181,1.4430035077e-05,0.0,6174580.22792,692.792444506,638.37512582,67812342.6121,1603.45274333,66919494.8223,67812342.6121,3766.16899633,3760.20696636,0.0
1.06909899504,0.836941664754,1.03296460613e-05,-33870256.3538,1.68485969689e-05,0.0,5782469.0232,679.595999148,648.705312431,66882416.6945,1719.8218007,34740396.8562,69632148.4591,4437.82992841,4429.41956825,0.0
1.18793185623,0.987010031867,9.80193163125e-06,5288939.67943,2.24623028445e-05,0.0,6890494.91706,687.127830202,656.328263975,65690910.6743,1867.95770753,53029934.4306,66988268.9589,4931.10513521,4919.9392713,0.0
1.17019182608,1.23466220558,9.59896947444e-06,-1008573.28856,1.86363840236e-05,0.0,5532517.63273,686.079459856,655.28297785,66206000.4295,1849.38253187,49581966.5482,68039298.4086,4857.46627006,4847.506498,0.0
1.03216890063,1.16823793235,1.00187270231e-05,-59886654.9795,1.22756796203e-05,0.0,5867224.74482,678.054798287,646.37273863,67088719.0388,1669.14544556,42619090.2272,71100251.7255,4284.53310652,4276.12368624,0.0
1.04743276955,0.68753788247,1.00635336026e-05,-47467091.1756,1.7362447693e-05,0.0,5801089.80244,678.845766882,647.339533749,66911535.3016,1689.72698272,36550429.4629,70349766.6788,4347.8934264,4339.23939904,0.0
1.0522063376,1.033560531,9.83133164644e-06,-45889509.1924,1.38758954731e-05,0.0,5815651.59646,679.109947536,647.643672664,66956361.3229,1695.32537516,36057101.4949,70588521.5545,4367.70850738,4358.79852132,0.0
1.2282763991,0.954187521509,9.90108045714e-06,14741583.1962,2.67035499338e-05,0.0,16140861.5043,689.478270186,658.815368841,65198138.6331,1916.27101925,59905736.4883,66734756.4505,5098.57533266,5086.9613882,0.0
1.0650055722,0.797865922221,1.00423131664e-05,-35615914.9094,1.68532271014e-05,0.0,5798249.43042,679.606067085,648.466769995,66922968.0687,1713.9697611,34647041.4098,70113589.5895,4420.8381302,4412.39796569,0.0
1.17875113338,1.05624129847,1.03022568654e-05,3332073.39249,2.14086601884e-05,0.0,5359036.7178,686.262725969,655.730339346,65596757.0867,1855.43082596,51485493.1864,66911958.9992,4892.99595466,4881.57694761,0.0
0.980795024466,0.914897047031,9.95042178604e-06,-94975815.2038,1.4343768347e-05,0.0,6016724.10916,681.185166673,643.114162993,67448119.1353,1614.53014294,69890916.1865,70129929.7672,4071.28014656,4064.55436013,0.0
1.16197236916,0.82117576265,9.89829220523e-06,-2392874.46869,2.36446880944e-05,0.0,5434765.5677,685.683270434,654.739318652,65870059.826,1836.29621975,48465444.814,67681321.8827,4823.34730438,4812.43826333,0.0
1.19332812366,0.799809041743,1.02667695251e-05,7176044.30937,2.74792888228e-05,0.0,8595758.74412,687.414157701,656.704651601,65391908.3759,1874.18512483,53808581.3384,66406213.3643,4953.50504131,4942.15235086,0.0
1.03630469558,1.1506305842,1.01715528008e-05,-54112622.2137,1.24054295162e-05,0.0,5850348.35365,678.053478434,646.620240711,67041857.3998,1674.42779093,39405221.8947,71159436.7409,4301.70079135,4293.13902181,0.0
1.11393733062,1.34480658107,1.00907801026e-05,-16361811.6368,1.40096791838e-05,0.0,5653683.24684,682.255235968,651.613759663,66513627.5182,1775.4632246,40609846.7068,69358717.7805,4623.9538594,4614.05513553,0.0
0.955064282551,0.974509340303,1.00380006528e-05,-93709057.1149,1.38233690714e-05,0.0,6077075.10856,685.185236785,641.458064775,67603611.1524,1611.92461491,68775645.4696,68997826.5208,3964.47183687,3958.17224783,0.0
1.11425569783,0.754612555048,1.0310656287e-05,-15808183.6493,2.15536600682e-05,0.0,5619077.15815,682.37711074,651.6218989,66398925.8378,1777.61688341,40790531.6679,69215777.8709,4625.27540169,4615.76286847,0.0
0.986115457725,1.01730420377,9.69971768205e-06,-95134354.1382,1.36545685618e-05,0.0,6005339.2032,681.324423737,643.454236934,67421526.6944,1619.00890903,70030538.1849,70271394.5228,4093.36526502,4086.3063166,0.0
0.966619339959,0.848762567875,1.01330437953e-05,-94052086.8891,1.49832229015e-05,0.0,6024331.45865,683.589119117,642.196588432,67460784.9742,1614.26328935,69077680.9621,69305639.2355,4012.43688017,4005.68672167,0.0
1.16044798543,0.893157563585,9.5708762307e-06,-3835905.09308,2.32430806842e-05,0.0,5514843.85669,685.667892868,654.626879965,66138268.6837,1836.85600746,48087519.4517,68401103.403,4817.01958752,4806.90037503,0.0
1.01141381165,0.796136844175,9.95812664924e-06,-82499782.5874,1.49179450644e-05,0.0,5950790.90602,677.75323533,645.070017598,67294207.5453,1643.89653752,59230824.4777,70824727.6683,4198.37873216,4191.30840117,0.0
1.10961861651,1.12662377778,9.79230506412e-06,-18074766.9655,1.55636020296e-05,0.0,5669250.55214,682.335759207,651.393399297,66560367.0349,1770.2557563,39689450.0605,69011534.7896,4606.02687713,4596.20293637,0.0
1.11836609334,0.987725451411,9.76176094166e-06,-17380238.2008,1.8395220699e-05,0.0,5676622.02813,682.868822831,651.908931251,66599985.6168,1784.05937876,40133482.3191,69340154.2781,4642.33765345,4633.14824629,0.0
0.951328303433,0.898993524954,1.01820521804e-05,-93432741.4045,1.42108972027e-05,0.0,6061149.8094,685.466539426,641.211767558,67548100.6622,1609.41732911,68532437.7571,68752246.0151,3948.96378755,3942.42782841,0.0
1.09319753979,0.845127872066,1.02542467329e-05,-24201694.8496,1.85376120981e-05,0.0,5722418.22337,681.156779791,650.338059457,66714560.2506,1751.5780635,36659033.2745,68916020.2542,4537.86298767,4529.17437012,0.0
1.03302420193,0.936890055161,1.01093707341e-05,-57436471.094,1.42876470868e-05,0.0,5846719.94844,678.065248734,646.415887563,67025965.1302,1670.22445646,41157445.8546,71010569.9951,4288.08346221,4279.57343276,0.0
0.953467755996,1.03809407038,9.61515137931e-06,-93747537.709,1.3478930861e-05,0.0,6100877.13628,686.591183878,641.357726209,67668548.1514,1615.97734621,68809451.0359,69030893.4142,3957.84465514,3951.56635515,0.0
1.11642917478,1.04056961723,9.93185260581e-06,-15874724.4738,1.75370026131e-05,0.0,5674445.52776,682.581838951,651.774554026,66583777.2502,1780.83319933,40855286.3766,69466676.9824,4634.29750451,4625.04856902,0.0
1.03169646646,0.704617450627,9.87940378805e-06,-59647763.6881,1.63335854799e-05,0.0,5896981.69297,678.230155698,646.362250685,67186529.5634,1671.07938126,42566626.363,71002820.1293,4282.57203228,4275.21296181,0.0
1.10722890461,1.19884294987,1.00582693423e-05,-18312925.4947,1.48860342924e-05,0.0,5668060.35741,681.990105921,651.240193059,66544975.5709,1766.95639053,39439047.6408,68918891.5471,4596.10718304,4586.32421046,0.0
1.07825184696,0.638993123662,1.02257569381e-05,-30470478.6699,2.04644635738e-05,0.0,5758765.16683,680.430759875,649.414932815,66829017.2757,1732.77446018,35194796.9042,69167589.5058,4475.82341673,4467.56107996,0.0
1.12946196195,1.36376862188,9.63468418841e-06,-12719418.4656,1.45007538277e-05,0.0,5659398.62561,683.484053988,652.636347183,66559859.0578,1797.10464135,42737133.7993,68112710.8969,4688.39660405,4678.8085226,0.0
0.983396564256,1.06638842071,1.00247870421e-05,-94963823.1832,1.30009993986e-05,0.0,6003268.78677,680.79798247,643.27697497,67413063.5477,1615.16579686,69880281.3075,70119285.7166,4082.07913823,4075.05948117,0.0
1.05457227701,0.819833370503,1.02422134439e-05,-41674440.5751,1.61484694938e-05,0.0,5801863.15171,678.918526917,647.769658467,66924319.8897,1699.73248845,35061972.8925,69996983.1657,4377.52952187,4368.99807822,0.0
1.03597717454,1.22712422456,9.94684600433e-06,-57155587.7394,1.1897531554e-05,0.0,5864753.59746,678.235069756,646.613495508,67085697.8945,1674.13826753,41041095.4189,71083623.5711,4300.34125152,4291.87192827,0.0
1.14708346382,1.28035777578,9.77830485328e-06,-6913720.01993,1.64952755425e-05,0.0,5568925.80855,684.446061052,653.723807585,66295219.7254,1818.45221419,46414295.0784,68752682.7966,4761.54345832,4751.35404142,0.0
1.19748516152,1.10399738738,1.00517780118e-05,7612884.76391,2.14140259492e-05,0.0,9011506.07611,687.54531193,656.965611636,65529083.4272,1879.07740294,54288738.6485,66624952.719,4970.76090547,4959.3937476,0.0
1.08605660223,1.09050949413,1.00465384523e-05,-27316322.5526,1.48664941108e-05,0.0,5768935.26443,680.817423695,649.916025008,66858161.652,1742.05203365,35942784.0642,69323098.6472,4508.22095586,4499.64399106,0.0
1.03884092096,1.13221936968,1.01980298089e-05,-52476899.8127,1.25258030107e-05,0.0,5851172.95842,678.154049254,646.795715798,67051262.0127,1678.36915812,38601114.0474,70924536.9582,4312.22866291,4303.7997743,0.0
1.12948282523,1.05171894986,9.67776298304e-06,-12582070.5927,1.82099352011e-05,0.0,5634720.89507,683.595972682,652.638596783,66484604.5735,1797.38264185,42814798.3215,67952299.6598,4688.48320753,4678.89478096,0.0
1.04703510914,0.781375158673,1.02753578345e-05,-45747075.7352,1.63584886975e-05,0.0,5798621.30687,678.582315716,647.303589836,66901856.9311,1688.83020409,36008512.0827,70320137.8592,4346.24273804,4337.50631466,0.0
1.02412328258,0.74186641542,1.0314954259e-05,-65167930.5303,1.58790001676e-05,0.0,5843045.30461,677.674099203,645.849386028,67004858.9342,1658.35309831,46008633.6296,70751150.1869,4251.13574599,4242.76943582,0.0
1.02242692968,0.825138469884,9.94031965403e-06,-69441150.1731,1.4947290488e-05,0.0,5924283.3404,677.87305753,645.770800165,67252609.7353,1658.64662079,49056867.4073,70856246.2014,4244.0941851,4236.86768496,0.0
1.12512918737,0.996120150056,9.73304466483e-06,-13679536.4817,1.86836332253e-05,0.0,5604081.50406,683.338147422,652.327090423,66372809.3298,1790.04053321,42145215.1244,68005737.4844,4670.41125677,4660.3149352,0.0
1.1163416136,1.03619702244,9.62563935219e-06,-16501853.442,1.71203617387e-05,0.0,5646700.41551,682.858872689,651.784051258,66499367.0789,1779.05571547,40711371.2342,69366128.0105,4633.93403805,4623.99480015,0.0
1.14009530585,1.17660767246,9.99842569139e-06,-8943251.9688,1.79168475107e-05,0.0,5618529.15404,683.932114606,653.318875234,66451816.9183,1811.64655434,45212765.3456,68226563.7065,4732.53561458,4723.19048206,0.0
0.98372918554,1.04906593615,9.64289530609e-06,-95055230.8268,1.33436149441e-05,0.0,6015737.04098,681.811684387,643.301329957,67447318.2478,1619.06141686,69960782.8756,70200534.2048,4083.45984918,4076.43520801,0.0
0.972227964221,1.05584465428,1.0029257374e-05,-94373370.16,1.33191936012e-05,0.0,5993000.39678,682.644341667,642.549579322,67360167.5375,1612.36277864,69360563.3252,69592368.8084,4035.71827948,4028.24725826,0.0
1.15983344766,1.09855641203,1.02778850585e-05,-1475644.01817,1.91877858021e-05,0.0,5464096.79804,685.100366217,654.601176026,65917808.2789,1833.17043369,48936884.237,67730675.193,4814.46864124,4803.71433664,0.0
0.961074306633,0.700055286962,1.01370984245e-05,-93799125.0765,1.60441692526e-05,0.0,6029837.60575,684.411462432,641.839490772,67467383.6603,1612.93161486,68855055.2454,69079439.0925,3989.41944683,3982.74730522,0.0
1.02359589475,0.769842114054,9.85031414459e-06,-68820690.5951,1.54690678572e-05,0.0,5922348.0681,678.007801717,645.848138312,67248348.874,1660.22699996,48616349.4633,70936015.9879,4248.94655911,4241.70339732,0.0
1.07992095015,0.906895554147,9.94813792235e-06,-29782299.0648,1.65142099699e-05,0.0,5776960.77281,680.605897667,649.515379619,66871219.2009,1734.16804119,35522564.3402,69324594.9562,4482.75186407,4474.27036079,0.0
1.05910923391,1.00040805481,9.85209746285e-06,-40940267.7087,1.43370351129e-05,0.0,5813638.4542,679.38562562,648.062484935,66959451.7755,1705.33437805,34986482.5515,69715221.9204,4396.36242996,4387.66585654,0.0
1.03727948175,1.03657092405,9.64197948994e-06,-57344747.6662,1.34449208848e-05,0.0,5908521.26021,678.545061008,646.720714417,67229530.5817,1678.29351435,41241329.5381,71194526.514,4305.74712874,4298.30915755,0.0
1.04190240331,1.09155019103,1.01500107174e-05,-49865961.1991,1.30846665632e-05,0.0,5835085.56988,678.321056651,646.963227221,67002179.4334,1681.89962835,37479207.4259,70962118.6406,4324.93687614,4316.28419874,0.0
1.02788871381,1.04096632103,9.71081283726e-06,-64986290.4193,1.31969166366e-05,0.0,5929677.79694,678.170612619,646.123512915,67279268.5744,1665.78320361,45964732.3911,70992081.5519,4266.76605103,4259.46156211,0.0
1.13635457983,1.03737668172,9.89919202409e-06,-10856887.5494,1.92103492531e-05,0.0,5602234.29983,683.808630334,653.013941865,66383912.704,1806.29538126,43966217.1921,67755846.0376,4717.00786087,4707.30438694,0.0
1.07816758078,1.15898720959,1.01256893697e-05,-31035872.0425,1.3952908726e-05,0.0,5796818.56556,680.284046688,649.403898182,66943709.2215,1732.28381116,35197803.3791,69305212.3755,4475.47362782,4467.21257286,0.0
1.1109788223,0.765319259835,1.04680397523e-05,-16343299.0019,2.1172887155e-05,0.0,5623789.31792,682.083184377,651.428943675,66411354.7781,1773.32977141,40388212.8554,69082933.4549,4611.67309137,4602.216476,0.0
0.946705705171,0.957389965255,1.00106865497e-05,-93377781.7531,1.376742209e-05,0.0,6097333.09613,686.331224911,640.919888948,67651623.457,1609.63443982,68483929.8655,68701597.8725,3929.77538216,3923.59001409,0.0
1.14228682241,0.84783988002,9.98814583882e-06,-9156648.94061,2.32216005298e-05,0.0,5584251.01889,684.246485949,653.444210921,66330387.1724,1815.05289886,44831082.041,68165606.4006,4741.63259982,4732.24923051,0.0
1.05333093395,1.06700863623,9.52684253432e-06,-44709285.1794,1.31897331361e-05,0.0,5838632.17632,679.339484283,647.721443703,67021710.8795,1697.04456006,35846882.6504,70726596.9175,4372.37670683,4363.59322182,0.0
1.1472974061,0.881815303175,9.94359398019e-06,-8037729.15032,2.31329966928e-05,0.0,5579215.54392,684.530653518,653.743566118,66328816.1786,1821.74869509,45455976.4476,68474262.9097,4762.43153272,4753.07568111,0.0
0.98576450842,0.902926062739,1.03221438888e-05,-94899326.1836,1.42971171173e-05,0.0,5927940.72616,679.59203674,643.413605945,67180506.3729,1609.33873645,69823752.6164,70064527.7916,4091.90847445,4083.90965344,0.0
1.07843293029,0.92653568076,1.00223668197e-05,-30106057.3546,1.62374166293e-05,0.0,5779178.2007,680.454383814,649.414436576,66876872.6271,1732.20151091,35444339.3777,69309724.5367,4476.57509363,4468.11667563,0.0
0.972159488815,0.853421524835,1.02167662343e-05,-94343512.2777,1.49542778615e-05,0.0,6022943.42541,682.47466291,642.556612916,67471992.0615,1614.98829296,69334263.3285,69565707.4413,4035.43403807,4028.90290205,0.0
1.23194754723,0.954289034828,9.84843933022e-06,15788290.9752,2.69688904711e-05,0.0,17241489.562,689.867521037,659.143211291,65132278.0692,1920.16608974,60727718.1348,66804606.3909,5113.81426855,5102.07661052,0.0
1.04405569662,0.874331379732,9.6007448886e-06,-51180187.2927,1.51184790901e-05,0.0,5833244.29431,678.965281128,647.108070639,66998338.3953,1684.57826363,38100818.4223,71073564.5095,4333.87519667,4325.09957169,0.0
1.04817081018,0.937263398243,1.0220840544e-05,-46237648.8392,1.48600354911e-05,0.0,5807415.55716,678.642003373,647.378073692,66931377.2056,1690.36114117,36103347.564,70327123.3438,4350.95703306,4342.20209678,0.0
1.06571055819,0.993953160303,9.98002250245e-06,-36376563.1838,1.46544429048e-05,0.0,5811188.75758,679.627094506,648.51203733,66963122.3577,1714.9532848,34656865.3959,70210948.3905,4423.76452705,4415.31304207,0.0
1.13922272781,1.14510297871,1.00349693703e-05,-10091808.7236,1.83432695643e-05,0.0,5625114.39647,683.908785843,653.283861882,66458434.9785,1811.21571882,44321636.4927,68068996.2839,4728.91354314,4719.68497454,0.0
1.02590565364,0.857248387112,9.83188925677e-06,-66168584.6616,1.47749159998e-05,0.0,5920968.23177,678.046195607,645.984563877,67249280.5177,1663.26043084,46752418.8168,70983620.4542,4258.53436826,4251.25823666,0.0
1.08845470138,0.953409614079,9.74580863138e-06,-26990622.0967,1.62884338785e-05,0.0,5763157.90113,681.224261303,650.069358438,66844575.2774,1745.10697207,36075368.6057,69392997.0564,4518.17546543,4509.46359396,0.0
1.0977073715,0.980501837356,1.02643275849e-05,-22782757.842,1.7322775648e-05,0.0,5718530.09242,681.400557766,650.672940478,66710780.0926,1757.33688386,37151974.8281,68645494.7878,4556.5832991,4547.82386371,0.0
1.06245274423,1.26954086268,9.90627783075e-06,-38241328.0023,1.19479425969e-05,0.0,5837314.46317,679.41238048,648.301414781,67036516.9716,1710.47208753,34736113.2491,70083195.0275,4410.2413413,4401.84075405,0.0
1.08775216647,0.967629630119,9.8353151245e-06,-27346353.3024,1.63380038193e-05,0.0,5764469.44212,681.119694372,650.025474268,66843165.2517,1744.37786325,35995872.3933,69364139.7594,4515.25924302,4506.6558206,0.0
1.22635995318,1.26979560274,9.56872611334e-06,13639864.3571,2.02894679413e-05,0.0,15096902.979,689.494949858,658.767255199,65255831.6751,1912.6666523,59025584.7257,66692981.2057,5090.62016565,5078.50509673,0.0
1.12468018848,1.00811300521,1.02859530604e-05,-13441630.1815,1.94661165527e-05,0.0,5649327.26805,682.89531789,652.330947224,66517660.1943,1792.62477552,42249665.016,68149691.2001,4668.54746238,4659.57523347,0.0
1.07126620258,0.808220887361,1.03701464985e-05,-31902070.4874,1.74656792956e-05,0.0,5769544.9229,679.817862119,648.925732574,66834566.2096,1722.51858964,35028454.5942,69365864.1604,4446.82600691,4438.3821837,0.0
1.10757441954,0.858579710189,1.0234350249e-05,-17905308.2094,1.93379914795e-05,0.0,5658375.15302,682.010554016,651.260774133,66531375.4488,1768.74354194,39742499.6874,68900049.6424,4597.54141551,4588.23978281,0.0
1.13157189823,1.05494655881,1.0487318721e-05,-10919258.9952,1.90096089564e-05,0.0,5572565.72773,683.076611756,652.66087207,66290766.501,1799.10287368,43668969.9663,72093545.7364,4697.15494955,4687.25276449,0.0
1.05255568372,0.8283936457,1.02805335062e-05,-42479631.0212,1.59493419952e-05,0.0,5805910.92713,678.789687191,647.649339119,66933402.56,1697.04369174,35180661.337,70393800.6554,4369.15864312,4360.65912346,0.0
1.08915771822,1.25762485859,9.82244470795e-06,-26876112.1481,1.32816408199e-05,0.0,5785202.02856,681.089912789,650.11407232,66907667.7028,1746.33821288,36164226.6613,69461183.6821,4521.09368833,4512.56565446,0.0
1.17788218412,0.872947452104,1.03884642637e-05,3468515.57512,2.46961552687e-05,0.0,5509784.99152,686.247216609,655.684031735,65625174.6621,1855.64850655,51569438.5142,66871226.3038,4889.38894628,4878.40526328,0.0
1.14096213292,0.98234061539,1.01045153341e-05,-9072056.34517,2.05397321215e-05,0.0,5550389.32332,683.964556372,653.257903165,66217730.6945,1811.28509755,44826208.3099,68161212.6409,4736.13381375,4726.04703879,0.0
1.14520620554,1.14668893211,9.90256643737e-06,-8413705.66813,1.81726718079e-05,0.0,5561709.349,684.217230345,653.501171984,66255133.4192,1816.54874282,45264871.626,68460620.8387,4753.7509592,4743.59152925,0.0
1.13274475452,0.871481738024,9.84566530693e-06,-11424834.7514,2.13193599393e-05,0.0,5599676.43791,683.802859248,652.860149982,66369315.9871,1801.7007256,43533271.7646,67538292.6329,4702.02347601,4692.38102908,0.0
1.13369956002,0.93052650379,9.91545380784e-06,-10396974.3194,2.05158135254e-05,0.0,5606502.02377,683.751295001,652.928585984,66401099.1885,1802.9222087,44217364.9014,67738181.4178,4705.98687364,4696.45935697,0.0
1.04350051116,1.04387680293,9.90447475373e-06,-50870073.2422,1.36397833684e-05,0.0,5836254.87607,678.731243412,647.142958411,67009067.1044,1684.21822725,37887014.5948,70984587.7185,4331.57062183,4322.98023445,0.0
1.06100591246,1.00103198581,1.03410723139e-05,-37488332.2115,1.46172938649e-05,0.0,5811979.94688,679.103192594,648.206970095,66957351.2332,1709.05412297,34632210.0217,69960389.5341,4404.23554262,4395.95202557,0.0
1.12142869788,0.686805195238,1.01552637489e-05,-13729781.402,2.34063317638e-05,0.0,5583968.33862,682.99786348,652.096534973,66310726.3213,1786.48682567,42067268.9826,68101615.2188,4655.0505249,4645.3201227,0.0
1.12420205672,0.931847115483,1.00549224411e-05,-13244097.2826,1.97022093195e-05,0.0,5604734.93053,683.089487812,652.279384049,66377776.1848,1789.7794433,42389689.7518,67564199.8343,4666.56273744,4656.78559729,0.0
1.09643693048,0.754165573615,1.00300953232e-05,-23784065.6648,1.99695479105e-05,0.0,5715386.01569,681.561888941,650.563544142,66708542.5242,1755.9223822,36863616.9858,68987707.5264,4551.30969842,4542.56947909,0.0
0.96203569339,0.935820413569,9.51386149709e-06,-94122305.4988,1.43661014074e-05,0.0,6048019.63504,685.421894537,641.901561673,67499829.4074,1615.32317675,69139414.6556,69365647.9137,3993.41016326,3986.379751,0.0
1.03180220382,1.17272323519,9.56777292733e-06,-62607490.1652,1.22447307336e-05,0.0,5874026.70048,678.439839962,646.352494146,67102281.615,1667.72195434,44391125.1366,71193206.7324,4283.01094806,4274.33806069,0.0
1.08856311832,1.11467661294,9.97670680036e-06,-26684380.257,1.47175947505e-05,0.0,5766763.96306,680.993433713,650.069621467,66854031.6983,1745.32010136,36111320.9884,69336716.7634,4518.62550415,4510.00941583,0.0
1.00603491356,0.953705919664,1.00722934796e-05,-89376745.3669,1.40833529123e-05,0.0,5887044.83719,677.924631191,644.704747721,67084073.3707,1632.97666245,65024546.0559,70775790.8112,4176.05092619,4167.64433474,0.0
1.10000433549,1.13969731061,9.74944381858e-06,-21725602.8826,1.48210511779e-05,0.0,5679386.21901,681.84193215,650.794275873,66572610.5296,1756.95862705,38029609.599,68686363.3585,4566.11799662,4556.08126756,0.0
1.12954900694,1.16454765054,1.01039229133e-05,-12124841.2663,1.69744177354e-05,0.0,5605875.86268,683.298917749,652.637838616,66372771.4434,1796.53716299,43083096.2715,67384648.8547,4688.75792781,4678.89001251,0.0
1.04526870682,0.870538557439,1.04161640645e-05,-47213704.5332,1.54633119391e-05,0.0,5808373.50324,678.377192473,647.201036418,66929351.8103,1687.00911694,36482161.0846,70274795.3569,4338.91040201,4330.38029161,0.0
1.10489966837,0.845828165223,9.70412203777e-06,-20347363.8203,1.8898420637e-05,0.0,5636945.2687,682.330180374,651.108979063,66450238.4707,1763.52339887,38652539.9519,68560871.596,4586.4385234,4576.31508616,0.0
1.02864455345,0.918052846835,1.01588781952e-05,-61074776.8987,1.43271387831e-05,0.0,5853176.57217,677.888819897,646.148006432,67039134.6296,1664.42420891,43331439.2089,70867067.091,4269.90354137,4261.46419847,0.0
1.10996675625,0.897795946386,9.89072859894e-06,-17685446.6322,1.86656604515e-05,0.0,5636368.21854,682.412075563,651.402592976,66456499.8665,1770.59116196,39920758.0995,68978671.932,4607.47200519,4597.54501975,0.0
1.1594851502,0.946611684742,1.00023981685e-05,-2883707.17998,2.13067483683e-05,0.0,5456650.99606,685.375621402,654.585041887,65938598.957,1833.01069363,48147137.1264,67948787.3208,4813.02285848,4802.18392455,0.0
1.1875721011,0.878646252865,9.67140621408e-06,4959574.11193,2.44391945619e-05,0.0,6659177.60947,687.239727693,656.309908895,65736769.9602,1868.49459353,52907478.13,67050684.2539,4929.61179167,4918.67858893,0.0
1.11673865269,0.979246437654,9.62052999928e-06,-18436526.5612,1.84476096535e-05,0.0,5699586.68763,682.922055599,651.85140229,66677198.3395,1782.6731771,39400843.931,69214057.6235,4635.58214732,4626.62224227,0.0
1.13230807026,0.934755574033,9.56947340255e-06,-12002696.7637,1.99946898539e-05,0.0,5572754.81542,683.970694222,652.812983738,66291991.885,1799.40821588,43037159.4031,67555131.8171,4700.21079965,4689.87142009,0.0
1.01289532615,0.955153021674,1.04165407386e-05,-75109638.358,1.39021930046e-05,0.0,5880025.61642,677.332711406,645.139960511,67080176.2843,1643.38839,53302851.0778,70534894.7848,4204.52849885,4196.42588562,0.0
1.26286191562,0.918252391336,9.60618037952e-06,21949366.8851,3.05420249819e-05,0.0,23792566.9774,691.974984007,661.037623278,64694277.1571,1955.89827781,65601338.3628,66422287.7355,5242.13981174,5229.7890524,0.0
1.15523346682,0.975041355196,1.04684672369e-05,-2260466.05322,2.1273123797e-05,0.0,5432820.87776,684.813740039,654.301054517,65823815.0476,1826.62207936,48424078.3388,67814764.955,4795.37412077,4784.39638843,0.0
1.18808582329,0.726461650768,9.99578669914e-06,5484989.30666,2.8583156713e-05,0.0,7048530.41358,687.312804043,656.327103629,65406822.7936,1867.54235967,52870183.3857,66687697.8614,4931.74425248,4920.16807703,0.0
1.07986976047,0.918801711536,1.0042304876e-05,-29472294.8358,1.64378363015e-05,0.0,5774019.69666,680.537381322,649.516766476,66863567.3004,1734.090962,35545481.1236,69300079.8607,4482.53937571,4474.05866702,0.0
1.10329521967,0.83714943433,9.71782643091e-06,-19347911.5536,1.8308583218e-05,0.0,5696582.13887,682.134654751,651.03062124,66628109.2988,1763.24684515,39101969.5289,68643283.189,4579.77845685,4570.46669383,0.0
0.95691075878,0.827738116826,1.0102470133e-05,-93748913.3689,1.48507660011e-05,0.0,6063893.64075,684.810313858,641.576561807,67569296.4572,1611.88270912,68810799.6109,69033519.9604,3972.1365597,3965.81213524,0.0
1.0446908855,0.834894126468,9.92971440566e-06,-51011743.0313,1.56978748994e-05,0.0,5869590.97848,678.671237448,647.192327029,67123059.0382,1688.37632807,38029233.8752,70963348.3393,4336.51186571,4328.96668854,0.0
1.16582664104,0.955769882957,9.93023128068e-06,-69942.1046308,2.16567148765e-05,0.0,5434003.33504,685.76668568,654.972958148,65855731.5691,1840.42294116,49941250.2805,67722515.6482,4839.34638696,4828.3705205,0.0
1.12680154631,0.718274361355,1.02127384816e-05,-12960534.7094,2.40985732473e-05,0.0,5620830.09902,683.230708072,652.473917128,66431714.8996,1795.67911614,42564973.8849,67861010.5624,4677.35321873,4668.34856769,0.0
1.20456907312,0.942368501131,1.00821528876e-05,9691417.29165,2.52019705581e-05,0.0,11043219.8932,688.047874163,657.339232335,65267446.445,1886.54491608,55729871.1676,66837330.7719,5000.16622252,4988.2772229,0.0
0.97741329948,1.24436752308,1.01215027785e-05,-94729026.4291,1.14470799973e-05,0.0,6022802.26871,681.318807436,642.892363079,67465090.0739,1612.78409939,69673488.7876,69909222.8173,4057.24260614,4050.31099586,0.0
1.12843925614,0.949180999257,1.01268321871e-05,-12289623.188,1.99391494463e-05,0.0,5591373.04864,683.226484393,652.484803933,66327688.3601,1795.34570568,42927249.7574,67255576.1611,4684.15135224,4674.30221717,0.0
0.998763168602,0.876048937471,9.80514081023e-06,-95843879.653,1.44128963986e-05,0.0,5986735.70924,678.763083557,644.271157898,67384936.1252,1626.62621876,70655348.7191,70913025.2147,4145.86591287,4138.97321362,0.0
0.925584958772,0.614008269065,9.71218437734e-06,-92369223.84,1.71772234872e-05,0.0,6136746.72486,690.609296822,639.559650185,67736528.8174,1609.84633994,67596382.0703,67801777.6641,3842.10316386,3836.22401068,0.0
1.23820779432,0.886809336873,1.01409128404e-05,17466947.9351,2.94823380116e-05,0.0,19021261.5511,690.174759887,659.501953066,64902112.3824,1926.60843626,62002445.336,66933288.6318,5139.80055422,5127.78384274,0.0
1.06796973255,0.710447468988,9.9891540768e-06,-34452873.7153,1.80881503202e-05,0.0,5786917.39097,679.848342098,648.65971567,66882405.4291,1717.93283216,34748442.786,69956828.0071,4433.14235982,4424.65579907,0.0
1.05276480938,1.11703359025,9.66082428594e-06,-44436306.6796,1.27370504745e-05,0.0,5837978.55545,679.186199157,647.685739521,67020753.6839,1696.28041771,35717737.0084,70681806.6298,4370.02672374,4361.25247797,0.0
1.2545981718,1.0162764071,1.02038591705e-05,20798297.7301,2.90716992086e-05,0.0,22696085.0928,691.061263624,660.502514384,64753447.5661,1945.50407472,64778182.3111,65599337.3399,5207.83701114,5195.69750742,0.0
1.15580107914,1.0244752092,1.03267356942e-05,-2367918.288,2.00891266276e-05,0.0,5468832.3266,684.874599341,654.352011316,65929594.4721,1828.25523816,48447294.6912,67913287.2235,4797.73027951,4787.04889438,0.0
1.16432093862,0.792561069309,1.00151218258e-05,-477300.550188,2.4626726756e-05,0.0,5414472.59827,685.756861003,654.878219701,65775406.6406,1838.88629581,49638219.6324,67621415.5065,4833.09621621,4822.14578064,0.0
1.18865918123,0.896287141721,1.00051185128e-05,5460073.70547,2.43956227006e-05,0.0,7025290.49825,687.134213583,656.381058422,65603060.5994,1868.97871115,52970677.4929,66814417.7997,4934.12426129,4922.96323685,0.0
1.16874716063,1.18077812192,9.93910071867e-06,742969.661487,1.82091478699e-05,0.0,5448607.60871,685.781769179,655.154965428,65902207.7744,1843.65219638,50378007.4047,67618719.1676,4851.46946378,4840.44122349,0.0
1.11763060064,1.23033338508,1.0607959021e-05,-14431394.5965,1.57619732056e-05,0.0,5631598.50737,682.168037492,651.847234725,66449114.7058,1781.30667329,41520061.3568,68347628.2729,4639.28462326,4629.71595554,0.0
1.15692016669,0.834899924401,1.01380934405e-05,-4869456.45643,2.52561470507e-05,0.0,5528327.03254,685.165263839,654.456563069,66186260.3068,1833.87975768,47123700.5511,68392471.5599,4802.37561193,4792.86345711,0.0
1.11280972536,1.01764133696,9.96534065944e-06,-18644266.2607,1.7844294864e-05,0.0,5692483.34553,682.443168289,651.598073652,66640036.3497,1777.01537052,39211514.1476,69057327.7898,4619.27316997,4610.2736561,0.0
1.16881693427,1.00140773993,1.01612979403e-05,936371.17036,2.14234427297e-05,0.0,5447284.31978,685.747771898,655.170484783,65889596.6266,1845.10532199,50277526.407,67507102.0297,4851.75909415,4841.14623163,0.0
1.01268012036,1.08863783308,1.03224552273e-05,-72809784.4879,1.22834554454e-05,0.0,5911094.78235,677.222402331,645.135675038,67160753.7774,1643.35581935,51501708.0953,70757686.4479,4203.63517961,4195.85225132,0.0
1.12029636238,0.897680933337,9.67992545447e-06,-15069574.9801,1.93710804781e-05,0.0,5632054.57466,683.09467176,652.008308663,66456728.5307,1784.84763472,41339823.5137,69184045.4368,4650.35020024,4640.53932076,0.0
1.0052499912,1.03331761464,1.02732756721e-05,-88964836.8115,1.30470566815e-05,0.0,5959780.70544,677.419612214,644.673472321,67319108.266,1635.35815779,64705893.6516,70773064.9189,4172.79271347,4165.81078481,0.0
1.19219038742,0.864315908358,9.94184613983e-06,6235880.52863,2.52816009574e-05,0.0,7782102.93866,687.445485148,656.626044541,65542716.721,1873.30855338,53392538.3664,66677486.705,4948.78229818,4937.53775231,0.0
1.13765437443,0.920663117075,1.01502350358e-05,-10198145.1677,2.16834485807e-05,0.0,5600170.63115,683.853806959,653.183885782,66377504.1471,1809.06391085,44228748.2483,67937539.8855,4722.40330826,4713.12067474,0.0
1.11320362851,0.899229420354,9.75770103679e-06,-17043431.3001,1.87052530923e-05,0.0,5639525.93877,682.673315723,651.603275488,66474797.935,1775.11586403,40255538.3905,69144143.1436,4620.90826195,4611.02290558,0.0
1.16018307827,1.05331157444,1.01798070577e-05,-2156633.55246,1.99092134303e-05,0.0,5493421.15712,685.18424378,654.63438429,66049647.9267,1834.97313974,48625610.1655,67934371.5713,4815.9199579,4805.57448876,0.0
1.11593727785,0.702842167546,9.64197936008e-06,-16404127.8459,2.19109881584e-05,0.0,5614336.06573,683.005152571,651.743733957,66398768.9459,1778.91524056,40603772.309,68810206.0299,4632.25564036,4622.32335169,0.0
1.1915820147,1.0288165416,1.00859592253e-05,5963484.80111,2.24834057153e-05,0.0,7484782.01923,687.249019897,656.575371317,65468279.9421,1871.2188729,53092333.7216,66651679.2878,4946.25694302,4934.61459386,0.0
1.11166323893,1.18139535509,1.04854638968e-05,-16214066.4789,1.57167588939e-05,0.0,5656636.25246,681.88698544,651.460510868,66514338.2572,1773.78731103,40478464.967,69472704.1125,4614.5141048,4605.04614382,0.0
1.02596830255,0.757468436155,1.00343756976e-05,-64015584.905,1.55990655301e-05,0.0,5908401.47252,677.874329089,645.987892833,67214528.6985,1663.41884778,45282043.0482,70805618.3849,4258.79442388,4251.51739714,0.0
1.10323407836,1.02306540889,9.62381051198e-06,-22498101.0303,1.66012470777e-05,0.0,5730709.46446,682.151794351,651.031565239,66752103.5191,1764.37501216,37592425.1025,68792646.5728,4579.52465927,4570.57694838,0.0
1.18506401953,0.898706139594,1.00760052002e-05,4960805.18042,2.44571669015e-05,0.0,6590359.54337,686.821015668,656.146516321,65703115.8629,1865.2797353,52673259.8219,66967874.6161,4919.20074507,4908.41310722,0.0
1.08271948127,1.08553219958,1.00653241853e-05,-28419911.5766,1.47138747747e-05,0.0,5776852.29568,680.631375487,649.71442419,66876975.7196,1737.69026087,35731310.8462,69315647.7514,4494.36856675,4485.84357688,0.0
0.957937980862,0.941461271541,9.9638800967e-06,-93835053.4188,1.4182576936e-05,0.0,6070828.96532,685.047451612,641.64348766,67591189.2051,1613.63656832,68886588.1229,69109877.258,3976.40055856,3970.06229947,0.0
1.10367779812,0.787110763107,1.05930145155e-05,-18636694.5754,2.04020706101e-05,0.0,5604485.94937,681.653938972,650.999665838,66344519.491,1762.36427497,39283074.4724,68589271.0025,4581.36654,4571.45476252,0.0
1.0937114114,1.15799016587,9.51749503076e-06,-25924344.1259,1.42429559859e-05,0.0,5771801.10343,681.565513119,650.375623487,66874803.0237,1751.83778102,36421264.3466,69465210.8741,4539.99606872,4531.20115685,0.0
1.04837140866,0.979003936909,1.0403846922e-05,-45378020.8365,1.45227073149e-05,0.0,5802164.8907,678.493578624,647.397336422,66919015.0665,1690.61557036,35892294.0743,70330974.5711,4351.78971735,4343.03150065,0.0
1.12589449555,0.909970135131,9.68725843567e-06,-13526021.1523,1.98615305173e-05,0.0,5638944.80461,683.413038418,652.389434603,66493918.9114,1792.98257414,42214400.6972,68508709.2588,4673.58805103,4664.08428927,0.0
1.08043247446,0.915502604383,9.92235733659e-06,-29561093.6871,1.64342745536e-05,0.0,5777192.12655,680.652001311,649.549845005,66872423.8886,1734.83468133,35535777.2322,69333327.5406,4484.87520148,4476.3857564,0.0
1.01298687332,0.978138715342,1.03242095594e-05,-78698395.9295,1.36556806791e-05,0.0,5935984.40645,677.32409435,645.167818222,67258087.8392,1645.82621927,56134105.2784,70746247.512,4204.90851115,4197.81623839,0.0
1.21411232847,1.06400194087,1.01673427853e-05,11753009.0631,2.36718106217e-05,0.0,12992776.1904,688.512967405,657.965805628,65239570.7086,1898.11905131,57363917.5967,66278381.1562,5039.78027548,5027.90418713,0.0
1.08997098887,0.918397898035,9.88058778468e-06,-26448988.6201,1.70865760947e-05,0.0,5752970.32012,681.215645336,650.150607736,66812324.925,1747.32580453,36179542.0954,69318597.2798,4524.4695748,4515.83147945,0.0
1.09839617459,1.19917370098,9.73277967583e-06,-23717175.649,1.43010834238e-05,0.0,5751754.74246,681.682960872,650.685405738,66810875.9898,1757.92209434,36982412.7552,69279959.6392,4559.44252072,4550.57333335,0.0
1.16062167887,1.18105620441,1.00641510861e-05,-2606119.33526,1.78523963826e-05,0.0,5474529.81237,685.258907221,654.653419339,65962552.1605,1834.05549192,48288012.9841,67728699.8074,4817.74058899,4806.88138912,0.0
1.09527293746,1.04641459089,9.60395066813e-06,-25119507.2803,1.56425446269e-05,0.0,5756402.88109,681.614286581,650.451527486,66832173.9135,1753.96054427,36587119.0129,69332394.0246,4546.4779634,4537.65832226,0.0
1.00667940477,1.09414627497,1.01359245405e-05,-88177788.0412,1.27010466691e-05,0.0,5892578.40943,677.743675933,644.750281437,67103076.3074,1633.74473945,64004873.8254,70766759.7805,4178.7262092,4170.30907995,0.0
1.12202012509,0.92045182686,1.00665264905e-05,-13801331.7868,1.96523485827e-05,0.0,5610830.87485,682.94788814,652.137728198,66394164.4722,1786.97909496,42079832.8162,68215721.9319,4657.50553925,4647.76517752,0.0
1.07688032117,0.955960159889,9.87550816506e-06,-31351310.7524,1.57188315869e-05,0.0,5795255.22114,680.264618774,649.178990643,66932994.8771,1730.1300995,35224513.8754,69617528.5105,4470.13021318,4461.69585494,0.0
1.23206450345,1.01456161528,1.01912004947e-05,15825074.1074,2.6492484773e-05,0.0,17369362.2432,689.633919257,659.138995101,65131500.2387,1920.34549893,60824519.5243,66776240.8206,5114.29975382,5102.68232166,0.0
1.04528003414,0.93508123807,9.65555300413e-06,-50576735.8425,1.44445554635e-05,0.0,5879723.99088,678.878112637,647.230913218,67147921.5194,1688.61209743,37853045.6694,71176551.4643,4338.95742172,4331.21803922,0.0
0.957598189783,0.966563628764,9.79472780529e-06,-93861024.1346,1.40986137191e-05,0.0,6079797.82585,685.56679144,641.622705919,67614464.2133,1615.31913175,68909429.6671,69132681.1466,3974.99008579,3968.656253,0.0
1.0734412272,1.03360251132,9.86600726172e-06,-32878712.5898,1.4623575699e-05,0.0,5809740.79275,680.061325068,648.971659682,66969988.4671,1725.55830896,34956238.0123,69857785.0185,4455.85453411,4447.47336896,0.0
1.1573771896,1.11087483139,1.00438361718e-05,-2039573.05874,1.86432416071e-05,0.0,5516480.50918,685.040459187,654.463433642,66097110.3933,1831.10965769,48981190.0854,68205722.7386,4804.27271403,4793.97960251,0.0
1.05371202057,0.843159511584,9.92118872743e-06,-44653579.0606,1.59563888167e-05,0.0,5795121.18953,679.192119893,647.731206687,66897550.8471,1697.50110607,35692463.4022,70364204.8369,4373.95859739,4365.02370115,0.0
1.2050227736,1.04312436317,1.02194786551e-05,9927881.25934,2.34989887107e-05,0.0,11258028.8792,687.909736497,657.356530775,65280780.6682,1886.71430718,55875863.3569,66889172.9542,5002.04953321,4990.13860717,0.0
1.09914641443,0.944733814751,1.02265685996e-05,-22458843.5634,1.78259258133e-05,0.0,5713336.14881,681.547239603,650.768819039,66699031.9877,1759.2537263,37305199.8519,68418453.055,4562.5567663,4553.77468424,0.0
1.1542961016,1.06659452424,1.04472689077e-05,-3416296.08212,1.95630849283e-05,0.0,5464426.65809,684.709845573,654.252896422,65932600.0742,1826.04968635,47575607.1968,67915854.3845,4791.48311774,4780.72390255,0.0
1.06825330401,1.16614239285,9.89692297276e-06,-35592720.9971,1.30129257991e-05,0.0,5818640.07724,679.762539766,648.67709589,66989947.4683,1718.15911684,34715344.0894,70154508.2598,4434.31946495,4425.82816664,0.0
1.01698242769,0.679008120277,9.89289029669e-06,-76425814.3983,1.60629450036e-05,0.0,5932344.85425,677.910357328,645.428163368,67260907.2594,1651.46863883,54338619.2188,70803092.5988,4221.49405734,4214.34494381,0.0
1.11465265938,0.876795117013,1.044192515e-05,-15455603.7071,1.98383150716e-05,0.0,5623970.4685,682.239869128,651.643168688,66417272.3865,1777.93188294,40927363.4731,69038840.9072,4626.92318909,4617.40406009,0.0
1.01694184349,0.8991841964,1.02288675048e-05,-76104588.2453,1.46699671137e-05,0.0,5851089.877,677.626413888,645.398006291,67008938.3559,1647.62507796,54067523.3569,70589666.5993,4221.32559233,4212.73995329,0.0
0.992281584719,0.74336159922,9.889920521e-06,-95263016.8489,1.56591839148e-05,0.0,5917439.47897,679.685643703,643.834280659,67151753.5307,1614.94883395,70143936.3331,70384627.4617,4118.96085817,4110.77767251,0.0
0.994377013436,1.17717749516,9.92850628343e-06,-95432832.2825,1.19478311872e-05,0.0,5936088.25104,679.128690622,643.96516584,67214628.7788,1617.206674,70293387.9374,70561140.4319,4127.65898277,4119.44188537,0.0
1.10125589472,1.14404588847,1.0145992631e-05,-22067413.7232,1.54247490194e-05,0.0,5725573.35664,681.627754344,650.906365557,66736564.8348,1761.84177469,37511940.5455,68552006.8261,4571.31321898,4562.49789627,0.0
0.904389567963,0.936522197568,9.97253037611e-06,-91348439.642,1.34154245454e-05,0.0,6132452.51931,692.086775282,638.176509683,67678312.7747,1595.72863676,66697913.9787,67678312.7747,3754.12109661,3747.40711233,0.0
1.0576673301,1.08144464212,1.02224727059e-05,-39508398.8625,1.35390445357e-05,0.0,5826854.51924,679.097520708,648.07221445,66994779.2972,1704.53163886,34795081.4655,69712738.6146,4390.37708725,4382.14360844,0.0
1.24280167526,1.04254348579,9.54265349774e-06,17552320.7204,2.57493433603e-05,0.0,19065743.2501,690.615408176,659.731039239,64947198.9204,1932.02577761,62143581.3938,67048755.2539,5158.869754,5146.47106262,0.0
1.08502204495,0.991010013649,1.00949063749e-05,-26690468.0069,1.56278131727e-05,0.0,5725950.10351,680.802335442,649.835738103,66708174.473,1738.85431964,36058153.3271,69023031.0913,4503.92650859,4494.62181564,0.0
1.07363881041,0.66952290529,9.39272504655e-06,-33417504.7025,1.85414433196e-05,0.0,5795905.79953,680.600785045,649.013671251,66920661.4627,1725.46093255,34914164.4191,70093643.5454,4456.67470201,4448.10035677,0.0
1.19382672972,0.80605278025,1.04110875793e-05,7693097.16132,2.75741584622e-05,0.0,9078745.20637,687.311939023,656.730511563,65410572.6458,1875.00901902,54073429.8312,66418073.4839,4955.57475507,4944.41828758,0.0
1.0658517465,1.1381961954,9.92856480613e-06,-36549765.8078,1.31632533752e-05,0.0,5821827.2119,679.618419157,648.521442175,66995489.9038,1715.03440342,34680132.9208,70243225.1827,4424.35059972,4415.89690608,0.0
1.02278041932,0.965656698871,1.04767648152e-05,-64570734.7207,1.38559141974e-05,0.0,5870715.69208,677.362517116,645.768098655,67087971.1217,1657.29039495,45632517.7754,70718249.4499,4245.5615206,4237.61469179,0.0
1.11745453298,1.02203626087,1.01515848877e-05,-14870314.7232,1.7941515354e-05,0.0,5634177.48946,682.532967091,651.828702667,66459320.7182,1780.96415415,41366374.5298,68960211.964,4638.5537664,4628.89018309,0.0
1.09070079087,0.628904860361,9.90537304179e-06,-26038455.7818,2.1414068441e-05,0.0,5726897.35693,681.37004565,650.185321872,66733561.1282,1748.5507021,36230178.6573,69219769.4184,4527.4989829,4518.84947067,0.0
1.04583335823,0.89451661738,9.67097770389e-06,-49900341.0823,1.49991932181e-05,0.0,5827839.02941,678.992494886,647.23375901,66986511.6873,1686.93438847,37552839.6981,71104036.9836,4341.25427001,4332.44941057,0.0
1.10398339061,1.00939902176,1.02351764592e-05,-19129766.4438,1.72739460074e-05,0.0,5633312.15881,681.791179596,651.028675025,66440183.2532,1761.99487842,39149679.9543,68694570.7895,4582.63505442,4572.62251487,0.0
1.10525487043,0.834280323798,9.96920348844e-06,-21008202.9672,1.94907466831e-05,0.0,5700536.85745,682.121230805,651.154918196,66661790.5482,1767.4965374,37952714.794,68668180.489,4587.91296715,4579.03437528,0.0
1.1237538748,0.902978423311,9.88639437567e-06,-13950030.9446,2.00508520785e-05,0.0,5641516.21744,683.142924519,652.250291112,66493990.8782,1790.43335701,41926365.6161,68590709.0226,4664.70233429,4655.33526303,0.0
1.11001777662,0.714294940408,1.01914851782e-05,-17224997.2546,2.18087557449e-05,0.0,5638116.59117,682.258379016,651.40404737,66471931.8237,1772.09643832,40070878.2568,69002089.136,4607.68379075,4598.34143487,0.0
1.1301959247,1.10752651984,1.0023506453e-05,-11852827.8833,1.76956748181e-05,0.0,5603993.63895,683.306322144,652.605207521,66384957.526,1797.25639542,43372285.1006,67477920.6833,4691.44328343,4681.56482765,0.0
1.03263440318,0.834536894029,1.01098616394e-05,-57762048.669,1.51592749647e-05,0.0,5841737.23173,678.085188204,646.388335106,67009863.078,1669.77066761,41346219.5761,70962946.6078,4286.4654076,4277.96167907,0.0
1.12868197123,0.948556717691,9.98886283614e-06,-12211804.7291,1.98379163919e-05,0.0,5596205.07445,683.31691889,652.501684192,66357621.7856,1795.51950071,43049957.412,67312312.6054,4685.15886258,4675.30603667,0.0
1.16047999561,0.985594118795,9.92461272169e-06,-2786155.17989,2.07324551978e-05,0.0,5459201.4547,685.463607,654.647490393,65944530.9567,1834.1878895,48264097.4594,67966026.3375,4817.15246178,4806.27010353,0.0
0.963874405541,0.88839511412,1.03742413165e-05,-93979388.8125,1.43755574301e-05,0.0,6037930.80158,683.086748468,642.022919925,67508069.8781,1610.89373566,69013694.1018,69239950.2284,4001.0426574,3994.62419039,0.0
1.08373624962,1.06336931117,9.49721511472e-06,-29378401.1169,1.4546808592e-05,0.0,5798255.74287,680.891445007,649.634216664,66941161.9274,1738.81790584,35714210.7894,69504836.9836,4498.58917217,4489.95156434,0.0
1.18107620208,0.874712203648,1.02682529802e-05,4643735.01684,2.48350454314e-05,0.0,6316780.00607,686.459619688,655.888190554,65687668.2159,1860.14532333,52383284.6392,66962520.2015,4902.64731483,4891.93158655,0.0
1.06760192459,0.889937578713,1.0106558484e-05,-34999775.0222,1.59405527988e-05,0.0,5794696.60698,679.682348456,648.636084966,66908289.9288,1717.50509629,34695191.6777,69939024.8635,4431.61558897,4423.134497,0.0
1.05506015235,0.767666549602,1.02355290604e-05,-41483253.5673,1.67193515175e-05,0.0,5797705.55916,678.967235451,647.798952147,66912291.721,1700.42017244,35044593.4899,69837366.6702,4379.5546924,4371.01530593,0.0
1.09343031001,0.837987858861,1.00436598752e-05,-24757951.1827,1.84831207452e-05,0.0,5730373.96841,681.299275584,650.337130131,66749984.2579,1751.91384692,36552736.82,69076301.7325,4538.82921685,4530.13619579,0.0
0.97086370851,0.98931532111,1.00894089248e-05,-94522731.0981,1.38619133179e-05,0.0,6039042.87325,682.353218461,642.475601823,67507605.2739,1612.1381028,69491889.0505,69724609.6121,4030.05525403,4023.54755022,0.0
1.25039488764,0.918594317999,1.01464615423e-05,19717620.7922,3.07579928921e-05,0.0,21420128.2342,690.991470224,660.214571072,64574548.1795,1939.38614139,63803040.0126,64630952.5588,5190.38917859,5177.62910284,0.0
1.22208781291,1.00272876948,9.96092329977e-06,13171538.703,2.54114273506e-05,0.0,14458666.3137,689.220449195,658.486361379,65094093.9847,1907.47019284,58568521.5828,66446134.2134,5072.88651139,5060.74492782,0.0
1.21344038537,0.785963963644,9.58523634598e-06,11137705.7732,2.85735869715e-05,0.0,12499298.0825,688.964695207,657.890738375,65266069.1565,1898.84849693,56953208.4793,66599914.9381,5036.99103967,5025.25117247,0.0
1.07391146378,0.902749895062,9.85138909079e-06,-32701470.4568,1.61037601162e-05,0.0,5800352.28449,680.14478002,648.996374061,66942938.6459,1726.27378413,34979921.8982,69810866.6178,4457.80648615,4449.41805593,0.0
1.14140125772,0.987545946348,9.85517604239e-06,-8653663.65827,2.05622984381e-05,0.0,5601828.47496,684.085999958,653.314026377,66392744.4978,1813.24390413,45452540.8169,68261044.6408,4737.9566208,4728.48672101,0.0
1.01271074731,0.798084652128,9.93461431525e-06,-81162951.2536,1.49396773745e-05,0.0,5948597.67786,677.781863105,645.152139092,67288906.22,1645.62752897,58137291.3926,70793405.6508,4203.76231208,4196.67349987,0.0
1.07678473623,1.10234472705,9.78967668087e-06,-31742597.7632,1.40019794198e-05,0.0,5808749.72797,680.259536643,649.172981246,66972425.1588,1729.89731606,35181866.6274,69729459.4658,4469.73344009,4461.30056216,0.0
0.98221581078,1.04177608554,9.83225811018e-06,-94983075.6672,1.30923616571e-05,0.0,6010695.2987,681.303793795,643.201953974,67427369.4983,1615.35287507,69897243.7041,70137030.3898,4077.17783055,4070.09242261,0.0
1.18657648627,0.986602364124,9.75374386917e-06,4433306.30769,2.23599578792e-05,0.0,6136194.73834,687.084046331,656.239866816,65713133.701,1866.65552569,52464332.3843,67042152.7595,4925.47899451,4914.33337648,0.0
1.10687076061,0.922703098847,1.00580923248e-05,-18378266.8831,1.81691940122e-05,0.0,5646734.05756,682.105954528,651.217911941,66478633.6494,1766.75702259,39463369.4208,68834614.7038,4594.62052729,4584.84272484,0.0
1.18911359204,0.872678905108,9.93701170135e-06,5956067.90537,2.50039492575e-05,0.0,7580774.36137,687.189264903,656.415495994,65661070.637,1869.97282457,53414934.7659,66896553.8527,4936.01052056,4925.05941295,0.0
0.934935422738,1.17367064797,9.75088657524e-06,-92698342.8514,1.23475171315e-05,0.0,6077832.94052,689.167665071,640.143877725,67555282.4877,1609.02244272,67886126.3074,68095908.3529,3880.91693979,3873.71124012,0.0
1.22201671587,0.872342683723,9.66482150401e-06,12836418.3363,2.74603705132e-05,0.0,14154161.1629,689.471999087,658.489358064,65131913.8541,1908.43605705,58329964.3121,66371998.4482,5072.59138758,5060.58242798,0.0
0.992446672767,0.965412373045,9.65326925343e-06,-95391694.768,1.42175004815e-05,0.0,5989068.1219,680.570127884,643.860713009,67379671.9977,1620.87733204,70256978.5865,70501641.4367,4119.64613866,4112.49846057,0.0
1.03387039997,0.939932353615,9.87539045916e-06,-58327504.1526,1.42749276665e-05,0.0,5902915.15995,678.231035843,646.491915671,67209127.1704,1673.84625478,41874873.0453,71047739.3449,4291.59603028,4284.2057205,0.0
1.02671793827,0.915463853261,9.7747991651e-06,-65759104.0718,1.42911384351e-05,0.0,5923803.75232,678.109265163,646.040062547,67258931.4759,1664.3056304,46479173.2305,71037478.3795,4261.90616176,4254.61842035,0.0
1.20258828999,1.13136189918,1.01263169147e-05,8662970.16458,2.1574548179e-05,0.0,9975704.44877,687.800298797,657.244990102,65370055.3685,1884.06463096,54934375.1392,66744822.955,4991.94399175,4980.09240242,0.0
1.17855911685,1.02922539736,1.00884087718e-05,3071116.8765,2.14446706521e-05,0.0,5393503.04435,686.377759743,655.741936225,65717036.2063,1856.2271102,51506097.9264,66988355.2767,4892.19889404,4881.09882501,0.0
1.13200765724,0.864445970083,9.51624991358e-06,-12232168.3749,2.09681988131e-05,0.0,5625151.20522,683.951041576,652.809139878,66461778.0356,1801.20271209,42968478.2835,67862173.4371,4698.9637852,4689.4359056,0.0
1.18293009734,0.816232871841,1.00876949145e-05,5012485.81317,2.5966404286e-05,0.0,6640724.22231,686.719828672,656.007755659,65693024.9839,1862.57125775,52728239.8435,66992656.8076,4910.34283406,4899.59829743,0.0
1.11554669063,1.05538445419,9.48544759767e-06,-16886566.6772,1.66852503961e-05,0.0,5670815.13124,682.899679516,651.756108275,66577321.0909,1778.67109358,40346060.9395,69320372.6702,4630.63431281,4620.90386354,0.0
1.11949488267,1.04182449035,9.9215591803e-06,-14941231.0021,1.77116666435e-05,0.0,5614647.67497,682.835248222,651.951060317,66393696.8274,1782.73137723,41334220.7045,68530234.7276,4647.02325796,4636.93226609,0.0
0.999650146944,1.02370589151,9.84110060165e-06,-95886204.7153,1.32125498842e-05,0.0,5989785.37548,678.556590866,644.324410388,67396643.8839,1627.73424797,70692146.8819,70941784.3862,4149.54775996,4142.6426732,0.0
1.12621786407,0.855046690042,9.44138541197e-06,-14322045.4795,2.07902914696e-05,0.0,5668920.42203,683.595626047,652.420885061,66588233.2867,1794.68548484,41929162.3879,69012878.2938,4674.93035375,4665.80512746,0.0
0.991347609179,0.984446971461,1.04758110998e-05,-95111075.0058,1.36989845101e-05,0.0,5911565.74087,678.417743507,643.768765438,67144758.3915,1613.60156553,70010225.0373,70238699.4061,4115.0839257,4106.99581231,0.0
1.19286712277,0.785256546305,9.79087885181e-06,6098678.23321,2.71213869585e-05,0.0,7691051.87173,687.662743727,656.64756611,65480809.6462,1874.02839125,53380667.7124,66684938.8861,4951.59142662,4940.13145867,0.0
1.05977681563,0.724235619537,9.60427386684e-06,-42976162.9317,1.75876613409e-05,0.0,5782102.91028,679.789622846,648.098947031,66863433.2154,1705.58751841,35288872.7384,69945891.6815,4399.13356168,4390.09664256,0.0
1.12758610718,0.742204516661,1.02308815054e-05,-12233829.0855,2.31079783956e-05,0.0,5569020.0206,683.218348383,652.42763994,66258231.1827,1794.46030073,42921709.5406,67178776.2031,4680.6099309,4670.77522394,0.0
1.11147764045,0.896813471041,9.56387279291e-06,-18364433.7993,1.86407687435e-05,0.0,5627978.0596,682.761614975,651.502070624,66430025.2365,1772.14865921,39517911.8647,68924758.8858,4613.74368551,4603.50505296,0.0
1.18552621343,1.01342601111,9.89973558397e-06,4397636.93817,2.19480237369e-05,0.0,6116766.80553,686.905684461,656.167029639,65698658.1049,1865.21853616,52348156.8442,67011526.1111,4921.11931195,4910.0125661,0.0
1.18118431946,0.97686528565,1.0143831453e-05,4151659.61148,2.27727899165e-05,0.0,6020870.02086,686.4788998,655.897910069,65764644.8781,1860.39624426,52168763.1556,67030398.9857,4903.09611008,4892.3760762,0.0
1.09267870085,0.78903712088,9.89780042981e-06,-25445982.6926,1.89841961946e-05,0.0,5734854.67843,681.380672019,650.288633033,66760870.3548,1750.9774668,36398175.6858,69211734.3196,4535.70928723,4527.02880193,0.0
1.11568849787,0.867416274193,1.01686952346e-05,-15495861.8407,1.98381677572e-05,0.0,5631671.95407,682.476841926,651.714626562,66455009.0652,1779.06230782,41002480.7338,69181943.8385,4631.22295466,4621.68790656,0.0
1.16683745537,1.23331354549,1.00856596878e-05,324828.291315,1.75235814037e-05,0.0,5453712.54047,685.553940674,655.033624216,65900294.6249,1841.23590023,50056436.2767,67571382.3604,4843.54227724,4832.55353819,0.0
1.01610274359,0.863898464471,1.00494650308e-05,-76149688.9743,1.45548263407e-05,0.0,5931473.79035,677.672304114,645.36827169,67253270.6899,1649.82739587,54116519.8851,70767764.2677,4217.84248864,4210.61730864,0.0
1.05421924407,0.929773376314,1.01527854465e-05,-42889942.385,1.53377473881e-05,0.0,5797450.08554,678.973250052,647.750912138,66905639.7424,1698.47832799,35268474.0672,70341369.3828,4376.06408213,4367.29967302,0.0
1.06886271373,0.999295875831,9.90405176671e-06,-35246349.8912,1.47272914784e-05,0.0,5806596.89541,679.854762292,648.716753453,66954215.7324,1719.07207322,34713462.9073,70079644.6123,4436.84912469,4428.34827313,0.0
1.03136497625,0.974909067298,1.03747398071e-05,-58796615.6089,1.4126966846e-05,0.0,5816589.44318,677.772165487,646.301013996,66936695.151,1666.56934881,41887590.3198,70603619.591,4281.19601641,4272.28662548,0.0
1.06000845012,0.958833076042,1.0102095466e-05,-38515595.4177,1.47852060407e-05,0.0,5817990.71698,679.241662724,648.141270464,66976213.8085,1707.44648295,34689085.3245,69902330.2174,4400.09507645,4391.73259443,0.0
1.05753450344,1.05423958824,9.94488384073e-06,-40385542.1989,1.35955122665e-05,0.0,5836157.36609,679.166709293,647.959746957,67023825.0732,1704.0560223,34937866.5831,69891091.881,4389.82572378,4381.50173699,0.0
1.19603843963,1.00052839247,9.72691223042e-06,6939785.41201,2.28445062286e-05,0.0,8475317.45585,687.697378808,656.887647686,65653882.4866,1878.50307176,54054561.4712,66807027.5807,4964.7555629,4953.67287929,0.0
1.21633782935,0.940228646071,9.70486751334e-06,12159678.4209,2.55516114118e-05,0.0,13445557.9957,688.947225338,658.110728402,65325500.0517,1902.09537882,57768677.1489,66402363.3327,5049.01832963,5037.4297672,0.0
1.17516741156,1.01623861822,1.00749274906e-05,2733511.30721,2.14068035397e-05,0.0,5413579.91504,686.167618674,655.54061249,65780910.3462,1852.14557222,51376754.9595,67035821.7353,4878.11992539,4867.18058625,0.0
1.08622235398,1.22414061551,9.89739014787e-06,-27765023.4962,1.34022993524e-05,0.0,5782856.89267,680.890394367,649.932717476,66898560.6639,1742.18465648,35935618.5307,69404216.1441,4508.90899137,4500.32944165,0.0
1.13138344554,0.944965653085,9.40596297064e-06,-13188585.2696,1.99768836239e-05,0.0,5667415.3464,683.901461259,652.766391065,66597448.3761,1801.61818309,42617848.8407,68539850.4565,4696.37268244,4687.26937695,0.0
1.12748127489,1.01934973367,9.45896121028e-06,-13542162.3066,1.82157791075e-05,0.0,5626475.05754,683.642941458,652.48297653,66445623.4743,1793.95443849,42345735.9816,68321682.9158,4680.17477207,4670.2172704,0.0
1.13839326533,0.986103707374,1.01774581437e-05,-9605403.14719,2.03603345657e-05,0.0,5547256.2126,683.896625262,653.19797135,66201649.5915,1807.71384215,44492547.4578,67988319.0094,4725.47044438,4715.34983836,0.0
1.20423204153,0.9391255948,1.0006945254e-05,9522322.67897,2.51290485461e-05,0.0,10866529.9828,688.085540624,657.330685871,65282012.483,1886.24218072,55627183.7764,66815611.692,4998.76720439,4986.88448766,0.0
1.12817272485,1.09759326123,9.84414355988e-06,-12714019.8187,1.76356847107e-05,0.0,5584271.33769,683.440107801,652.533751204,66307822.4738,1793.56851172,42592344.7132,67775426.1933,4683.04498085,4672.70365389,0.0
1.10926990291,1.07015916192,1.00763034626e-05,-17567994.5041,1.66010312644e-05,0.0,5647671.12991,682.153015268,651.355804511,66483210.2455,1769.59573623,39935807.4132,68998543.2781,4604.57936698,4594.71243583,0.0
0.995133597811,0.819758149041,9.93832637959e-06,-95384183.4381,1.50791086125e-05,0.0,5912364.02456,679.170621915,644.014532969,67142100.8964,1618.4638886,70250675.5358,70498359.3953,4130.79956451,4122.57020888,0.0
1.07196472419,1.02461616262,1.02671804042e-05,-32047483.2886,1.49986592772e-05,0.0,5789952.10279,679.669144676,648.845292139,66909275.9923,1723.2765472,35069035.309,69488447.6347,4449.72557011,4441.27087041,0.0
1.1780456049,1.03932991539,9.94051910261e-06,2707864.2927,2.10572314959e-05,0.0,5404531.43654,686.430845272,655.717333669,65768912.8863,1855.72760939,51387018.4168,66992600.8972,4890.06730594,4878.97499579,0.0
1.11569597692,0.835910908523,9.83595730833e-06,-16057882.5372,1.99645457294e-05,0.0,5666895.52399,682.715608338,651.743148736,66571998.9911,1780.1704331,40709315.451,69345091.1856,4631.25400019,4622.01777009,0.0
1.07787478037,0.978927676166,1.03061063472e-05,-29667107.6434,1.59163054586e-05,0.0,5776795.79904,680.209112199,649.389167633,66877435.0,1731.76570876,35426176.9813,69229394.3073,4474.25821332,4465.90474731,0.0
1.137963235,0.922458990814,1.01805838517e-05,-10031469.2121,2.17186593488e-05,0.0,5597816.40266,683.846381504,653.19684354,66371704.7449,1809.44144279,44270159.1002,67958466.2215,4723.68538848,4714.39780674,0.0
1.21350598543,1.03658439885,1.05560494034e-05,12422670.9864,2.47770818299e-05,0.0,13655980.9518,688.240482389,657.949520819,65266812.9554,1897.95510437,57877159.3944,66408317.3496,5037.26334552,5025.85811756,0.0
1.06979867261,1.00767157259,9.91271222447e-06,-34804366.9597,1.4683796049e-05,0.0,5804564.8705,679.895980874,648.776587072,66939058.0769,1720.29446696,34751841.0943,69998458.2807,4440.73429,4432.21875757,0.0
1.05111853703,0.963840956587,1.02900264333e-05,-44458275.4221,1.47671582441e-05,0.0,5798902.01111,678.719000362,647.564148985,66912730.0839,1694.26312917,35626101.1885,70342553.2252,4363.19304721,4354.3898566,0.0
1.07744858705,1.004998468,9.58480398493e-06,-32158579.8716,1.50482556084e-05,0.0,5808807.53536,680.481695845,649.215223568,66969987.4653,1730.83707649,35127973.2563,69848257.2781,4472.48908484,4464.04592383,0.0
1.1292494563,1.14930023127,1.04033187535e-05,-11662739.9908,1.74155703089e-05,0.0,5593537.90995,682.999704174,652.546225837,66341516.6682,1796.06455355,43274233.9259,67477099.6271,4687.5144931,4677.65164848,0.0
1.16567375157,0.935119255455,9.96273328715e-06,-37379.2057782,2.20304380306e-05,0.0,5430432.86842,685.750947015,654.962479543,65844687.5861,1840.23806434,49950881.387,67699288.4965,4838.71174277,4827.73861805,0.0
1.0705601347,1.1647998626,9.88639562861e-06,-34622021.7202,1.31254986031e-05,0.0,5813201.7042,679.894746024,648.823003321,66966922.5321,1721.17685077,34790371.7872,70000725.2844,4443.89511914,4435.36910944,0.0
1.17524501437,0.968386207783,1.02503365124e-05,2917551.73508,2.25931512006e-05,0.0,5413422.38579,686.083821472,655.54423386,65776833.8049,1852.77358858,51390318.4229,67042243.0929,4878.44205465,4867.71852172,0.0
1.03441278249,0.930130156886,1.01374504408e-05,-55984293.83,1.43882454955e-05,0.0,5842146.34492,678.106912471,646.512119152,67015267.519,1672.07321585,40349944.7817,70872751.4092,4293.84746012,4285.31496953,0.0
1.15630362936,0.891627979694,1.01225619777e-05,-2076389.10757,2.21600866419e-05,0.0,5494181.57317,685.054877072,654.395112283,66028021.8892,1829.99008198,48925884.9177,68025127.7724,4799.81636547,4789.54162128,0.0
1.14572207118,0.999117572711,9.87460824199e-06,-8267009.19434,2.04397556739e-05,0.0,5546411.023,684.354716887,653.535127064,66208552.26,1817.39190219,45356793.4734,68449649.1741,4755.89231747,4745.72404229,0.0
1.0428713374,0.86009818026,1.01496959767e-05,-49561226.4495,1.53844237525e-05,0.0,5820211.78861,678.474276471,647.038718163,66962989.592,1683.55875006,37298108.3849,70919410.9434,4328.95892155,4320.37869915,0.0
1.01140379718,0.873593932154,1.00299259705e-05,-83960708.2806,1.48490878578e-05,0.0,5870553.85197,677.876282101,645.047527092,67041290.3994,1640.18205962,60439932.199,70659266.9121,4198.33716209,4189.84262454,0.0
1.03621156495,1.0591336319,9.9673752694e-06,-56739725.6392,1.33022383784e-05,0.0,5854183.21362,678.289904611,646.630712136,67053871.927,1674.56161438,40789005.8393,71013032.5384,4301.31420611,4292.83991213,0.0
1.00433686221,0.730692870837,1.00802762318e-05,-88864497.4529,1.55450610672e-05,0.0,5881647.44513,677.882794141,644.594946333,67063057.2026,1630.83686719,64580436.236,70784994.5337,4169.00231503,4160.62308656,0.0
1.18715962467,0.953386474348,9.80843385972e-06,4643950.11736,2.32335039837e-05,0.0,6262767.03646,687.157691964,656.265631511,65576566.9777,1866.28237108,52473005.1427,66895978.4381,4927.89960201,4916.31913954,0.0
1.19771332817,1.0355339021,1.03680836296e-05,8025963.9656,2.31843682269e-05,0.0,9419626.25304,687.44088574,656.948066986,65330079.4092,1878.11675971,54373173.024,66518923.4443,4971.70802523,4959.95374191,0.0
1.0108937564,1.03109389541,1.00957653523e-05,-83963002.4147,1.33883173542e-05,0.0,5879288.02819,677.724382965,645.014367704,67068277.7637,1639.40636629,60442027.2105,70658611.4658,4196.21998282,4187.73381589,0.0
1.15776358985,0.692505942201,9.86523103445e-06,-3808624.34549,2.75406072813e-05,0.0,5485353.43052,685.528285029,654.502440308,66034765.4931,1833.65466631,47865110.8279,68261327.2515,4805.87666147,4795.82930504,0.0
1.16078544712,0.883470991816,1.02685171079e-05,-901890.959249,2.27767271729e-05,0.0,5469855.6991,685.246004805,654.667352573,65939474.7373,1835.61767521,49319256.1811,67695717.6339,4818.420391,4808.07194316,0.0
1.15491348775,0.900682260366,9.5688282567e-06,-5037530.57623,2.258765064e-05,0.0,5536265.29101,685.315428597,654.285164755,66198981.601,1829.75075078,47547849.5437,68731973.2415,4794.04588765,4784.02224047,0.0
1.12538216439,0.7873105607,1.00135284566e-05,-13518640.2823,2.25000151511e-05,0.0,5641289.31311,683.207661682,652.379417851,66507396.7817,1793.66434255,42316897.1003,68327991.9072,4671.46136438,4662.47996791,0.0
1.21568294347,0.792278593978,1.01240424435e-05,12192379.5194,2.94840400818e-05,0.0,13422844.5042,688.869864163,658.079069672,65130466.0636,1900.78771666,57675228.277,66188146.9741,5046.29989834,5034.50495453,0.0
1.06558939896,1.26931885885,1.00411185867e-05,-36245739.8752,1.21214733543e-05,0.0,5824675.69004,679.477231843,648.50345613,67005173.0788,1714.61206748,34670122.0403,70197201.1559,4423.26159508,4414.81200526,0.0
1.17575422624,0.871589662748,9.88248323648e-06,2169480.31519,2.38459909904e-05,0.0,5395536.47239,686.448989722,655.580645976,65735813.2779,1853.23444593,51095611.3947,66973778.8789,4880.55579312,4869.50454844,0.0
1.13650131686,0.629653405579,9.78607809654e-06,-10448228.1688,2.61910988845e-05,0.0,5560696.82902,684.246573375,653.104429229,66254307.5167,1806.88008869,44148878.4594,67687346.4598,4717.61696629,4707.91133615,0.0
1.12471027811,0.966589782001,9.93416876263e-06,-13545354.7631,1.93323114875e-05,0.0,5637979.3246,683.158790042,652.324189577,66485089.2302,1791.59877571,42033900.3974,68375095.3057,4668.67236443,4659.2897013,0.0
1.07385200819,0.778478853859,1.02370936988e-05,-31363086.2331,1.79373724505e-05,0.0,5781953.69686,680.036959739,649.118207535,66886839.5125,1726.43613214,35113972.7972,69257147.4097,4457.559686,4449.37230916,0.0
1.05276601359,1.21089244826,9.93891579207e-06,-45148139.3443,1.23305784619e-05,0.0,5818004.79807,679.0990271,647.757456893,66966702.4233,1695.96941381,35851227.8481,70480795.2688,4370.03172241,4361.11248026,0.0
0.975066435928,0.968037992584,1.03728880701e-05,-94445066.6421,1.40464938074e-05,0.0,6014325.4766,681.582534472,642.742691404,67453569.0612,1613.97173639,69423788.1582,69656464.2683,4047.50077554,4040.9299075,0.0
1.05943215338,0.902163813502,9.72400469407e-06,-41245012.7384,1.53202068331e-05,0.0,5811205.83542,679.529974821,648.072899102,66950307.2885,1705.78749995,35049747.1007,69715385.3618,4397.70286868,4389.00108857,0.0
1.11032522578,0.946205118525,9.84856866113e-06,-17646443.6306,1.80897733941e-05,0.0,5641172.33004,682.437900302,651.425802605,66472306.0055,1771.01699692,39860984.6369,69003183.0161,4608.96001221,4599.02684207,0.0
1.0539395409,0.857472290997,9.84042992426e-06,-44876442.9125,1.57915199798e-05,0.0,5798611.07547,679.263209814,647.748784757,66907564.1886,1697.77812007,35745227.0684,70419734.4902,4374.90303428,4365.96297872,0.0
1.2426179804,1.01657050526,9.76805691285e-06,17975457.2352,2.64963828553e-05,0.0,19478556.4259,690.529874734,659.772489256,64980948.2589,1932.18961827,62478364.5515,67140419.7079,5158.10723664,5146.05501304,0.0
1.1610450755,0.747015587463,9.48265961224e-06,-1702694.35225,2.44479027353e-05,0.0,5477236.99732,685.795787852,654.650164738,65987963.765,1835.78426686,49402015.2188,67947780.3986,4819.4981084,4808.9197901,0.0
1.14956251452,1.03085736231,1.0096693198e-05,-5683256.91316,2.0611690241e-05,0.0,5549358.93425,684.567770658,653.94230483,66234814.051,1822.84525982,46906615.5356,68727583.298,4771.83399777,4762.02006813,0.0
1.10940027792,0.930683875543,1.02361062968e-05,-17398947.2894,1.85928541226e-05,0.0,5658394.07978,682.072634027,651.367630702,66534740.2963,1771.03391185,40015314.6266,69023266.5915,4605.12055365,4595.78896945,0.0
1.09178733109,1.20404106601,1.03949673334e-05,-24550832.5733,1.43907611224e-05,0.0,5750252.50013,680.818087439,650.241855163,66806871.8995,1749.79101806,36577485.9735,69026442.7088,4532.00921135,4523.44100901,0.0
1.24327784694,1.16629547931,9.95996743663e-06,18035504.6102,2.40791719659e-05,0.0,19626167.571,690.384553423,659.798310075,64945209.8309,1931.95205571,62491427.778,67189920.2333,5160.84634265,5148.5565245,0.0
1.0243894431,1.13750952243,1.04075461706e-05,-66379710.2371,1.24342024339e-05,0.0,5841601.01821,677.448237008,645.859754878,67003198.0804,1657.19761399,46851501.3887,70487384.4353,4252.24057831,4243.44804219,0.0
1.18414928294,0.961484872037,1.03382364701e-05,4820752.98228,2.34094057064e-05,0.0,6338642.37806,686.601496141,656.086701416,65633431.9662,1863.45792824,52366432.5109,66826816.2193,4915.40367348,4904.41522509,0.0
1.06609065976,1.10145784225,9.72016082714e-06,-37267381.2609,1.34258428303e-05,0.0,5827217.66615,679.79898526,648.536500954,67008619.7305,1715.35664784,34708182.3253,70247555.9385,4425.34232866,4416.88489706,0.0
1.11099973375,1.17018870118,9.77491209088e-06,-19569863.2334,1.5451746662e-05,0.0,5713091.53822,682.418129946,651.500424196,66715483.8703,1774.36815174,38878655.2418,68991367.2492,4611.7598948,4602.68886857,0.0
1.1349683411,1.16934677335,9.89884170885e-06,-10019969.2013,1.72203148206e-05,0.0,5615069.18314,683.737692122,653.007581638,66423300.3656,1803.96977493,44539490.5432,67882027.5079,4711.25358391,4701.57664868,0.0
1.08135609885,1.01158139032,9.87312110298e-06,-28967319.1401,1.54918712802e-05,0.0,5783860.1604,680.698297232,649.614112392,66893454.5627,1735.86983885,35743994.6548,69402614.696,4488.70916633,4480.21208549,0.0
1.08435619786,1.01733944125,9.91737056379e-06,-28308739.0298,1.55576585392e-05,0.0,5773878.94604,680.856556595,649.819113049,66868544.8681,1739.89753592,35804790.8473,69348747.5691,4501.16257732,4492.61211213,0.0
1.22200514795,0.704578142122,1.02914575734e-05,13856574.2171,3.30541862592e-05,0.0,15107241.5004,689.292385779,658.486015495,64928290.3197,1908.04986408,59026269.9116,66345983.121,5072.54336914,5060.63456355,0.0
1.05927109753,0.973065728439,1.03276053141e-05,-38331588.95,1.48038757755e-05,0.0,5815135.45435,679.028867962,648.093776787,66963072.6808,1706.75424634,34677160.0468,69838927.8838,4397.03432585,4388.7775811,0.0
1.18788905551,1.02228776152,1.02572134544e-05,5664482.46033,2.24943530883e-05,0.0,7135671.69073,686.897014598,656.333960174,65488059.3559,1866.7211579,52831556.7297,66673779.8563,4930.92746942,4919.44735004,0.0
1.15365027354,0.922687150971,1.01438811732e-05,-5761980.49549,2.32851547279e-05,0.0,5550193.48342,684.844523764,654.204739687,66250897.4208,1829.63974916,46648780.7751,68550483.8358,4788.80228546,4779.34279022,0.0
1.12092442998,1.14162909195,9.9975307955e-06,-14440906.4368,1.65687855299e-05,0.0,5615180.96018,682.829798577,652.043025346,66399854.4199,1784.43623001,41569349.8505,68331772.6264,4652.95730885,4642.84058511,0.0
0.974997269098,0.927215437389,1.02644880451e-05,-94644403.092,1.42750374834e-05,0.0,6019428.90876,681.305453332,642.74036327,67458056.2957,1611.36878352,69599256.636,69833567.3316,4047.21366403,4040.64956359,0.0
1.24621671891,1.05255501098,9.94891624799e-06,18729820.0539,2.6632736294e-05,0.0,20335231.3785,690.675816228,659.972541423,64811756.7469,1935.19072017,63027060.2106,65648013.0986,5173.0456002,5160.58613021,0.0
1.12080086488,0.997980354885,9.99034192324e-06,-14552325.1693,1.8608970972e-05,0.0,5653518.78526,682.844829247,652.056171976,66528421.9866,1786.51323835,41603045.0384,68898988.7528,4652.44439012,4643.12539456,0.0
1.08794698131,0.799785708609,9.9929505661e-06,-26754622.0401,1.85168105449e-05,0.0,5745341.94195,681.084972289,650.031949845,66787536.1306,1744.77397006,36047228.9083,69260473.2596,4516.06791942,4507.46145497,0.0
1.13945574148,0.936581384507,9.90858279575e-06,-8840279.40958,2.10477578056e-05,0.0,5577786.8368,684.104931227,653.277051769,66314368.9449,1809.92776545,45286780.981,68148017.5331,4729.88078288,4720.12923007,0.0
1.14006618394,0.792658952196,9.8713480556e-06,-8826117.83433,2.34038818721e-05,0.0,5571746.74385,684.233947349,653.317671738,66302229.8507,1811.19738652,45345138.3592,68133171.2912,4732.41472953,4722.75807053,0.0
1.12854112245,0.920513296674,9.84259974723e-06,-10836043.716,1.8851186402e-05,0.0,5581234.91261,683.485112202,652.560303794,66279463.2875,1794.05042661,43756754.1838,67491627.8907,4684.57419929,4674.29474264,0.0
1.14729417765,0.923363472802,9.84086312634e-06,-8286802.48928,2.23012100808e-05,0.0,5588010.43372,684.573569544,653.743852046,66353553.0662,1821.76442916,45389516.3143,68459761.1654,4762.41813143,4753.0606574,0.0
0.938505177063,0.643993031578,1.01674616303e-05,-92967902.7755,1.59697197747e-05,0.0,6095219.30112,687.068478012,640.39039777,67632580.2944,1605.51104656,68123172.3107,68337016.2626,3895.73498999,3889.65622531,0.0
1.16564617979,1.15614364994,1.01506095793e-05,179002.770258,1.86043130808e-05,0.0,5448070.28238,685.483135389,654.958762232,65886254.9926,1839.80454808,49978219.1285,67637227.698,4838.59729231,4827.65050113,0.0
0.984656812118,1.15344796278,9.79047443466e-06,-95118786.8516,1.21055636179e-05,0.0,6014131.36034,681.004045147,643.359031717,67438327.8389,1616.1434921,70016631.3605,70258073.4497,4087.3104271,4080.18942177,0.0
1.27567000644,0.823257781583,9.60675475352e-06,24168870.6236,3.49678581391e-05,0.0,26004622.8908,692.940673958,661.863522244,64403780.573,1970.7279164,67169920.5704,68155110.9192,5295.30619673,5282.66502551,0.0
1.10015441706,0.913599574211,1.01553774602e-05,-22375314.0096,1.82256280575e-05,0.0,5711348.9427,681.657595941,650.83290055,66689844.9375,1760.59297975,37405712.5064,68429458.3214,4566.74098522,4557.9430257,0.0
1.07227513153,0.730705360524,1.01268312245e-05,-31800203.6611,1.82440858112e-05,0.0,5771055.91323,679.912005332,648.869621755,66843692.6299,1723.56906413,35051386.7259,69511991.8805,4451.01407098,4442.44812194,0.0
1.00386655491,1.12368460766,9.36477655571e-06,-96029013.9087,1.22659427319e-05,0.0,5946250.43794,679.16119703,644.581452691,67242887.399,1630.24389798,70818433.4447,71107803.4777,4167.05006943,4158.89458115,0.0
1.07561461282,1.03217878532,1.00504995017e-05,-30994645.429,1.4866276809e-05,0.0,5785818.11441,680.037422872,649.092761576,66896028.318,1727.73575658,35315175.5523,69437638.975,4464.87625782,4456.27104177,0.0
1.22948577466,0.899835442839,9.94809146426e-06,15094572.6924,2.81257062127e-05,0.0,16474503.1951,689.571160693,658.892996281,65160880.0772,1917.85141917,60176779.7488,66735596.2473,5103.59545061,5091.99560062,0.0
0.985475365051,0.737742127787,1.00362929877e-05,-94988401.1736,1.56564210662e-05,0.0,5981251.21363,680.586955906,643.410372952,67351114.5195,1615.66302559,69902052.7085,70142145.519,4090.70824033,4083.65870982,0.0
1.18541148441,0.831198008493,9.92609962251e-06,4460746.3963,2.55116464614e-05,0.0,6183983.26056,687.027407786,656.165543455,65620515.9854,1865.35538713,52404214.157,66920151.9421,4920.64307179,4909.53837505,0.0
1.08656487031,1.02325308286,9.92219575118e-06,-27456665.8401,1.56469574648e-05,0.0,5768227.5204,680.967413077,649.951853388,66854071.7357,1742.79495479,35940378.7329,69355738.3309,4510.33077666,4501.74497034,0.0
1.07847609306,1.08483783554,1.01165130494e-05,-29761692.467,1.44814280265e-05,0.0,5785760.54947,680.329896239,649.422378838,66898633.9417,1732.12693489,35482535.4247,69317001.2828,4476.75426229,4468.29517502,0.0
1.05339174537,0.90794607924,9.75015264804e-06,-43691630.727,1.48735422319e-05,0.0,5819036.1455,679.227380914,647.71716685,66965276.2394,1697.29226898,35534428.677,70611990.7854,4372.62913503,4363.84465734,0.0
1.05176384138,0.862687461234,1.04117357504e-05,-42327172.3334,1.55962668975e-05,0.0,5804798.15074,678.62895016,647.595707315,66930783.9614,1695.97154412,35163600.1053,70330232.1607,4365.87170557,4357.38494486,0.0
1.0865657953,0.920486333997,1.02030014856e-05,-26608452.6213,1.70256151778e-05,0.0,5748858.41004,680.801131521,649.940110778,66799401.3613,1742.84737039,36019584.9015,69205415.8702,4510.33461629,4501.74970954,0.0
1.21926590582,0.906944838751,1.03377089651e-05,13134094.3221,2.75433888905e-05,0.0,14328537.2298,688.892640948,658.305726371,65040914.85,1904.11841186,58436315.3488,66370462.8826,5061.17277506,5049.20124927,0.0
1.07221860608,1.03915944831,9.52554515974e-06,-34584213.0151,1.43073855649e-05,0.0,5826649.91884,680.282564786,648.93425394,67013756.3011,1723.97082487,34789319.4011,70213746.0609,4450.77943384,4442.41714584,0.0
1.13772753488,1.2000451696,9.79758077691e-06,-10177901.1823,1.72545995774e-05,0.0,5644377.67882,683.923231751,653.195309869,66529562.3326,1809.0406513,44630046.2129,68069569.4442,4722.70699729,4713.50502719,0.0
1.10032695494,1.00403551035,9.63432647527e-06,-22095050.4811,1.64933757425e-05,0.0,5669526.62203,682.009629834,650.811414605,66541457.5221,1757.42335283,37897680.2197,68764637.8912,4567.45718996,4557.41551741,0.0
1.12808924024,1.01013280894,1.02135817172e-05,-12213524.1191,1.91279483693e-05,0.0,5593839.51562,683.110672631,652.461333589,66335578.7013,1794.80331182,42929162.7209,67281336.8743,4682.69843624,4672.85522151,0.0
1.28337414179,1.20522864688,9.94831628569e-06,25421671.2608,2.67317762466e-05,0.0,27102007.4952,692.779193778,662.253519496,64372865.8435,1976.70591452,67716930.5446,68621787.0325,5327.28606257,5314.36127825,0.0
0.972032235759,0.875484506023,1.03307317881e-05,-94317122.6691,1.46949982535e-05,0.0,6019523.51265,682.137899998,642.54788247,67464106.848,1613.64297063,69311129.5951,69542651.204,4034.90581064,4028.37641153,0.0
1.21712553535,1.00976488108,1.0157125854e-05,12571122.8931,2.50403930861e-05,0.0,13828434.4726,688.773211542,658.165888069,65136640.9874,1901.23960662,58000121.0342,66377121.2748,5052.28809724,5040.24884671,0.0
1.24517606638,0.952328633511,1.03173644557e-05,18844740.8177,2.96196087292e-05,0.0,20556320.701,690.522148414,659.894795855,64672552.2233,1933.27550192,63102731.001,65029835.0375,5168.72585154,5156.17949059,0.0
1.27681029956,0.939793356603,9.80989649826e-06,24166964.6585,3.12765933593e-05,0.0,25912597.679,692.755266044,661.899533756,64321234.0574,1969.94153403,66999780.1857,67943542.2064,5300.03955347,5287.05268709,0.0
1.1295130434,0.893984575168,1.03365568267e-05,-11586852.3622,2.10405951682e-05,0.0,5569732.23664,683.299227429,652.641893038,66266890.5908,1796.70801931,43244884.5752,67398107.4873,4688.60864315,4678.74133669,0.0
1.21623852155,0.822296996026,1.02736380963e-05,12581991.517,2.90495180009e-05,0.0,13846125.482,688.801391123,658.111645095,65075892.6916,1900.78790126,57975645.6651,66265826.6984,5048.60610295,5036.69321901,0.0
1.04391822276,0.775896395591,1.0126742038e-05,-49041580.1798,1.62526160953e-05,0.0,5813263.09942,678.592041317,647.119906259,66942569.188,1685.00435008,37103032.7082,70983286.857,4333.30454268,4324.70740403,0.0
1.18685916339,1.02825369503,1.02360508506e-05,5607089.68744,2.22387512381e-05,0.0,7118409.4072,686.816542135,656.254535858,65515957.4224,1865.36981982,52852794.3657,66743985.9701,4926.65238723,4915.19363765,0.0
1.08672984084,0.999869525724,9.98723870696e-06,-27245954.5634,1.60058239785e-05,0.0,5762938.23214,680.937389442,649.958995999,66839950.8764,1743.01642857,35964892.5663,69319157.5296,4511.01556933,4502.4281033,0.0
1.11283331309,1.01283496267,1.01236734051e-05,-16422316.3184,1.76459933756e-05,0.0,5655392.00944,682.282645038,651.554623005,66521709.6611,1775.24109445,40467901.7031,69277837.49,4619.37108264,4609.884039,0.0
1.01152458241,0.896614911543,9.4488406006e-06,-86668338.1299,1.43083174128e-05,0.0,5964745.57171,678.405803398,645.084015656,67324540.7514,1643.27170171,62723289.3215,71110904.5692,4198.83854158,4191.59109602,0.0
1.08782333518,0.873314662001,9.87165303723e-06,-27197781.8116,1.744233332e-05,0.0,5756133.9382,681.138199128,650.029740163,66818290.971,1744.55175616,36006286.2128,69329717.8141,4515.55466433,4506.95013067,0.0
0.980046034367,0.781803591629,1.0152504026e-05,-94749107.3914,1.51176391061e-05,0.0,5992532.54686,681.030209656,643.060899174,67378258.0583,1613.32282128,69691267.6723,69928233.416,4068.17108866,4061.20184244,0.0
1.08612852946,1.09770860997,1.00637615187e-05,-27245315.1266,1.47991193483e-05,0.0,5768503.14571,680.804446981,649.918979872,66856857.5609,1742.13568923,35957638.5763,69318816.8543,4508.51952579,4499.94143932,0.0
0.992926155401,1.08322204417,1.01484480477e-05,-95271190.9967,1.29350340464e-05,0.0,5926730.54113,678.975991362,643.872798525,67188803.8946,1615.5786661,70151147.6352,70395674.5043,4121.63647107,4113.5230386,0.0
1.16332064679,0.86059776873,9.94656017899e-06,-918056.511863,2.31396873134e-05,0.0,5431373.37907,685.685298618,654.81827148,65845432.323,1837.58906745,49451054.7191,67744696.7961,4828.94400483,4818.01148627,0.0
1.1773228097,1.02884006944,1.01290496235e-05,1865184.32065,2.290596202e-05,0.0,5443595.00152,686.297618599,655.689876574,65896529.5079,1857.30355368,50877042.8045,66972419.7466,4887.06698306,4876.76938889,0.0
1.17284547112,1.07193830966,1.00025595483e-05,2090601.22517,2.01565621895e-05,0.0,5458417.29853,685.997140765,655.409464194,65931127.9993,1850.13531968,51161885.4917,67199288.2258,4868.48155062,4857.91375144,0.0
1.0387560179,0.769748323729,9.61867849481e-06,-54458943.6004,1.61557838332e-05,0.0,5826983.54831,678.767552981,646.777826603,66970175.5536,1676.83772327,39681762.5976,71336438.6504,4311.8762303,4303.01466722,0.0
1.0031868237,0.799176646669,9.9003949105e-06,-95943971.8484,1.49977714138e-05,0.0,5934174.18528,678.396842622,644.536883576,67220554.8293,1631.02565631,70749275.7154,70844209.8525,4164.22850518,4156.58222542,0.0
1.07301386904,1.16957455289,9.95299346508e-06,-33302048.814,1.32348905408e-05,0.0,5804624.93936,679.942007038,648.943532283,66946261.4435,1724.38849584,34960159.3454,69743674.809,4454.08057039,4445.51600728,0.0
1.09564204919,1.00115342635,9.89970982267e-06,-24510049.1058,1.66341904165e-05,0.0,5742256.6145,681.469167137,650.490086527,66784609.1697,1754.65743181,36683980.16,69132388.9528,4548.01014619,4539.28317168,0.0
1.0794692784,1.04126077101,9.96308845027e-06,-29896307.1787,1.49593802771e-05,0.0,5786611.86355,680.511325218,649.484258461,66900295.6011,1733.4730901,35522460.4682,69349268.9508,4480.87697464,4472.40248137,0.0
1.00260955782,1.02035314167,1.00862154155e-05,-94504482.0524,1.34193783989e-05,0.0,5899072.5265,678.074541132,644.48846284,67116231.2986,1628.36822843,69486175.9642,70696258.2767,4161.83227451,4153.48139726,0.0
1.23735080909,0.806018176619,9.92119450033e-06,16972075.4739,3.08956605174e-05,0.0,18487222.6831,690.258429268,659.404143026,64884447.0539,1925.87774015,61629749.8717,66824216.4005,5136.24320853,5124.12062669,0.0
1.07411208787,0.984082384659,9.91044706171e-06,-32428246.5875,1.52674568548e-05,0.0,5802672.81196,680.070559704,648.998344005,66950746.6093,1726.47170769,35033683.4464,69745744.7839,4458.63927675,4450.24774614,0.0
1.08491726476,1.06102597381,1.02033228731e-05,-27216398.3817,1.52365684621e-05,0.0,5763322.76399,680.653052099,649.841259096,66841315.2633,1740.58077491,35920764.7566,69257444.902,4503.49156602,4494.93236071,0.0
1.02036527152,0.985246626421,1.02038769952e-05,-69617836.5651,1.38058666964e-05,0.0,5869100.28413,677.622783005,645.616261799,67073613.7013,1653.14824163,49166664.7502,70861941.4137,4235.53624208,4227.23017876,0.0
1.08980037903,1.09057260509,1.02184730413e-05,-25233061.0922,1.5320140633e-05,0.0,5750693.43354,680.852123533,650.105040104,66802325.2344,1746.77705616,36386865.4862,69164140.1693,4523.76137335,4515.12160791,0.0
1.15298806484,1.12564172877,9.97373927224e-06,-6489568.02077,1.96406348025e-05,0.0,5582578.19226,684.678911917,654.080459344,66346719.4582,1828.6777801,46409869.6054,68751825.3439,4786.05345715,4776.60461192,0.0
1.22726086087,0.999899686268,1.02112283798e-05,14811430.0791,2.63754042618e-05,0.0,16253480.3872,689.332678652,658.83601789,65163923.1702,1914.7577969,59973925.4523,66724481.4478,5094.35983347,5082.82855641,0.0
1.06246727773,0.922405431908,9.96606506343e-06,-37915664.6,1.52311779998e-05,0.0,5815122.71861,679.491473833,648.300100416,66969698.716,1710.72488146,34676505.63,70024053.32,4410.30166986,4401.90085583,0.0
1.25134417659,0.722705290305,1.0168214429e-05,20374656.2585,3.61217579859e-05,0.0,22229162.4492,691.132959616,660.293892547,64653272.2002,1942.36173901,64377856.6166,65255789.5055,5194.32967703,5182.25022503,0.0
1.14216429503,0.816777616072,1.02171478269e-05,-8333136.20847,2.35353224755e-05,0.0,5511974.3154,684.155803408,653.384950433,66098429.8904,1812.60744256,45180678.0353,68240431.3277,4741.12398867,4730.91306894,0.0
1.09804882301,0.794247536282,1.0410494927e-05,-21848230.6672,1.96982475248e-05,0.0,5679990.89963,681.424753405,650.689485823,66577516.1241,1757.04415528,37544752.4174,68332062.6276,4558.00066431,4548.94013619,0.0
1.17765321911,0.759191501183,1.00591518109e-05,1734519.49611,2.79724279944e-05,0.0,5347802.07012,686.643606911,655.69055582,65587501.635,1856.09437321,50648469.5039,66631448.0977,4888.43851253,4877.29721805,0.0
1.00123006867,0.8136243275,1.00919823458e-05,-95850724.1683,1.51312144459e-05,0.0,5890293.73814,678.261167691,644.400920443,67087253.2714,1626.65870445,70660830.5106,70660830.5106,4156.10601505,4147.78015031,0.0
1.0087650517,0.887766282101,1.03033488662e-05,-84156082.8231,1.4792407414e-05,0.0,5869131.06576,677.586955834,644.880004431,67038619.8911,1636.88065373,60606510.4325,70608494.057,4187.38372961,4179.01468727,0.0
0.925110882632,1.16456921074,9.95167206292e-06,-92294621.6639,1.21062404901e-05,0.0,6109750.96641,689.684782164,639.514424949,67638335.8112,1603.82185163,67530607.784,67735651.5788,3840.13527381,3833.36744986,0.0
1.16508070072,1.15844916738,1.00230093343e-05,-187719.513154,1.84441937913e-05,0.0,5455298.25601,685.532170803,654.925375466,65903892.9933,1839.15435452,49855391.999,67753022.4478,4836.24998869,4825.28749651,0.0
1.11232422922,0.772778171664,1.00212064851e-05,-16784194.2566,2.08470561743e-05,0.0,5661252.80648,682.449803684,651.54921817,66537567.5973,1775.77698996,40386234.0877,69130898.4516,4617.25787549,4608.07632576,0.0
1.20646759003,1.21807168642,9.55760069025e-06,9741394.22667,1.98416500534e-05,0.0,11130577.9009,688.225972909,657.512687596,65663846.9426,1890.82529374,56050678.8488,67181609.3103,5008.04696621,4996.88572589,0.0
1.1363019823,0.909650673528,1.03145222243e-05,-10420994.8981,2.2083476332e-05,0.0,5601552.9662,683.664777564,653.097719193,66390488.7547,1807.58924462,43999310.7397,67892210.6828,4716.78952853,4707.63392369,0.0
1.23385190183,1.00562040743,1.02798978835e-05,16266244.5085,2.69133446693e-05,0.0,17860312.9743,689.690326706,659.2047222,65009266.5413,1921.68021379,61121722.3978,66792717.8466,5121.7192445,5109.84003366,0.0
1.0457920032,1.11099560473,1.01084421918e-05,-48277194.7277,1.31110834045e-05,0.0,5830499.3171,678.56038858,647.238821013,66999833.6164,1687.24476911,36911436.7881,70755109.5174,4341.08260528,4332.45515528,0.0
1.1076745728,1.17798088915,9.9638964307e-06,-18266430.4653,1.50758548886e-05,0.0,5664444.05882,682.092869272,651.266243353,66542063.2537,1767.3324287,39596396.1118,68931810.5574,4597.95715169,4588.06967754,0.0
1.09621322916,1.06421859431,9.80012224738e-06,-24417270.4373,1.56529577342e-05,0.0,5752260.82026,681.535655443,650.523830537,66816177.7684,1755.50241086,36764561.5248,69241746.1259,4550.38111424,4541.64505665,0.0
0.937928476801,0.884251745446,1.02328245978e-05,-92972194.1828,1.37805676183e-05,0.0,6106291.80013,686.826298514,640.352691703,67665505.584,1604.2940437,68126902.953,68340552.2024,3893.3411072,3887.26997136,0.0
1.11385545533,0.925560344655,1.01984265794e-05,-15975594.8189,1.88271184388e-05,0.0,5641277.69945,682.310211445,651.600810591,66482684.8081,1776.56632582,40681460.8621,69336946.8527,4623.61399507,4614.10934976,0.0
1.05795908726,1.20600610827,9.74521727018e-06,-42022035.6645,1.23152015035e-05,0.0,5833206.01701,679.328864953,647.989622574,67015209.3385,1703.63746763,35215991.8023,70238295.5491,4391.58817122,4382.91013231,0.0
1.08043502728,0.978482382198,9.77308461429e-06,-30196623.4351,1.56543603906e-05,0.0,5791620.14846,680.541349563,649.417219406,66926108.6865,1734.78968471,35504092.4307,69397353.3915,4484.88579824,4476.39631352,0.0
0.950649254328,0.958360124535,9.73751629087e-06,-93469761.4736,1.42639080362e-05,0.0,6062921.58388,686.942153238,641.165388375,67540485.2128,1613.71124131,68565026.1716,68783185.455,3946.14505472,3939.30710051,0.0
1.11564082625,0.838167283849,1.02810335975e-05,-15501175.646,2.03432152244e-05,0.0,5624699.54053,682.426003895,651.709576988,66417505.0861,1779.29733755,40909425.0317,69103609.3197,4631.02506976,4621.48951379,0.0
1.18246284023,0.934098726827,1.04576774557e-05,4965888.12688,2.41005398394e-05,0.0,6531741.41776,686.495849455,655.970450941,65456893.7472,1859.77022133,52352955.0085,66720619.7545,4908.40324979,4896.92014023,0.0
1.08900659236,0.894714110675,9.68197593071e-06,-26994193.7193,1.69538896885e-05,0.0,5760106.14043,681.325138992,650.103808924,66834916.2769,1745.87875602,36097345.5521,69400803.8509,4520.46636489,4511.74579027,0.0
1.14387311662,1.10214228392,9.74110035764e-06,-7895597.96945,1.84936236315e-05,0.0,5569824.46265,684.242654171,653.430954093,66292188.7967,1814.60663519,45909481.0372,68475179.8641,4748.21730709,4738.08453959,0.0
1.08810588531,0.968206791244,1.01272514835e-05,-26300524.0901,1.65583019684e-05,0.0,5751103.75253,680.912962181,650.028442069,66806600.7421,1744.82436927,36101384.4754,69233096.1362,4516.72752992,4508.11858387,0.0
1.06516042611,1.13815277441,9.7293132669e-06,-37669212.0919,1.30475306702e-05,0.0,5831264.84989,679.729106516,648.477051936,67019393.6737,1714.10982957,34723345.4597,70204998.9006,4421.48092878,4413.0387932,0.0
1.24233601382,0.957728981395,9.71774458013e-06,18097582.1613,2.76705082301e-05,0.0,19627262.5855,690.576691291,659.789550235,65035393.0759,1932.52553786,62588816.8431,67174797.7541,5156.93679337,5145.12395802,0.0
1.0100018163,0.837925972682,9.52788349158e-06,-90814219.348,1.5129649322e-05,0.0,5887660.81166,678.63625528,644.962220305,67084535.0688,1637.97406735,66269661.2841,70856558.3665,4192.51753946,4183.96408004,0.0
1.01863663964,1.02283459949,9.83098491693e-06,-75128386.4845,1.32114268728e-05,0.0,5947309.92735,677.888329245,645.528743897,67310462.3771,1653.48239153,53327937.4042,70915079.7874,4228.36069115,4221.1881027,0.0
1.27516847402,1.0391661526,1.01910347728e-05,24065629.2588,3.13898788354e-05,0.0,25866307.8918,692.482329405,661.779905697,64222467.8044,1967.23219467,66930116.1701,67915633.8989,5293.22433566,5280.00102881,0.0
1.06289273974,0.926466297746,1.01593125827e-05,-36940117.9588,1.52971665805e-05,0.0,5806779.4675,679.365572603,648.328735236,66937174.4391,1711.29905473,34637695.0056,70048086.6031,4412.06776266,4403.66030859,0.0
1.12158301006,0.975384995391,9.95117954069e-06,-14394601.0366,1.89425894233e-05,0.0,5651230.07739,682.929489979,652.106853939,66521237.8795,1787.55518491,41661655.1623,68857193.3467,4655.69107476,4646.35935542,0.0
1.13919021382,0.999904497775,1.00558867863e-05,-9706975.36181,2.0165105132e-05,0.0,5550046.50011,684.025125531,653.252006396,66207138.6671,1808.70555532,44579846.4444,68014211.0483,4728.77857757,4718.61891103,0.0
1.11052664789,1.11422030606,9.40385178593e-06,-20762252.4771,1.59549408918e-05,0.0,5738370.67469,682.682499921,651.497076771,66795411.6001,1774.61502026,38243487.3647,68950230.5109,4609.79611539,4600.934159,0.0
1.03004676172,0.94967437671,1.02612834539e-05,-60348144.0611,1.43172537115e-05,0.0,5843351.77314,677.842799906,646.233476932,67012758.9522,1666.10366917,42875948.7978,70883285.2663,4275.7241079,4267.26247708,0.0
1.04310483978,1.08577355099,9.76603261804e-06,-51457504.4383,1.28922631035e-05,0.0,5889020.74022,678.610616699,647.067783618,67174161.3654,1685.63172881,38230010.9429,71084635.3997,4329.92818993,4322.22099235,0.0
1.15257422583,0.881188331644,9.98894671288e-06,-6498019.39624,2.37372093087e-05,0.0,5558012.65334,684.900499546,654.142933215,66271050.4984,1828.41352048,46381614.367,68670835.9302,4784.33561142,4774.89341931,0.0
0.968638546271,0.975169553978,1.05476409176e-05,-93949028.2015,1.35053941894e-05,0.0,5961442.12933,682.14090877,642.31001194,67267297.5211,1607.98451742,68987187.7095,69216596.6355,4020.81860557,4013.08933551,0.0
1.04932659562,0.85943658,9.86033818012e-06,-46121811.2217,1.54473093431e-05,0.0,5817340.19387,678.96941075,647.454044082,66954559.4647,1691.80275661,36169090.3944,70525915.8306,4355.75469842,4347.03815669,0.0
1.15707905432,0.951768226245,1.03662213701e-05,-2570740.53403,2.13002843723e-05,0.0,5455499.64942,684.981350569,654.430173927,65889848.3992,1830.09863175,48201933.0425,67824348.1154,4803.03515448,4792.32988103,0.0
1.11632173656,0.688300068896,9.76581388907e-06,-15768471.0204,2.24832351116e-05,0.0,5603614.38495,682.948263231,651.75858915,66363481.5559,1779.22461477,40981668.1153,69339977.6732,4633.85152846,4623.9083482,0.0
1.12043182473,0.967846118366,1.04636032755e-05,-13914243.6633,1.9257995352e-05,0.0,5607695.0489,682.56745464,652.032154532,66377548.8916,1785.19990913,41812852.332,67992486.2006,4650.91250445,4641.29806505,0.0
1.06286018268,0.931294721418,9.83133768335e-06,-37530546.3144,1.48899922019e-05,0.0,5784471.71792,679.757458295,648.394120449,66861131.2734,1709.39093381,34616204.941,69983909.9633,4411.9326183,4402.81350003,0.0
1.11542518886,0.880037287347,9.87169619895e-06,-16258362.9995,1.94949441763e-05,0.0,5667826.94953,682.655030551,651.727452013,66574972.9294,1779.70162959,40683905.0945,69333052.7407,4630.12995896,4620.89729678,0.0
1.10235651623,0.99214743929,9.53474658325e-06,-21674604.8637,1.67473117956e-05,0.0,5666234.60076,682.214777114,650.952397176,66533023.1963,1760.08680293,38104171.5093,68542198.8373,4575.88189887,4565.80401858,0.0
1.13456865016,1.09723721986,1.04445127374e-05,-10661549.1877,1.91250390916e-05,0.0,5616748.14062,683.386145615,652.990380077,66437273.2011,1805.14231241,43840418.9087,67869566.2308,4709.59446681,4700.4663272,0.0
1.05590179891,0.890747685982,9.82173227171e-06,-43970177.3778,1.55369721764e-05,0.0,5793764.91592,679.467978779,647.944187221,66895939.902,1700.35679563,35519780.04,70283748.9658,4383.04836728,4374.07579662,0.0
1.03402859855,1.24539515888,9.76938889402e-06,-58782893.796,1.16339103916e-05,0.0,5921890.05205,678.23585264,646.506548421,67266015.6523,1673.88508947,42044410.2742,71152877.7847,4292.25271258,4284.8608579,0.0
0.990663025318,0.702626213555,9.63799572243e-06,-95276681.9636,1.63908810164e-05,0.0,5981450.30929,680.953225937,643.74626678,67352431.629,1620.72074871,70155731.275,70399255.015,4112.24221809,4105.11769384,0.0
1.07062013802,1.04905961062,9.71237520482e-06,-34623573.6755,1.42075826399e-05,0.0,5823771.94084,680.058992637,648.833740486,67005622.9639,1721.87140769,34760825.1682,70157365.6311,4444.14419292,4435.8065587,0.0
1.11148360514,0.861943157934,9.83192200692e-06,-17357664.4251,1.91721184186e-05,0.0,5682938.84332,682.491013448,651.513308938,66613479.8919,1774.68921604,40110059.6087,69081197.2711,4613.76844494,4604.60037446,0.0
0.98115807577,1.20938974806,1.04884582849e-05,-94731799.7459,1.1629230789e-05,0.0,5950177.51951,679.702719027,643.117151249,67243416.5128,1606.72632375,69676275.1471,69915382.7739,4072.78717252,4064.86418556,0.0
1.13289739813,1.03045997927,9.99118886166e-06,-10829868.5689,1.93829272259e-05,0.0,5632539.8515,683.588732082,652.884357964,66484424.6808,1802.65211626,44018163.9341,67767926.3325,4702.65709964,4693.4534596,0.0
0.977300769396,0.927517645075,1.0205758803e-05,-94749093.6806,1.4362598216e-05,0.0,6016004.59846,681.160051108,642.888882478,67450793.7396,1612.5635036,69691487.4792,69927021.7058,4056.77549376,4050.18248244,0.0
1.11735931943,0.936131994957,9.50528504831e-06,-16138468.5241,1.84570991946e-05,0.0,5652972.80165,683.031325036,651.850359032,66512584.5618,1780.98135756,40692993.1911,69424772.9375,4638.15853495,4628.39698496,0.0
1.08120229414,0.936823131737,9.7993722078e-06,-29812401.4082,1.61697898334e-05,0.0,5781672.53457,680.771200136,649.59656848,66896770.0103,1735.81982991,35589868.663,69372918.7776,4488.07072298,4479.56932012,0.0
1.18435837651,0.966136539197,9.85328809492e-06,4006098.66002,2.2804659229e-05,0.0,5769892.93486,686.937069601,656.086379708,65613650.3294,1862.83524775,52115916.8133,66891796.7114,4916.27162089,4904.76250896,0.0
1.0705755331,1.06520772068,1.05858014821e-05,-32382336.1918,1.46930272546e-05,0.0,5791870.81545,679.522774921,648.890621457,66909238.0951,1722.37182525,34819002.1638,69375746.7502,4443.9590379,4435.81163015,0.0
1.1372860961,0.918752734738,1.04411267133e-05,-9866974.23883,2.21740221404e-05,0.0,5592837.21581,683.612008725,653.135631131,66368054.1585,1808.79155902,44247450.5931,67962366.4962,4720.87458491,4711.70337148,0.0
1.22634555146,0.839088161531,9.7296411909e-06,14169663.7691,2.85067350701e-05,0.0,15619840.9962,689.695884425,658.772741807,65107613.3774,1913.63572236,59392186.807,66589377.4893,5090.56038411,5078.69817148,0.0
1.12892104231,0.860022292936,1.0117044038e-05,-12172602.8375,2.12494065667e-05,0.0,5579650.02475,683.410441993,652.594681238,66291722.7792,1796.05751172,43013635.1101,67263556.993,4686.15124663,4676.29396007,0.0
1.16484405034,0.927858023358,9.78917125132e-06,-856978.844947,2.18997825493e-05,0.0,5442182.12237,685.827874974,654.916605965,65875697.6763,1839.49665446,49563432.4223,67788630.7159,4835.26765296,4824.30784297,0.0
1.25307511416,0.910820187817,9.77421256417e-06,20042821.0251,3.00074467412e-05,0.0,21728170.2489,691.325085026,660.385381836,64632108.9257,1943.02207846,64067258.1931,64959714.0177,5201.51479888,5188.75499033,0.0
1.04589422717,0.84905391692,9.8372785569e-06,-46767723.5816,1.51948770897e-05,0.0,5844362.70612,678.802849748,647.252318126,67025744.489,1688.06882901,36429228.1662,70888459.4056,4341.50693698,4333.18410407,0.0
0.993031765282,0.771734802676,9.56232644248e-06,-95388406.9779,1.55121965929e-05,0.0,5925609.15812,680.282764131,643.883905477,67173796.2539,1616.07164888,70254344.7718,70493424.5815,4122.07485769,4113.80227746,0.0
1.11496288813,0.851900177468,1.0274444862e-05,-15651095.4841,2.00643809943e-05,0.0,5628738.64037,682.383591262,651.667843746,66429370.2165,1778.42274512,40726939.017,69196964.7954,4628.21094863,4618.68757766,0.0
1.12163798279,1.04791477033,1.0133948826e-05,-13853797.4002,1.79161094238e-05,0.0,5620254.77261,682.809808797,652.109947672,66422773.598,1786.33258599,42062401.4463,68243779.1078,4655.91926656,4646.1853405,0.0
1.11083516601,0.942356464099,9.46046985482e-06,-18892945.9124,1.79277122839e-05,0.0,5638855.9679,682.776081709,651.469818906,66460988.0222,1771.27939821,39426445.9272,68883203.6413,4611.07677411,4600.84948913,0.0
1.08470119887,0.859506742228,9.67470721264e-06,-28504539.5619,1.70648243132e-05,0.0,5769821.80173,681.107437431,649.835882133,66858012.4938,1740.2634206,35804084.4579,69397436.0845,4502.59467651,4493.94190247,0.0
1.0567509718,1.00705421998,9.76024828837e-06,-43887278.9927,1.43369735514e-05,0.0,5805126.02161,679.388407178,647.915662352,66931497.4949,1701.36920371,35536780.9808,70326696.4286,4386.57328394,4377.58662765,0.0
0.996872580504,1.11615819889,9.86327089181e-06,-95725611.4721,1.25054941832e-05,0.0,5982069.07461,678.869167407,644.142848798,67357973.9111,1622.9133059,70551007.3692,70834823.9907,4138.01808167,4130.81306057,0.0
0.98901504484,0.982503325568,1.02374003031e-05,-95064884.5223,1.38178948214e-05,0.0,5926168.80435,679.317703951,643.622800675,67182012.2762,1611.14619313,69969524.9443,70212062.2726,4105.40145113,4097.35089182,0.0
0.895726081653,0.966793241347,9.5465183079e-06,-91137937.6681,1.34957150425e-05,0.0,6198111.29649,694.437867921,637.627427378,67864587.2758,1599.68735562,66512569.0333,67864587.2758,3718.15896494,3712.09435238,0.0
1.17612745928,0.934787781129,1.02191623031e-05,3093912.84224,2.32270833102e-05,0.0,5407680.26599,686.17894738,655.59834432,65760265.1362,1853.92475543,51502291.9469,67024691.1332,4882.10508347,4871.366121,0.0
1.20653641817,1.11697234759,9.98997115708e-06,9968962.95655,2.20012385023e-05,0.0,11320414.5682,688.0791403,657.452981342,65325111.8512,1888.6916619,55998900.5712,66991977.4198,5008.33267182,4996.3799914,0.0
1.07603035962,1.02578699307,9.66908480673e-06,-32461094.7864,1.47570806966e-05,0.0,5810527.08486,680.331427026,649.121592119,66974154.8953,1728.95346505,35032595.6079,69867188.5676,4466.60202278,4458.18082392,0.0
1.0754799679,0.83526401922,1.02165694107e-05,-31737375.317,1.74952222711e-05,0.0,5779829.85874,680.178192571,649.221529204,66888967.7069,1728.99862102,35007931.4949,69377860.5329,4464.31734675,4456.09713127,0.0
1.17674042157,0.905921857866,9.94347730931e-06,2646989.54652,2.32101575116e-05,0.0,5429065.01183,686.384187471,655.647613244,65844026.7937,1855.39227638,51396188.2915,67145392.3623,4884.64948994,4874.01554418,0.0
1.07352884905,1.13230873636,1.01658337008e-05,-32775695.4639,1.39618806307e-05,0.0,5809492.25647,679.800452612,648.95789447,66975244.5852,1726.25563796,34901462.4302,69669035.7834,4456.21825241,4448.02612458,0.0
1.2098830417,1.06230342983,1.01700614736e-05,10876221.6449,2.33319198729e-05,0.0,12146049.0912,688.20210298,657.666547582,65281048.3504,1893.13023925,56672971.0019,66379679.1856,5022.2245061,5010.45393915,0.0
1.04510333236,1.18672618607,9.91356684388e-06,-46934722.2744,1.21168722964e-05,0.0,5862547.77299,678.580993672,647.202213743,67081355.3351,1686.81446334,36497205.0933,70955811.4266,4338.22393263,4329.91349949,0.0
1.05554515991,0.939491004832,1.00669733264e-05,-40832604.0046,1.47400037998e-05,0.0,5828675.98627,679.021582064,647.836931486,67000099.9085,1701.50997511,34970799.1977,70123035.9577,4381.56795879,4373.27631473,0.0
1.18960895873,0.757000031445,1.02201914733e-05,6162456.89978,2.82254112092e-05,0.0,7612618.48218,687.266715154,656.450639714,65345948.8408,1869.33492018,53099663.0885,66495296.2484,4938.06678769,4926.55513922,0.0
1.05496865252,0.827757629263,1.0279238305e-05,-42514025.6937,1.61324416252e-05,0.0,5790851.23348,678.953565592,647.796704595,66886411.1947,1700.00559867,35149009.8746,70161625.1977,4379.17487661,4370.48802027,0.0
1.22225326302,1.10612188396,1.02506230898e-05,13611952.0421,2.3650129839e-05,0.0,14848350.3836,688.960106396,658.502521821,65143200.191,1907.57814004,58912105.9718,66560458.5437,5073.5732948,5061.65970141,0.0
1.02052562673,0.904759333928,9.93381468435e-06,-71885013.9035,1.4229718551e-05,0.0,5933062.46297,677.823956957,645.649650611,67274093.1417,1656.09327432,50854914.8982,71893576.6881,4236.20187656,4229.00244137,0.0
1.10836279082,1.04062356286,9.74176994215e-06,-18754935.3391,1.64625114134e-05,0.0,5692863.60328,682.332757514,651.332050372,66634727.0772,1769.86960899,39436568.8843,68864018.2771,4600.81394469,4591.39899854,0.0
1.16901655593,0.748546503916,9.74228791121e-06,-868701.718887,2.79460393711e-05,0.0,5493711.43385,686.189073455,655.209487768,66084280.2538,1848.91023457,49581052.8187,68009318.4053,4852.58772367,4842.86862306,0.0
1.14209256079,1.05722432243,1.01949690409e-05,-8823055.20682,2.00044019156e-05,0.0,5592915.31418,683.973801925,653.411870068,66361224.8228,1814.46682673,45009956.7613,68265610.1884,4740.82621984,4731.44590768,0.0
1.05703266265,1.10143218207,9.90420143248e-06,-40800306.4094,1.31101501158e-05,0.0,5841600.57531,679.159555152,647.93131729,67038930.334,1703.35059459,34998214.8686,70147136.5263,4387.74258266,4379.42639576,0.0
1.11155805188,1.19348649514,9.85030663294e-06,-17560577.679,1.51697136489e-05,0.0,5704799.86806,682.337119299,651.519566036,66684138.4327,1774.42353779,40072097.2018,69153505.6759,4614.07747335,4604.90888448,0.0
1.01773104174,1.09122746788,1.02706443991e-05,-73683005.141,1.27128203795e-05,0.0,5931526.43535,677.411322356,645.471170922,67271400.8218,1652.10147841,52206671.8824,70798919.5154,4224.60155426,4217.44210142,0.0
1.10370222724,0.900147247832,1.00288966783e-05,-21341031.3487,1.85355422362e-05,0.0,5707951.52478,681.958876869,651.060403465,66682917.7744,1765.39571433,37826254.7798,68617984.3262,4581.46794527,4572.61325594,0.0
1.16288202011,0.883918608821,1.01837420968e-05,-1362370.71207,2.27666494876e-05,0.0,5458741.99038,685.451897046,654.796504426,65920715.6952,1838.08891679,48959367.4573,67636748.0813,4827.12326548,4816.6323317,0.0
1.01180185699,0.869596933389,9.88050838857e-06,-82814256.3351,1.43796903859e-05,0.0,5957153.40187,677.833559573,645.097063301,67309343.8612,1644.36654746,59493015.6418,70913417.9443,4199.98950837,4192.91369956,0.0
1.15256953895,0.891212333401,9.68419418219e-06,-5548475.55825,2.26361012279e-05,0.0,5539755.00609,685.096468089,654.132272518,66212722.6228,1826.77904417,47244225.5478,68780738.1443,4784.31615618,4774.35827172,0.0
1.07281485664,0.713141070571,9.71092965056e-06,-33603349.8588,1.82756870795e-05,0.0,5796809.80592,680.293305009,648.954758258,66926118.0752,1724.99004244,34832068.5401,69970031.7537,4453.25446991,4444.88279898,0.0
0.966578055458,1.02604446264,9.96847291242e-06,-94150167.4237,1.35616430618e-05,0.0,6007094.27909,683.613740849,642.18658522,67393140.442,1611.65661077,69164043.397,69392902.7292,4012.26550821,4004.88050508,0.0
1.14800322425,1.13454907892,9.89169958286e-06,-8035835.50849,1.90301689595e-05,0.0,5601605.75187,684.511323929,653.827948017,66398610.734,1822.40680775,45526561.6337,68950822.9009,4765.36138386,4755.99255125,0.0
1.13354044083,0.869777609111,1.03729898505e-05,-11009019.0176,2.24973925288e-05,0.0,5604896.52383,683.477848376,652.923939516,66397167.9661,1804.07540922,43652282.2146,67741664.5066,4705.32636989,4696.21450667,0.0
1.05712122355,0.846720240609,1.00794436084e-05,-39959849.7159,1.57651808417e-05,0.0,5819302.01209,679.12906715,647.94027855,66974053.7856,1703.67704705,34840857.2529,69656070.7673,4388.11019896,4379.79263581,0.0
1.0920579352,1.028286425,1.01203897322e-05,-25053409.3489,1.61274212193e-05,0.0,5744747.16707,681.079083659,650.245978475,66793872.3677,1749.94066425,36480552.9625,69119585.5938,4533.13248902,4524.46172946,0.0
1.10985527076,0.861840456694,1.06152741714e-05,-16326320.149,1.9703205618e-05,0.0,5630402.94972,681.844363374,651.34701706,66432634.4041,1771.72625071,40345899.6801,69442149.5781,4607.00922892,4597.57122692,0.0
1.08002215219,0.947246725916,1.02241516238e-05,-28804509.3992,1.62395811958e-05,0.0,5756420.97879,680.422132401,649.535966375,66802583.1824,1733.58693667,35511638.287,69212121.2182,4483.17195374,4474.49716975,0.0
1.02372518974,1.17081099007,1.00478025684e-05,-66624341.6217,1.21072842466e-05,0.0,5926809.36708,677.687155737,645.849385147,67262703.3798,1659.81307143,47069128.2837,70966125.6004,4249.48326261,4242.1486135,0.0
1.04435289633,0.869046618703,9.79905889304e-06,-51049010.8505,1.53930758854e-05,0.0,5813739.83638,678.829636696,647.129501675,66938699.2246,1684.4161348,38028141.1307,70927898.1665,4335.10887267,4326.15395878,0.0
1.0877252267,1.20208506916,9.6940787371e-06,-27509446.2377,1.35367047148e-05,0.0,5783273.20646,681.119854667,650.026320563,66903921.4969,1743.96601213,36071029.6749,69464985.3043,4515.14741603,4506.4470427,0.0
1.1427172573,1.10550010536,9.4904052717e-06,-8565666.18576,1.81871493364e-05,0.0,5597262.07677,684.479093261,653.48918862,66379408.8323,1813.76818259,45532873.2836,68316712.4344,4743.41933505,4733.50990564,0.0
1.22851020787,0.883549249334,1.00458244823e-05,14987700.637,2.8542084602e-05,0.0,16399356.5353,689.442278245,658.821773244,65148171.2501,1916.58155896,60072263.2057,70091180.3698,5099.54587287,5087.96354857,0.0
1.10248578774,0.870341925971,1.02100154648e-05,-21473353.5255,1.90182569189e-05,0.0,5698502.50005,681.773582444,650.978283389,66657099.4564,1763.67682372,37727512.5389,68564104.3387,4576.41850491,4567.58377822,0.0
1.09438835024,0.866090163916,9.92479231372e-06,-24827006.7549,1.81071504781e-05,0.0,5734502.27538,681.426482321,650.399222859,66762850.8566,1753.13514361,36574217.0226,69138052.6618,4542.80604185,4534.09874784,0.0
1.10279165752,0.987637125468,9.82513865838e-06,-22200260.2054,1.72315456319e-05,0.0,5726346.99305,682.00523901,651.005543418,66747986.4925,1764.15942179,37523146.5476,68570810.4033,4577.68817037,4568.8485023,0.0
1.10748970427,0.902337197583,1.04295135726e-05,-17532761.0154,1.87543880635e-05,0.0,5651575.5938,681.863830614,651.247896818,66487184.3572,1768.66969119,39891463.41,68886309.8829,4597.18976242,4587.79090162,0.0
1.06105985127,1.03061908755,1.01770195957e-05,-37746997.7625,1.40975188639e-05,0.0,5817188.57296,679.211594743,648.209647148,66976798.267,1708.81283175,34654448.0998,69974718.7627,4404.45944262,4396.08057852,0.0
1.07121841163,1.05771886409,1.01796763385e-05,-32328088.9042,1.43958426477e-05,0.0,5793747.68285,679.689842988,648.813189931,66913577.5884,1721.9431491,35053823.8936,69602268.883,4446.62762668,4438.09009692,0.0
1.02584037954,1.11159588617,1.03908299738e-05,-64888487.588,1.26880067869e-05,0.0,5837447.43283,677.50552936,645.942181076,66993922.0001,1659.13733039,45827481.3618,70521205.318,4258.26341547,4249.44662369,0.0
1.04600038266,0.796626403206,9.95056300762e-06,-48813740.2702,1.61412769608e-05,0.0,5815911.19788,678.829122256,647.256161615,66951770.8564,1687.72019151,37055084.9692,70958643.5493,4341.94758842,4333.31676489,0.0
1.0205728107,1.01462937747,1.00484185321e-05,-70685680.5861,1.35652662142e-05,0.0,5876156.34718,677.787873043,645.638210436,67093180.0037,1653.36464801,49953210.2352,70977722.5262,4236.39773722,4228.08835133,0.0
1.02623270763,1.09431995733,9.84205658879e-06,-65736491.9414,1.26827696398e-05,0.0,5931486.07523,677.969936338,646.008033722,67282598.6676,1663.56978818,46464335.9917,71039246.6067,4259.89196937,4252.61116421,0.0
1.09519914799,0.948476400255,1.03476717279e-05,-22968729.7828,1.74097089481e-05,0.0,5704041.42281,681.209078652,650.497519525,66660388.3072,1753.22188843,37080789.1174,68973819.5296,4546.17166331,4537.15806271,0.0
1.16621798741,0.846371116409,9.95157573792e-06,145371.296131,2.36601723036e-05,0.0,5417550.10889,685.855569748,654.996484567,65806011.0058,1841.05464708,50019258.147,67652225.4356,4840.97086574,4829.98798013,0.0
1.1295115043,0.884404952618,9.9108687506e-06,-12156193.815,2.07453472955e-05,0.0,5591315.18972,683.45371161,652.556836862,66342546.6566,1796.67111555,43104488.1104,67327983.1808,4688.60225435,4678.73538847,0.0
1.13780944572,0.930895393623,1.01156219449e-05,-10170971.4444,2.150267402e-05,0.0,5602128.66222,683.885302133,653.196107393,66380725.2478,1809.26886351,44138143.12,67945378.5255,4723.04700918,4713.76189141,0.0
1.02504196976,1.20213102194,1.00131009763e-05,-65485373.1055,1.17912138577e-05,0.0,5933011.70588,677.73730014,645.934049773,67285667.5153,1661.95959168,46284702.6349,70979518.2031,4254.94921647,4247.68542068,0.0
1.02437367305,0.869035800755,1.01471376922e-05,-64610551.7985,1.46917745409e-05,0.0,5906411.70824,677.697187458,645.889727066,67203368.9035,1660.86393904,45683089.9704,70862981.2411,4252.17511683,4244.83112233,0.0
1.09557135483,0.957536405447,9.61826272607e-06,-24944483.272,1.6724527205e-05,0.0,5748633.693,681.660932515,650.470476166,66808555.3385,1754.42352274,36621554.903,69291371.0165,4547.7166939,4538.89232363,0.0
1.02632357252,0.897457697688,1.02677650378e-05,-63649328.6741,1.4648783725e-05,0.0,5848462.59383,677.720072681,645.981050721,67022963.6646,1661.18954325,44988756.0706,70820145.6569,4260.26914953,4251.86748335,0.0
1.0582897561,0.903393268557,9.74720639777e-06,-40799591.4528,1.51215145821e-05,0.0,5832196.23853,679.424869855,648.012470041,67010550.3102,1705.1339054,35007557.5411,70116195.0443,4392.96077757,4384.62504658,0.0
1.12082499681,0.992229984371,1.00888043118e-05,-14128139.3304,1.862742957e-05,0.0,5622801.76961,682.807016068,652.047530015,66428650.855,1785.35685173,41860172.4863,68464238.6764,4652.54456176,4642.82432159,0.0
1.0201310516,0.739134636669,1.00693785823e-05,-70854722.0732,1.58787199462e-05,0.0,5860988.74732,677.862113704,645.60939941,67045482.2653,1652.95348529,50072061.7247,70917110.9649,4234.56399519,4226.26168094,0.0
1.00969127702,0.924821256774,9.69372560665e-06,-87268518.2153,1.39510123368e-05,0.0,5971158.81962,678.11189002,644.96737772,67349838.6447,1641.44083738,63225790.2002,71075057.9319,4191.22849091,4184.18228888,0.0
1.00714912586,0.876917533786,9.76610145252e-06,-89702231.1955,1.4435460626e-05,0.0,5919559.75217,678.319747172,644.79030081,67179561.4904,1635.81334447,65306560.7567,71140612.7758,4180.67602144,4172.66357504,0.0
1.02739066242,0.819908731788,9.75364120134e-06,-65108895.2617,1.51595937644e-05,0.0,5918422.06047,678.184261714,646.090444611,67244185.7234,1665.2465129,46038325.8561,70945980.0764,4264.69863971,4257.40127723,0.0
1.15494018927,0.805571382507,1.00647476787e-05,-4531608.70264,2.55806150963e-05,0.0,5535823.86132,685.090662775,654.335184275,66187427.5033,1831.17821424,47536143.63,68518113.4856,4794.15672566,4784.67939824,0.0
1.11296357718,0.892078723711,1.01888342565e-05,-16473258.1109,1.94049456567e-05,0.0,5659467.08863,682.288576332,651.566990448,66538637.2411,1776.27597511,40522942.2217,69228194.9046,4619.91180887,4610.71911437,0.0
1.19002806559,1.13337624101,9.9663515293e-06,5914400.04166,2.0270713e-05,0.0,7452367.6535,687.074893037,656.472556277,65682914.3668,1870.13534691,53293055.407,66862214.169,4939.80650026,4928.62325842,0.0
1.11357749312,1.02894809429,1.00519922073e-05,-16433165.7334,1.75611127855e-05,0.0,5677161.06684,682.359474868,651.613962519,66589619.9983,1777.13058901,40566599.0119,69278483.8827,4622.46017394,4613.25743024,0.0
0.930346792418,1.02400969333,1.02851307513e-05,-92379186.258,1.31995645435e-05,0.0,6058854.54543,688.131424225,639.845572286,67495423.7878,1601.15184301,67605229.044,67812904.6419,3861.86953533,3854.73379446,0.0
1.05881995595,1.00702882268,1.02521277469e-05,-38858630.8285,1.43973140093e-05,0.0,5821169.75667,679.050297027,648.066043325,66979744.4432,1706.1306895,34730903.3551,69794794.0468,4395.16163715,4386.91184874,0.0
1.02437298819,1.07767362709,9.70698989988e-06,-69364005.2004,1.27997702355e-05,0.0,5940930.06744,678.072159921,645.897129553,67305109.3785,1661.07079555,49021931.7114,71021852.5569,4252.17227398,4244.91802697,0.0
1.0198819449,1.20833186143,9.66538881822e-06,-75276204.8807,1.16956988594e-05,0.0,5960398.76385,677.998426777,645.61049711,67351657.5357,1655.01270126,53452809.1022,71020181.5392,4233.52995328,4226.33967106,0.0
1.11615059951,1.00852476497,9.8656808718e-06,-16096994.9011,1.7916991404e-05,0.0,5675691.85525,682.637332775,651.764946189,66601610.5776,1780.52617006,40782498.0708,69414051.7237,4633.14113857,4623.89671958,0.0
1.06456368361,0.974513913546,1.02747524277e-05,-36110482.2903,1.50614842649e-05,0.0,5804449.60292,679.359798542,648.439793613,66939558.3431,1713.79244224,34626524.872,70012896.9055,4419.00385067,4410.66367365,0.0
1.03428861882,0.85853307002,1.00730361614e-05,-57517062.534,1.50805933627e-05,0.0,5842583.70544,678.190686745,646.502015285,67016592.0194,1672.17142928,41207978.7202,70959964.4864,4293.33205672,4284.88864598,0.0
1.04419273445,1.04219803557,9.84659878389e-06,-51042200.6079,1.3734143216e-05,0.0,5823665.13632,678.71135036,647.120011132,66969762.7168,1684.07476858,38059543.8653,70947233.9651,4334.4440407,4325.49180147,0.0
1.19936230901,0.7203337524,1.00047735723e-05,8602135.25767,2.97953383402e-05,0.0,10076149.2368,687.984735607,657.075090918,65342434.6231,1881.9221053,55055792.3729,66587937.5144,4978.5529447,4967.19242834,0.0
1.21569349718,0.657359724648,9.98003305142e-06,12129226.842,3.33900950472e-05,0.0,13380076.0736,689.100213136,658.072876577,65047477.6109,1901.40564602,57635543.2589,66117178.2389,5046.34370679,5034.56926805,0.0
1.07651532837,0.939499212514,9.75820929225e-06,-31079810.3048,1.56205511739e-05,0.0,5781383.79973,680.335852654,649.151044838,66880346.0266,1728.41772821,35257447.6759,69878385.0062,4468.61512806,4459.8065283,0.0
1.04579740398,1.10041195327,9.73011722424e-06,-50607117.0915,1.32006633715e-05,0.0,5828270.36857,678.867461665,647.236115844,66984970.2603,1686.14110531,37852370.6241,71028948.0821,4341.10502392,4332.12597275,0.0
1.21890655691,0.919515318819,9.75489011375e-06,12311445.3031,2.62796791493e-05,0.0,13581897.5575,689.16695311,658.283109013,65195864.2727,1904.66706299,57889584.2304,66314733.6029,5059.68111773,5047.76442134,0.0
1.13534140515,0.776231836126,1.04063689926e-05,-10432049.4437,2.43338491952e-05,0.0,5588370.17341,683.614186435,653.035358249,66350744.9996,1806.46975168,43939162.7365,67821134.9809,4712.80217278,4703.66179276,0.0
1.10101564463,1.01848610696,9.5481663679e-06,-20834874.0931,1.62334553262e-05,0.0,5756933.6218,681.981263373,650.892362981,66830313.1735,1761.63587726,38577732.8916,69077035.5341,4570.31594086,4561.63158843,0.0
1.06859191087,0.795441063485,1.03998055414e-05,-32975129.9002,1.74207901346e-05,0.0,5778832.59998,679.501852576,648.659230014,66871329.5307,1719.00221082,34843366.1136,69545231.1754,4435.72502202,4427.32278641,0.0
1.00146620385,0.988600317232,9.99740482999e-06,-95874008.2342,1.376325483e-05,0.0,5903089.14088,678.356238146,644.418958042,67125347.9023,1626.84426687,70680611.3312,70680611.3312,4157.08621218,4148.7539666,0.0
1.03488658812,0.910261358747,1.01680292922e-05,-54388528.7,1.44025149535e-05,0.0,5836651.02397,678.096473462,646.543944539,66995614.1178,1672.44055381,39531766.8878,71019809.1594,4295.81422729,4287.18727235,0.0
1.1634279772,0.876881094956,1.02019067332e-05,-403560.917316,2.3122512651e-05,0.0,5420258.11152,685.516307012,654.819209588,65798634.3015,1837.52599275,49527412.2989,67565846.2849,4829.38953336,4818.46797412,0.0
1.1192437376,1.05397120475,9.48142703388e-06,-15805709.6129,1.70035882389e-05,0.0,5658464.13448,683.088175805,651.95378732,66530504.6475,1783.40922596,40921711.5614,69559876.351,4645.98075478,4636.18772295,0.0
1.05753168552,0.889410845257,9.96838219693e-06,-40253684.8171,1.53077095747e-05,0.0,5824894.73698,679.211796434,647.957917584,66990299.2342,1704.17895485,34907218.1497,69787873.0185,4389.81402659,4381.49008361,0.0
1.12894960645,0.730317537702,9.93261088145e-06,-12187360.5731,2.31726561011e-05,0.0,5576252.7759,683.498670518,652.518970052,66295575.7364,1796.13745598,43065032.8724,67245614.636,4686.26981637,4676.41246157,0.0
1.14454625655,0.952405394149,9.63744355601e-06,-8171772.75322,2.1155829248e-05,0.0,5595964.93589,684.526622496,653.583409816,66391130.1588,1817.40018876,45791794.4845,68414705.9394,4751.01151094,4741.48890323,0.0
0.963106107032,1.12384301812,1.01086515263e-05,-93964466.3278,1.26292789868e-05,0.0,6047513.19549,684.035610933,641.97071424,67525424.619,1613.44552739,69000513.3544,69226231.2288,3997.85345029,3991.15276683,0.0
1.17382063546,1.02110385869,9.97728391473e-06,2320702.47797,2.10729492754e-05,0.0,5450257.04386,686.103938042,655.468047157,65907088.6318,1851.41898656,51278631.9597,67182761.6191,4872.52945779,4861.94478756,0.0
1.12738549131,1.00370406156,1.00039498005e-05,-12572203.2292,1.89644899859e-05,0.0,5602243.98832,683.293561874,652.491336976,66374837.4785,1793.80052217,42846922.5027,67260536.9724,4679.77717443,4669.94627572,0.0
1.11335926934,0.825457731561,1.03232334405e-05,-15960243.1126,2.03518479657e-05,0.0,5628007.20543,682.275531005,651.567885455,66422859.2935,1776.32624344,40658037.1881,69230966.6797,4621.55432703,4612.03275947,0.0
1.20329207976,0.850485638804,9.91594646949e-06,9801714.68944,2.6672025547e-05,0.0,11186943.568,688.083728369,657.307794915,65453893.9296,1886.76215864,55938303.532,66925941.1265,4994.86542308,4983.65723262,0.0
1.07106928563,0.743765671694,1.00889381171e-05,-32686942.7282,1.79720021645e-05,0.0,5776874.87638,679.891979261,648.81666414,66859223.6841,1721.98936704,34991789.0859,69611533.1469,4446.00860465,4437.47341728,0.0
1.22374723148,1.19434454064,1.00510251011e-05,13489006.6751,2.20827946431e-05,0.0,14805711.2108,689.129680371,658.593670214,65147320.8469,1909.01627834,58859059.7139,66557985.3208,5079.77475787,5067.62974856,0.0
1.09821240761,0.997598505929,1.02551802435e-05,-22649406.6832,1.71662708558e-05,0.0,5718874.12727,681.435325129,650.706548627,66713458.8344,1757.99733491,37210001.3549,68559880.0051,4558.67970399,4549.91139353,0.0
1.15857443958,0.972471002911,1.00962914802e-05,-2752338.52184,2.10230206259e-05,0.0,5495296.04128,685.194251246,654.538060207,66053163.6859,1833.14750864,48385993.7237,68067641.1718,4809.2424987,4798.92440676,0.0
1.19639382118,0.891920377342,9.65939530244e-06,6530312.65574,2.49710894115e-05,0.0,8103424.52292,687.91579218,656.887628474,65449535.6328,1877.70686794,53672449.1827,66686567.022,4966.23075172,4954.46601084,0.0
1.08825734602,0.923517753838,1.02417888585e-05,-25905370.8282,1.7152008801e-05,0.0,5742678.59621,680.84578256,650.026205999,66783613.329,1745.05453446,36168145.4735,69149926.9922,4517.35624333,4508.74493163,0.0
1.14763017106,0.892863444062,9.84129046397e-06,-7847858.42308,2.22788167151e-05,0.0,5530003.92114,684.567217797,653.665419004,66160204.0349,1819.94134462,45645384.2137,68543739.5805,4763.81284007,4753.6102102,0.0
1.05489719725,0.880099356348,9.97083269668e-06,-42469021.7352,1.54085355829e-05,0.0,5811628.42519,679.129001471,647.796734755,66946887.9628,1699.82111177,35258337.7531,70539500.4811,4378.87826578,4370.24949077,0.0
1.10397223779,0.916982118213,9.99776203832e-06,-21372423.0458,1.83248869446e-05,0.0,5709880.15827,681.986316257,651.076941926,66688007.06,1765.7338789,37814656.4894,68630514.0265,4582.58875907,4573.73044411,0.0
1.05818818667,1.01035279838,9.93935666099e-06,-40059948.8596,1.40888459633e-05,0.0,5831930.09064,679.230110137,648.008303597,67012863.4125,1704.96054773,34880654.9206,69739757.0803,4392.53916287,4384.20501168,0.0
1.2092594901,0.876441326733,1.00821429388e-05,10828349.0825,2.68600448184e-05,0.0,12131913.9703,688.354324452,657.617020802,65215929.2378,1892.65065636,56612986.4309,66512073.9283,5019.63614341,5007.81796168,0.0
1.12867542238,0.833815803968,1.01104377595e-05,-11340583.5985,2.08273948047e-05,0.0,5591197.53798,683.257502125,652.502179416,66317120.3486,1795.67852744,43534269.1931,67441083.1328,4685.1316783,4675.31770992,0.0
1.06314581692,0.787020252517,9.66736947666e-06,-38773361.015,1.66301291647e-05,0.0,5816001.9568,679.81342415,648.347331922,66968345.8291,1711.66306566,34760440.3266,70020686.044,4413.11828603,4404.70688125,0.0
1.16216346208,1.11389950588,9.80394858899e-06,-2666118.56895,1.86558727117e-05,0.0,5473812.84223,685.555231194,654.754655395,65988776.8053,1836.18716859,48407573.742,68013111.3596,4824.14053109,4813.22807157,0.0
1.13122447086,1.00356064943,9.85738367871e-06,-11821816.3108,1.92809721854e-05,0.0,5615521.15734,683.625003063,652.756243084,66416116.5362,1799.60914398,43294080.8245,67485389.4456,4695.71277854,4686.09552395,0.0
1.0010018596,0.939518318807,9.80753035353e-06,-95692503.2778,1.40865139854e-05,0.0,5932452.03141,678.843697076,644.39648748,67213522.4838,1627.31853746,70522169.7561,70827310.9758,4155.1587192,4147.24269771,0.0
1.18391717532,1.04771200367,9.79088589933e-06,4238413.42464,2.11497761939e-05,0.0,6082977.08174,686.827215887,656.084633311,65806788.7493,1863.68290028,52404617.7734,67106246.0904,4914.44019475,4903.57801964,0.0
1.11658159973,0.754676690806,1.01278392764e-05,-15070895.9318,2.1555767451e-05,0.0,5613885.74939,682.631387934,651.767295037,66394535.7349,1780.12943164,41229251.1358,69041070.2633,4634.93022048,4625.28128948,0.0
0.968871709384,0.882682874407,1.00466295425e-05,-94199944.9681,1.47063987536e-05,0.0,5990881.61303,683.135509158,642.333552315,67348553.432,1611.50489988,69207898.8074,69437712.5649,4021.78646565,4014.3665921,0.0
1.18692520032,1.0161924504,9.94943690939e-06,5154314.17833,2.2119882663e-05,0.0,6807045.67617,686.942378866,656.268968469,65740281.3326,1867.22381979,52909854.1945,67011000.5367,4926.92650653,4916.01146218,0.0
1.17941030416,0.934198483609,1.01936193295e-05,3865212.18907,2.3471292917e-05,0.0,5849611.09766,686.374719787,655.79310053,65762059.4332,1858.25421817,51952009.5443,67028301.0046,4895.73217257,4885.04299529,0.0
1.07027937113,0.725666792973,1.01093996793e-05,-32955619.7952,1.81405781537e-05,0.0,5776918.18484,679.8499077,648.775173529,66858314.7711,1720.96369692,34929290.3975,69645310.9925,4442.72966956,4434.20688536,0.0
1.18235672912,1.13469369062,9.70491673817e-06,3795250.46707,1.94788059801e-05,0.0,5687255.81788,686.75543067,655.980001117,65782562.8375,1860.51209723,52172737.184,67108831.5998,4907.96278258,4896.70449298,0.0
1.18710038478,1.03429947474,1.0050274546e-05,5296951.33156,2.20278323485e-05,0.0,6896094.7964,686.875040425,656.280969376,65740614.1684,1867.61103923,52919876.6424,66990877.6278,4927.65369722,4916.84411059,0.0
1.03954359013,0.992963382485,9.71555746754e-06,-55835190.1951,1.40233518259e-05,0.0,5851186.55923,678.677377168,646.849158509,67047754.1717,1678.95310775,40334461.6767,71216585.925,4315.14544263,4306.61890258,0.0
0.976306598076,1.06970148613,1.00724206761e-05,-94661531.1792,1.28587250035e-05,0.0,6018518.52011,681.688486958,642.821248475,67449250.9038,1613.18577162,69614056.5435,69849035.6765,4052.64868861,4045.73287321,0.0
0.972628106456,0.865572737744,1.04396101918e-05,-94317030.3556,1.46891513134e-05,0.0,6013504.58011,681.742384737,642.585426867,67448366.833,1612.62693861,69311070.5321,69542446.0551,4037.3792699,4030.84173586,0.0
1.11924290326,1.04732347494,1.00808501026e-05,-14541390.8646,1.76682234149e-05,0.0,5633361.60773,682.6792519,651.945558644,66460112.4275,1783.26361322,41601876.9668,68771942.9353,4645.97729143,4636.28366239,0.0
1.11164927286,0.88305539542,9.96247413881e-06,-17155432.7875,1.91536789531e-05,0.0,5675812.29778,682.401916229,651.518783704,66596183.5236,1774.79325322,40202166.3987,69111400.1467,4614.45613164,4605.28456837,0.0
1.01213657006,0.956054491617,1.0346482911e-05,-79458707.8487,1.38028146507e-05,0.0,5936510.1,677.273016825,645.09867868,67259200.6103,1644.69363779,56744595.0631,70939769.4964,4201.37890232,4194.29864173,0.0
1.07537123292,0.917936135361,9.71044198759e-06,-32575474.6796,1.59348828646e-05,0.0,5803646.29821,680.313792463,649.083480476,66952022.554,1728.17984375,35033638.445,69840747.9788,4463.86598785,4455.45480822,0.0
1.09354908621,0.896619676679,1.03736058045e-05,-23924648.6959,1.81279255964e-05,0.0,5725392.58733,681.083248646,650.374635645,66731342.9392,1752.33986776,36712932.088,68892746.092,4539.32225686,4530.72670267,0.0
0.901038281249,0.967952332556,9.77354043754e-06,-91369146.2249,1.34227052463e-05,0.0,6191193.43658,693.088514199,637.97226505,67854770.0854,1599.43224717,66715973.984,67854770.0854,3740.20990546,3734.32907255,0.0
1.01103951328,1.01467972204,1.02105683194e-05,-82771567.9835,1.35387541736e-05,0.0,5873337.30992,677.574157055,645.024047176,67051971.1238,1639.64726114,59461679.61,70568839.7144,4196.82501963,4188.33646092,0.0
1.21405844055,0.963757524034,9.80792012186e-06,11661595.511,2.50645234706e-05,0.0,12968650.9134,688.719585877,657.956774318,65347983.5174,1899.4117712,57374397.5431,66410022.5694,5039.55658672,5028.03669691,0.0
1.12112614226,1.01909152919,1.03544970817e-05,-14335912.6987,1.84386442733e-05,0.0,5564870.31122,682.714328093,652.05933956,66236795.0617,1784.16960264,41587237.4401,67902326.3066,4653.79461652,4643.40159242,0.0
1.18961047106,0.96093867548,1.01536459306e-05,6093078.52268,2.37164433982e-05,0.0,7628921.40722,687.049445184,656.462833068,65636374.5426,1870.65404445,53294622.7638,66808967.7552,4938.07306537,4927.21964005,0.0
1.11037817382,1.03735580624,9.84731451744e-06,-17684298.6513,1.69194852982e-05,0.0,5649144.59019,682.392231418,651.42913462,66497365.5951,1770.99831446,39923752.4654,69031854.4417,4609.17979953,4599.24660263,0.0
1.00284733605,0.710030051456,9.57534382546e-06,-95812943.7497,1.61534854561e-05,0.0,5895829.63779,679.120422201,644.508640946,67099143.2512,1628.54424174,70628168.7764,70771636.1895,4162.81929194,4154.38373461,0.0
1.16528279644,1.00266166826,9.92455254088e-06,-356163.180663,2.05554395609e-05,0.0,5445056.40951,685.701877818,654.940070437,65885840.9654,1839.78393658,49764561.271,67673491.4321,4837.08888802,4826.13094653,0.0
1.03923150598,0.952017149021,1.0047840788e-05,-51883045.4032,1.42905623446e-05,0.0,5832217.07823,678.370258948,646.816873839,66992851.3188,1678.16955448,38315247.3962,70843056.8773,4313.84998132,4305.15349557,0.0
1.13248476877,0.979995428509,1.01061627825e-05,-11315665.4842,1.98718397376e-05,0.0,5580526.68368,683.486399026,652.759962441,66300314.2519,1800.48881768,43479951.4162,67565604.1679,4700.94427516,4691.02660975,0.0
1.03526525331,0.98048457824,1.02156068719e-05,-54631484.8735,1.39837442689e-05,0.0,5840179.09524,678.053016257,646.565657626,67008495.2382,1673.1776753,39636402.278,71048669.5153,4297.38606649,4288.83977482,0.0
1.18059782127,0.723285888674,1.03784216875e-05,4135401.39332,2.83452306339e-05,0.0,5949351.32511,686.556288512,655.85446038,65524146.2731,1859.25572871,51907087.0693,66772586.9044,4900.66155609,4889.62951341,0.0
1.16908287164,0.733972369742,1.01655095898e-05,1109852.58256,2.66229863752e-05,0.0,5412496.27115,685.951983365,655.186803865,65782836.5232,1845.83145985,50372934.4156,67387208.6404,4852.86300018,4842.24550753,0.0
1.07728305404,0.958924032716,9.42860215895e-06,-32760966.7726,1.54430601649e-05,0.0,5812563.06566,680.60783597,649.209006987,66977971.3076,1730.64429523,35035682.9825,69985845.2162,4471.80195732,4463.3613609,0.0
1.02481587741,0.955355677625,1.01990794373e-05,-65517026.3618,1.41469245278e-05,0.0,5857342.94945,677.732355315,645.893351005,67048643.4013,1659.12279049,46264406.911,70876764.1733,4254.01070713,4245.63327431,0.0
1.10334041411,0.678242646596,1.04850669775e-05,-18551920.152,2.22739448128e-05,0.0,5596589.4132,681.779264343,650.980583263,66318434.9833,1761.84721555,39337233.7314,68589092.9692,4579.96605897,4570.0600488,0.0
1.12183825252,0.802971149799,1.02249826862e-05,-13760705.6925,2.14280931823e-05,0.0,5594253.12343,682.907411295,652.122493453,66326378.9939,1787.01593134,41991436.3391,68041189.6171,4656.75058621,4647.01286536,0.0
1.12890785839,0.79405907541,9.841785437e-06,-12414535.4977,2.20856798507e-05,0.0,5610154.84047,683.482988352,652.522869565,66398014.9214,1796.90671988,42820670.2594,67693330.0421,4686.09652018,4676.54309048,0.0
1.10369868619,1.04369486452,9.80841805291e-06,-22221745.8294,1.67303515258e-05,0.0,5739274.1042,682.044579242,651.068289309,66786002.9703,1765.94711196,37546809.2577,68572225.2111,4581.45324637,4572.79972426,0.0
1.10487071799,0.955326770493,9.98886134915e-06,-21134626.5878,1.79387516428e-05,0.0,5710362.06115,682.029149145,651.132210846,66691878.1872,1766.87263955,37940017.4841,68681086.35,4586.31835038,4577.44583349,0.0
1.02177379367,1.16014028218,9.77859011651e-06,-71947813.3193,1.2073729367e-05,0.0,5948859.5853,677.92304771,645.730352279,67323477.7056,1657.59564831,50913985.6768,71967187.4486,4241.38301752,4234.16581962,0.0
1.16363805633,1.09143544104,9.7297028025e-06,-2377246.97954,2.05995310829e-05,0.0,5542691.20029,685.706839091,654.912310132,66221649.6885,1841.46125009,48925799.1058,68422275.2934,4830.26157183,4820.520871,0.0
1.26533146269,1.01630659531,9.9904937247e-06,22622401.5784,2.98385383734e-05,0.0,24574934.298,691.878247841,661.199439801,64637741.986,1958.07351833,66058803.1824,66996486.3196,5252.39090163,5240.06172329,0.0
1.03094830532,0.753652360954,9.94765557222e-06,-59738760.4252,1.58356265357e-05,0.0,5899013.86271,678.124557099,646.314703691,67191746.9032,1670.0657869,42597448.1566,70964903.7542,4279.46641538,4272.11808294,0.0
1.18849118575,0.7359365197,9.8700242373e-06,5548466.28586,2.8092393712e-05,0.0,7148242.4949,687.316228539,656.37078836,65595668.5997,1869.63500303,53104032.8863,66870691.5611,4933.42691205,4922.45695608,0.0
1.25799672285,1.05596108843,9.77162945458e-06,20735681.5754,2.75300382962e-05,0.0,22508713.9396,691.525982279,660.696822032,64638096.9723,1948.78958286,64663529.1342,65481937.9438,5221.94439655,5209.15337164,0.0
1.15335639262,0.974368326372,1.01122510548e-05,-6007659.89045,2.23375590683e-05,0.0,5557405.57523,684.820309532,654.187984363,66272391.6411,1829.23530066,46615196.5647,68597398.3234,4787.58238577,4778.12761748,0.0
1.17186447406,1.11374994873,1.02800630686e-05,2074100.75479,1.97963937784e-05,0.0,5426439.61057,685.783368502,655.335638794,65812005.2593,1847.86627929,50912880.6827,67070031.8642,4864.40943182,4853.52982932,0.0
1.09538354542,1.0711135184,9.73393453492e-06,-24648375.9891,1.52886870433e-05,0.0,5731997.21652,681.538845411,650.4513151,66739098.6294,1753.12569977,36643108.7681,69307062.4406,4546.93709704,4537.72590963,0.0
1.1371488429,0.78551019003,9.74384880929e-06,-10174505.6654,2.3514932776e-05,0.0,5614759.57076,684.127997637,653.158878603,66436821.5496,1808.7259101,44476559.5979,67918911.6102,4720.30484688,4711.11372838,0.0
1.066844429,0.905056154152,9.79098593394e-06,-36589343.4467,1.55720982484e-05,0.0,5810029.38372,679.867711745,648.585828932,66958561.9381,1716.49970041,34676107.1888,70249321.3088,4428.47122478,4420.00199554,0.0
1.25988055987,0.966658752102,9.70856750979e-06,21137754.9987,2.96505424785e-05,0.0,22972498.9919,691.764167297,660.821454888,64582206.5017,1951.16487081,64938041.8148,65771934.5983,5229.76420402,5216.93766235,0.0
1.00658224668,1.19582437283,1.00112022875e-05,-89441874.7945,1.18424836869e-05,0.0,5903843.7433,677.895277466,644.740386485,67135589.6775,1633.51363897,65082034.2243,70857409.9578,4178.32290597,4169.90736565,0.0
1.18561402078,0.820674940268,9.86518109297e-06,4843306.46716,2.57453057044e-05,0.0,6489850.97409,687.04553257,656.181409261,65678999.4591,1866.04274669,52705990.4234,66989438.2029,4921.48380026,4910.59158704,0.0
1.12353037359,1.09369668327,9.87305694989e-06,-14075297.7912,1.73458932091e-05,0.0,5658449.08553,683.0426305,652.234381321,66544948.3288,1789.96500656,41884629.825,68701787.7046,4663.77458077,4654.41115165,0.0
1.10726485665,0.908976616591,1.00568373555e-05,-20262304.1931,1.87858896702e-05,0.0,5696593.41889,682.12785636,651.267792036,66654956.2863,1769.99060627,38351185.5467,68778547.6393,4596.25641995,4587.34601458,0.0
1.14989147234,0.944251641286,1.00913111892e-05,-5560980.34777,2.20855243948e-05,0.0,5539756.82522,684.641452082,653.962089403,66205009.4942,1823.37511649,46960939.4731,68683055.9107,4773.19950168,4763.37825941,0.0
1.02906774678,0.884009707376,9.91256323078e-06,-61383789.9397,1.46157472406e-05,0.0,5911042.80937,678.059685427,646.19663485,67225397.601,1667.47649108,43518788.7174,71053930.9992,4271.66021688,4264.3388458,0.0
1.13317267736,1.01895127529,1.00249445252e-05,-10531105.2421,1.88671888778e-05,0.0,5580078.88897,683.640706183,652.882773978,66307513.1762,1800.87934563,44200851.1885,67750893.283,4703.79978372,4693.78824543,0.0
1.00345870588,1.11577607917,1.03902655272e-05,-89187047.3826,1.26593993881e-05,0.0,5892937.26976,677.51379516,644.541856917,67104946.6156,1629.67992754,64838641.1263,70685079.8555,4165.35708811,4157.07410468,0.0
1.09015079716,0.895442310796,1.01965205877e-05,-25414591.7094,1.76023599626e-05,0.0,5736852.79913,680.979739527,650.129242818,66768799.7871,1747.56038773,36321489.3156,69121279.9312,4525.21595901,4516.57505135,0.0
1.02652360745,0.792083418316,9.75216303122e-06,-66186424.5575,1.53864122602e-05,0.0,5919407.29673,678.162853814,646.025010662,67244937.1973,1664.10487414,46767324.9968,71011021.7023,4261.09949452,4253.81453136,0.0
1.19279096924,0.87604959876,9.95620177578e-06,6153544.01965,2.54157205648e-05,0.0,7679193.34411,687.532655247,656.657064895,65422454.2575,1873.05451592,53246991.5401,66621517.8975,4951.27531332,4939.59070907,0.0
1.08643087155,0.854283891859,1.02018352461e-05,-26653179.8463,1.78206388687e-05,0.0,5744709.51053,680.822515748,649.931784696,66786437.2456,1742.72276502,36011977.718,69192417.3553,4509.7745478,4501.19174577,0.0
0.986858725292,0.995133446257,1.0162143773e-05,-94993846.7899,1.37347650807e-05,0.0,5936039.65355,679.837701474,643.48503326,67204278.9656,1611.07605766,69906941.1001,70149201.6665,4096.45056869,4088.43447821,0.0
1.158721637,1.07735805824,1.00437348902e-05,-2313915.77902,1.91464939972e-05,0.0,5471476.22549,685.1965963,654.534693403,65983069.9112,1831.54253429,48535275.57,67779859.5929,4809.85351519,4799.01615139,0.0
1.0579622311,1.18201287375,1.02251746024e-05,-39408822.5569,1.26071734969e-05,0.0,5831702.77675,679.078382868,648.093515315,67010366.4056,1704.85384194,34799231.3625,69750100.7313,4391.6012213,4383.36465186,0.0
1.17160164772,0.717377759655,9.86424526689e-06,1270222.86992,2.66850970108e-05,0.0,5390585.05356,686.329995353,655.336187993,65714112.6052,1848.3946126,50652249.2635,66764098.7146,4863.31843969,4852.34328301,0.0
1.07090665281,0.865013464878,1.04989292484e-05,-31939413.5655,1.67942484353e-05,0.0,5779684.6981,679.674959707,648.908706602,66878992.1757,1722.65974925,34895111.9624,69370295.9537,4445.33351581,4437.08526096,0.0
1.19002276751,0.926784540601,9.901724703e-06,5402417.97067,2.40789596732e-05,0.0,6996889.93097,687.317767284,656.457043742,65496272.2663,1869.69433016,52887304.253,66785374.9437,4939.78450793,4928.15114168,0.0
1.188755083,1.02389937992,1.01064524348e-05,5851097.54941,2.24106290595e-05,0.0,7406461.39736,686.959319225,656.393394916,65697640.0138,1869.52604822,53203973.3498,66903809.0777,4934.52234953,4923.67935632,0.0
1.0309134738,1.12599413874,9.62375453944e-06,-62391269.2501,1.24146325722e-05,0.0,5933262.97413,678.310588124,646.317252858,67293693.2565,1669.87529332,44253173.3679,71186887.0018,4279.32182974,4272.01945401,0.0
1.1902538856,0.997278314406,9.87642865794e-06,5379568.58958,2.27594956162e-05,0.0,6978296.92456,687.291531999,656.471891973,65527530.028,1869.88507134,52900926.7528,66821862.9459,4940.74387913,4929.10623832,0.0
0.991069195151,0.902947466111,1.01929423178e-05,-95145115.3095,1.44562198895e-05,0.0,5918796.28255,679.181796987,643.755056888,67162117.6151,1613.40425009,70040181.6632,70287558.3549,4113.92822907,4105.84477833,0.0
0.9760453307,0.857312279926,9.79945099308e-06,-94805422.1622,1.48269547033e-05,0.0,6031763.34338,682.291445601,642.810019196,67483390.4532,1614.98455621,69740739.5742,69977234.3111,4051.56416774,4044.90288001,0.0
1.03155137055,0.798730474807,9.79922349943e-06,-60223622.7392,1.54758011176e-05,0.0,5905114.67637,678.275987296,646.358876002,67210783.0409,1670.82064778,42935037.7851,70996449.9718,4281.96973915,4274.61275171,0.0
1.21332189447,1.03191782199,9.72326658118e-06,11201292.3338,2.36221865654e-05,0.0,12541864.1724,688.696547817,657.885830659,65302232.3211,1897.5256457,57027759.8015,66514793.8388,5036.49918395,5024.5763162,0.0
1.04885238438,0.971131561672,9.76119171404e-06,-46088278.4342,1.40826535251e-05,0.0,5833402.43399,678.970655236,647.426717042,67001122.1368,1691.19265864,36138730.8046,70522051.2781,4353.78624756,4345.07713676,0.0
1.01955809162,0.91600036284,1.02651993005e-05,-69837077.2884,1.43251452008e-05,0.0,5864988.01777,677.566663943,645.562562357,67059754.156,1652.12603908,49327036.9665,70924686.744,4232.18563831,4223.89249231,0.0
1.11220269813,0.940703730812,1.00638970409e-05,-16794055.0628,1.8555891178e-05,0.0,5674129.66695,682.326947679,651.540166946,66578849.7621,1775.41618543,40389796.1711,69172373.4307,4616.75339994,4607.57374971,0.0
1.00199813356,1.05461167367,1.05475319226e-05,-89234912.6359,1.31437918145e-05,0.0,5886676.92475,677.33098997,644.446670355,67085896.677,1627.80984937,64878970.1455,70579653.0309,4159.29425241,4151.03489368,0.0
1.02988770066,0.920773249802,9.66236463491e-06,-64265330.464,1.45317364704e-05,0.0,5861752.88792,678.40011398,646.220671492,67063388.1865,1665.61746487,45446455.1443,71096613.6341,4275.06384544,4266.51868745,0.0
1.23370717496,0.853083744311,9.95505659908e-06,16214746.7472,2.94170689104e-05,0.0,17691710.3295,690.022064118,659.224366574,64937385.3625,1921.2981926,61023763.3062,66718874.1755,5121.11848326,5109.00702634,0.0
1.09054901387,0.846675142411,9.74262135634e-06,-26235731.1055,1.77329384378e-05,0.0,5749448.66302,681.382695227,650.190000213,66805831.9234,1747.94548533,36213736.6632,69346605.5147,4526.86895657,4518.12403967,0.0
0.926537425435,0.938132976691,9.89668496609e-06,-92316517.4052,1.41654847881e-05,0.0,6095282.41224,689.840390131,639.606482524,67595490.6785,1605.36174258,67549907.2154,67755769.6457,3846.05685298,3839.26812419,0.0
1.14877095305,1.12924044871,9.86917337806e-06,-7474212.9644,1.8657812603e-05,0.0,5548990.23246,684.502122557,653.761784837,66221553.0382,1821.06747009,45801251.366,68676370.0944,4768.54822611,4758.3259978,0.0
1.08015468023,0.903291271625,1.02400897408e-05,-28691444.8354,1.67762620209e-05,0.0,5752339.33729,680.441033245,649.547766954,66790014.9501,1733.80041568,35528672.4663,69191935.9482,4483.72207763,4475.0451983,0.0
1.00615324035,1.07067291469,9.41370949454e-06,-95209651.5606,1.25604438922e-05,0.0,5971822.39633,678.728352161,644.739668594,67326458.2204,1634.88651226,70099435.3823,71119480.8114,4176.54210069,4169.02942568,0.0
1.01354802512,1.13535526305,9.896848618e-06,-80630708.0333,1.21571483243e-05,0.0,5963768.3806,677.720728522,645.197480597,67336078.1956,1646.57117813,57708162.1532,70831411.892,4207.23785227,4200.13737136,0.0
1.09004771841,0.675502286452,1.0157475896e-05,-25506981.9759,2.07328439458e-05,0.0,5722367.691,681.108133092,650.126220176,66721510.7968,1747.62304919,36282900.2971,69090641.9274,4524.78807912,4516.14878372,0.0
1.00576103129,1.10226355996,9.86023847501e-06,-90551392.7813,1.23565204858e-05,0.0,5982541.86599,677.932381449,644.715467428,67381272.2463,1636.08651572,66039018.2195,71013217.4249,4174.91404088,4167.92330116,0.0
0.970687286851,0.849550847236,9.89508600724e-06,-94304464.6026,1.50211870447e-05,0.0,6022389.28003,683.512071275,642.459243902,67453679.8903,1616.35043423,69299804.6373,69531031.773,4029.32292772,4022.4339266,0.0
1.08978321304,0.84475085472,9.63230235766e-06,-26840392.1501,1.76100482344e-05,0.0,5756220.97923,681.428607699,650.153932315,66823158.96,1746.94819909,36128221.3243,69400272.5378,4523.69011733,4514.95728965,0.0
1.13992028459,1.1196971522,9.94897155247e-06,-9102014.82429,1.86319271242e-05,0.0,5617094.61086,683.986532844,653.315250188,66445601.3279,1811.50157534,45171716.734,68194504.5742,4731.80910133,4722.466783,0.0
0.99072083689,0.948779619188,1.01340085902e-05,-95151926.8367,1.4147196483e-05,0.0,5924200.0206,679.362742388,643.732436402,67177074.7424,1613.07112374,70046162.3734,70293376.3762,4112.48219393,4104.40432499,0.0
1.13242336377,1.13223757513,1.01023496039e-05,-11392508.9921,1.76180587083e-05,0.0,5595614.80122,683.400684497,652.756639857,66347088.1855,1800.23771392,43457613.2934,67601601.6834,4700.68938301,4690.77275919,0.0
1.06276815754,0.945704781865,1.01817238264e-05,-36164732.5206,1.51675839226e-05,0.0,5807605.08136,679.320826426,648.321517066,66939049.1366,1710.93010914,34629986.8378,70121204.8816,4411.55062195,4403.14540941,0.0
1.14323652132,0.8521634323,9.95185053686e-06,-8748475.22807,2.26400926944e-05,0.0,5536492.90134,684.260598769,653.390799988,66175336.5891,1814.38592578,45041252.5097,68243091.0174,4745.5748,4735.44904382,0.0
0.997509780128,0.748512805724,1.01491707031e-05,-95385914.8453,1.57229944131e-05,0.0,5896324.5741,678.606283642,644.16599123,67102571.8579,1621.91906638,70252318.2587,70628224.6138,4140.66309731,4132.47596433,0.0
1.04102213226,1.04904414239,1.00582765533e-05,-51927992.4236,1.35339269311e-05,0.0,5839366.68195,678.39877431,646.925250239,67016289.8837,1680.95698819,38409275.874,70856776.7375,4321.28287101,4312.73249633,0.0
1.04209794016,1.11401158306,9.72165983044e-06,-51763112.7467,1.27416519255e-05,0.0,5849189.16934,678.695767554,647.001106123,67045629.2625,1681.82368695,38326259.2892,70965590.5912,4325.7485496,4317.00507567,0.0
1.0454575115,1.09939308385,1.04223669961e-05,-45358275.1234,1.29253428065e-05,0.0,5830223.32403,678.22631538,647.206311568,66992096.9118,1687.15685176,35896514.6544,70305643.3609,4339.69413024,4331.21791296,0.0
1.0644792623,0.808274733008,9.88492112572e-06,-37299926.6282,1.65595059113e-05,0.0,5806063.70933,679.707013399,648.430839312,66943664.5732,1713.4601436,34657441.1352,70105550.0797,4418.65341781,4410.22246988,0.0
1.1074927511,1.31590507905,1.03184642498e-05,-17879661.8257,1.41524365133e-05,0.0,5637528.08005,681.783294033,651.229134632,66457008.1548,1766.0602756,39695650.1572,68927588.4011,4597.20240982,4587.0347988,0.0
1.11540854585,0.873366516962,9.99531361768e-06,-16028603.5107,1.96946819041e-05,0.0,5661598.39724,682.563921195,651.71109424,66544050.4075,1779.6568737,40812449.6855,69356383.1111,4630.06087382,4620.82848131,0.0
1.22906382596,1.01837490732,9.67334616855e-06,14693632.2149,2.51898612021e-05,0.0,16092045.2635,689.742124219,658.956879855,65233834.3557,1917.27668457,59874482.6278,66770367.1,5101.84394156,5090.15902856,0.0
1.13731591884,1.11195274772,1.03269869176e-05,-10187272.0804,1.9020703656e-05,0.0,5614371.65608,683.608670232,653.151478564,66432240.4428,1808.68259261,44146336.5556,67991093.2555,4720.9983791,4711.8266925,0.0
1.05604174507,0.965404452917,9.78709399143e-06,-42739671.7174,1.45368944029e-05,0.0,5818298.39244,679.421279721,647.957601311,66967453.2807,1701.26620323,35298508.1691,70597796.615,4383.62928379,4374.98210702,0.0
1.02225524183,0.88207323889,9.96690653352e-06,-69397502.6811,1.44537554045e-05,0.0,5926117.32439,677.824971682,645.759285797,67258470.6187,1658.39339389,49025117.8255,70854904.1485,4243.38150884,4236.15745444,0.0
1.03401858033,0.884936760231,1.01066956263e-05,-56610365.499,1.47713527803e-05,0.0,5841581.38856,678.135357248,646.484968997,67012070.9126,1671.57969623,40710524.5057,70925417.7838,4292.21112695,4283.68501525,0.0
1.13323236357,0.954065868661,9.90811678164e-06,-10832182.0684,2.04903590456e-05,0.0,5628377.70183,683.697690111,652.905543579,66472558.109,1803.17445077,43974212.0708,67747055.9207,4704.04754118,4694.83855373,0.0
1.05116711297,1.13897554217,9.86995192913e-06,-46244187.1626,1.28463563932e-05,0.0,5823624.91222,678.97953635,647.574440192,66980879.8081,1693.88231423,36179428.8618,70614566.747,4363.39468594,4354.50104448,0.0
1.17671862598,0.960862963526,9.85978311233e-06,2324678.05268,2.22649893003e-05,0.0,5404293.44546,686.45607034,655.639704919,65763894.324,1854.29982932,51200137.6507,67005167.8959,4884.55901644,4873.49049528,0.0
1.02759395512,0.976047022693,9.74639953015e-06,-64981614.3394,1.38030758723e-05,0.0,5925478.73361,678.148426531,646.104282074,67265929.3932,1665.43332183,45957272.5685,70963414.1155,4265.5425077,4258.24223674,0.0
1.08827839259,1.10551400833,9.61903421964e-06,-27460311.3284,1.44731939116e-05,0.0,5779583.17174,681.241806326,650.063723472,66892006.9565,1744.77082092,36040010.7052,69470515.0686,4517.44360764,4508.73389259,0.0
1.00311321689,0.836314221632,1.00734964814e-05,-93733827.2822,1.49988379056e-05,0.0,5887464.45942,678.149267519,644.523516471,67080822.8693,1629.15776514,68807009.0506,70715450.7076,4163.92296331,4155.56534791,0.0
1.04926437172,0.721297917968,1.05123303539e-05,-43003598.0796,1.6755534538e-05,0.0,5794909.23469,678.478864708,647.444910194,66895208.71,1692.49730925,35257234.7765,70236914.6661,4355.49640701,4346.95936789,0.0
1.08607304468,0.991015003372,1.00090396605e-05,-27403955.537,1.60729904725e-05,0.0,5763283.01059,680.890107341,649.918411972,66840056.9378,1742.16349147,35932385.7132,69314497.7864,4508.28920847,4499.71198726,0.0
1.20175071492,0.666917988612,1.04721260426e-05,10101753.7455,3.2530453671e-05,0.0,11416274.9404,687.883192317,657.151395845,65128420.8592,1883.70247247,55866720.8508,66694312.7224,4988.46721763,4976.85552974,0.0
1.02983576746,0.815136707618,9.953383659e-06,-60414741.4147,1.52494410006e-05,0.0,5904251.59379,678.065387841,646.245732056,67207653.6439,1668.55063633,42946795.6691,70947724.6191,4274.84827073,4267.51589371,0.0
1.06396483729,0.926862696065,1.00069515531e-05,-37067456.6448,1.52842013995e-05,0.0,5810179.58881,679.538593248,648.398380144,66957457.6876,1712.71873953,34665596.3706,70103609.779,4416.51803959,4408.09384413,0.0
1.12219830123,0.96136573668,9.98627153125e-06,-14179373.8954,1.92204255207e-05,0.0,5646290.65366,682.95403636,652.147337527,66507532.0157,1788.34149094,41779703.8044,68699982.2221,4658.24514841,4648.90247848,0.0
1.06325529078,1.0934294593,9.94811380708e-06,-37677155.1366,1.34657420053e-05,0.0,5824678.56036,679.479471789,648.351767462,67000298.6292,1711.64297269,34687328.0164,70099955.1825,4413.57271203,4405.16088105,0.0
1.05715446717,0.907864504286,9.5961134888e-06,-42325792.6777,1.49960486217e-05,0.0,5815870.64668,679.516468047,647.939113473,66960768.6164,1702.27607299,35235240.2628,70457383.3476,4388.24819322,4379.4022051,0.0
0.938943176164,0.726730947965,1.00025752598e-05,-93038772.29,1.51872904193e-05,0.0,6106047.32539,687.430754624,640.419767477,67663847.323,1607.34038978,68185526.145,68399602.2897,3897.55312426,3891.4684163,0.0
1.07651024366,1.234840084,1.04356270067e-05,-31544812.8319,1.33132882211e-05,0.0,5720012.76011,680.014164023,649.267747127,66688445.1244,1726.55493408,34911076.2994,68967769.9547,4468.59402143,4458.94961107,0.0
1.04580213667,1.04195662675,9.83090474667e-06,-46890029.2053,1.33874292368e-05,0.0,5856043.41974,678.733152311,647.247099471,67061045.0724,1687.81683346,36479880.9626,70950099.43,4341.12466932,4332.8032806,0.0
1.11072549509,1.09740325209,9.93489022562e-06,-17571327.0121,1.62953858801e-05,0.0,5697072.47371,682.270008878,651.464942106,66658649.4468,1773.4045826,40006664.6018,69098176.7798,4610.62153012,4601.46638826,0.0
1.1279249585,0.72948435587,1.02011929618e-05,-12190729.6556,2.33478265742e-05,0.0,5565162.54853,683.363335912,652.526544617,66247582.0236,1794.92357743,42930009.5356,67182554.792,4682.01650273,4672.17606626,0.0
1.07148552356,1.24814674024,1.05090747624e-05,-31726200.4963,1.28385531348e-05,0.0,5800402.50548,679.567175818,648.949779541,66942847.1523,1723.16057255,34973657.5737,69389468.2241,4447.7364083,4439.47930919,0.0
1.10754441874,0.939121129594,1.04279050984e-05,-17472087.7198,1.83116046599e-05,0.0,5653793.80675,681.844159364,651.248860713,66496481.1559,1768.69728079,39875152.0941,68901557.721,4597.41688219,4588.01648834,0.0
1.07482423025,1.28549569721,1.02519131864e-05,-31970153.5041,1.27237744709e-05,0.0,5806355.52645,679.95032948,649.175539239,66969615.9692,1727.8387219,35006047.3673,69490095.7867,4461.59537977,4453.3851158,0.0
1.15028661598,0.927123551166,9.77932234437e-06,-7080134.76054,2.20073349506e-05,0.0,5538027.39712,684.885026412,653.958186017,66198252.7318,1823.75035765,45969933.3943,68684321.8835,4774.83974293,4764.79854393,0.0
1.19106580035,1.2464596212,9.99950419369e-06,5606541.59585,1.89398081662e-05,0.0,7155150.60498,687.106131797,656.52678877,65597607.2354,1870.39864798,52951385.2753,66819751.629,4944.11413725,4932.48132912,0.0
1.17806349167,1.18025267709,1.03257600514e-05,3147447.41169,1.94310792218e-05,0.0,5374963.07749,686.12639098,655.690239847,65646184.7301,1854.39957696,51403812.1689,66955110.5871,4890.14155392,4878.73516688,0.0
1.02028026765,0.938321103151,1.01375811965e-05,-70215183.1761,1.41937515356e-05,0.0,5869269.03188,677.711235191,645.614674411,67072595.0566,1653.04595007,49605176.1645,70910074.8047,4235.18339102,4226.8786884,0.0
1.10516443788,1.13534488406,1.0155935622e-05,-20910114.9511,1.58361687254e-05,0.0,5713015.42946,681.83886671,651.139491843,66705267.7903,1766.92544304,38041764.1037,68740867.4299,4587.53758164,4578.66053381,0.0
1.15373086381,1.15429370555,9.98757685371e-06,-4782623.16995,1.89238420069e-05,0.0,5551778.07046,684.824386393,654.204199745,66243871.1251,1828.02934463,47485263.7723,68636927.4395,4789.13681568,4779.25184471,0.0
1.09930196568,0.784154437436,1.00944278444e-05,-22695891.769,1.98210929716e-05,0.0,5705796.0067,681.707572989,650.778099485,66671820.6684,1759.61904159,37231712.0344,68627571.6781,4563.20245954,4554.4179281,0.0
1.01698429303,0.892022961298,1.00570283608e-05,-71758743.1218,1.43136651211e-05,0.0,5894980.96372,677.737856863,645.414399997,67135679.971,1649.33734701,50769343.2689,70668778.808,4221.50180037,4213.55935472,0.0
1.13225711551,0.821546795274,1.01374337772e-05,-11267466.114,2.22315965953e-05,0.0,5565270.1462,683.537392715,652.744644256,66253355.5486,1800.36135736,43488370.6174,67518167.3517,4699.99928648,4690.08548248,0.0
1.06524450281,0.852211511104,9.71834451044e-06,-37613732.678,1.60315252237e-05,0.0,5813319.92964,679.856059402,648.482001156,66964414.6724,1714.42239151,34698957.1199,70152608.4613,4421.82993116,4413.38573521,0.0
1.0389619488,0.781400440212,9.65268780583e-06,-54873982.7512,1.60432677179e-05,0.0,5826121.87698,678.775662179,646.799865492,66970129.6948,1677.28113235,39838178.8655,71327727.5378,4312.73104947,4303.86598779,0.0
1.17697361365,1.03315882357,9.73517839523e-06,2363442.00667,2.08282465418e-05,0.0,5419728.34611,686.48343821,655.659468536,65828619.7527,1854.49628395,51364370.463,67070309.6268,4885.61747026,4874.55910061,0.0
1.10577246966,0.753868350809,1.01024012979e-05,-20768218.1017,2.09336019823e-05,0.0,5682970.88656,682.094761759,651.178185417,66613306.5266,1768.07338642,38076117.4616,68670884.0979,4590.06152156,4581.17485571,0.0
1.02607350949,0.747165492161,9.61925445008e-06,-68076909.3338,1.58106701652e-05,0.0,5923624.16867,678.315409224,646.013703359,67254607.8194,1663.49577711,48091277.1383,71101157.3376,4259.23113789,4251.95260781,0.0
1.11796648383,0.73906717655,1.0100517484e-05,-14746353.964,2.19510109919e-05,0.0,5608542.82999,682.755597335,651.861527548,66380003.7405,1781.95356167,41419812.7083,68852491.9612,4640.67887438,4631.00669377,0.0
1.11815009717,0.969620905799,1.00207354055e-05,-15176418.8579,1.87668883437e-05,0.0,5658863.16934,682.665925887,651.881428854,66540112.0471,1783.10503746,41197221.3984,69206278.5056,4641.44105335,4632.16419698,0.0
0.951853628808,0.627563474404,9.95213774311e-06,-93538974.6039,1.67634265244e-05,0.0,6070428.96466,685.997067546,641.251816222,67578975.2806,1612.17417809,68625990.1171,68846137.1479,3951.14441318,3944.88775716,0.0
1.03037644613,0.810313786999,1.01204538247e-05,-59748826.5276,1.52896657306e-05,0.0,5844905.56385,678.017636088,646.256510674,67017099.3118,1666.79339521,42511948.7374,71012274.2667,4277.09262789,4268.62536113,0.0
1.06995421541,0.904443474818,9.50252082436e-06,-35667012.9658,1.53509257269e-05,0.0,5816999.21569,680.239622949,648.787284251,66981073.0611,1720.61277689,34717596.6738,70331684.8131,4441.37994817,4432.86321072,0.0
1.1057363427,0.91789034197,9.90398126286e-06,-18479760.8584,1.82282257473e-05,0.0,5727296.73985,682.047524302,651.180338343,66740377.0655,1768.23111035,39584706.4588,68961137.4226,4589.91155855,4581.25532288,0.0
1.08910189148,0.690212360222,1.00892892704e-05,-26031985.241,2.03425899986e-05,0.0,5729494.834,681.112992673,650.084302489,66741745.2612,1746.38011092,36170745.4571,69171061.2875,4520.86195153,4512.23744414,0.0
1.03694602206,1.09355738391,9.60715497356e-06,-57820980.8734,1.28988144498e-05,0.0,5913781.1822,678.541208089,646.697631474,67244230.0533,1677.7994772,41521244.96,71234392.9508,4304.36293757,4296.92977456,0.0
1.14421273543,1.09062753089,1.00465651095e-05,-8316038.35476,1.90473757167e-05,0.0,5552890.16257,684.099350412,653.43604615,66230283.6818,1815.27927232,45260908.3465,68416984.6803,4749.62706477,4739.48305693,0.0
1.04307885934,0.903981513969,9.82533676669e-06,-51481363.2396,1.49557973078e-05,0.0,5810860.00401,678.70955399,647.053218853,66930861.3229,1682.05833951,38222859.4052,70915624.9978,4329.82034512,4320.71405823,0.0
1.02955582913,0.689198402828,1.0373755571e-05,-59228834.4584,1.62692611517e-05,0.0,5807551.08743,677.804845421,646.188509418,66906828.2109,1664.46755925,42110444.3407,70572211.7381,4273.68624672,4264.80690672,0.0
1.23140406325,0.747485040254,9.49991008256e-06,15371350.3767,3.11161651394e-05,0.0,16741127.123,690.220304817,659.10603153,65074564.9191,1920.31446924,60373580.3684,66690736.7349,5111.55826655,5099.74088084,0.0
1.00030166075,1.19199401726,1.00130906361e-05,-95700765.2381,1.18347434498e-05,0.0,5918622.75096,678.337736016,644.342199311,67171835.704,1625.14718361,70529362.4877,70752343.5708,4152.25219377,4143.94143915,0.0
1.12800427801,0.996559256947,1.03281417285e-05,-12008408.6434,1.94489027919e-05,0.0,5587169.90239,683.047716077,652.458734388,66318286.3698,1794.67342562,43019148.8483,67314495.7489,4682.34575802,4672.50398017,0.0
1.10502209916,0.907384721452,1.00075617743e-05,-20990640.7024,1.85509904442e-05,0.0,5705686.29148,682.041536129,651.138662884,66677806.8492,1767.12372556,37956141.619,68679429.2531,4586.94673361,4578.07105602,0.0
1.04919473174,1.16175656912,1.01313777345e-05,-46484674.5293,1.27910005202e-05,0.0,5824600.06276,678.678328868,647.446972645,66989083.0269,1691.7277114,36253896.5045,70408956.8543,4355.20733145,4346.52455932,0.0
1.03891274496,1.20839697138,9.69779731149e-06,-56536414.1881,1.20867930439e-05,0.0,5866146.6924,678.585960436,646.8082725,67092476.792,1677.9783246,40712238.4184,71205322.0033,4312.52680433,4304.01042553,0.0
1.17156740212,0.785762612354,9.59145246703e-06,691159.883282,2.48716260895e-05,0.0,5432925.17022,686.420594493,655.345207712,65867555.6342,1848.99275165,50483902.437,67716605.9905,4863.1762862,4852.4097131,0.0
1.10470765646,0.913013903033,1.03144907672e-05,-18564392.6798,1.85568265094e-05,0.0,5614196.04906,681.829721504,651.063840846,66379156.7221,1762.8480088,39368944.5915,68714122.1207,4585.64148197,4575.5228965,0.0
1.0794305238,0.841225097656,9.83249820503e-06,-30375495.5739,1.71900952644e-05,0.0,5782903.75964,680.496138976,649.349483938,66898605.0277,1733.5727446,35440567.5524,69348859.611,4480.71610429,4472.24221239,0.0
1.04978029997,0.780780410911,9.97649901595e-06,-45318464.5022,1.6301423983e-05,0.0,5806682.9163,678.939759064,647.49004226,66924740.0065,1692.49143763,35886606.1051,70474020.3915,4357.63802518,4348.91409976,0.0
1.03249171989,0.932239874728,9.89488417885e-06,-59078431.6522,1.42988507191e-05,0.0,5905424.97925,678.171657377,646.409088736,67213213.3201,1672.020314,42216289.055,71041668.8386,4285.87312926,4278.50263757,0.0
1.13402009424,0.74524281099,9.71544157757e-06,-11313295.0341,2.34064244055e-05,0.0,5588584.10191,684.041609637,652.944761204,66351143.9282,1803.53155138,43676323.912,67549418.1222,4707.31741119,4697.6529926,0.0
1.17692887525,1.23599920854,1.01432914264e-05,2988297.75764,1.82048256136e-05,0.0,5451159.23919,686.076386993,655.651031471,65897594.3081,1854.96080731,51520616.8466,67196973.6619,4885.43176116,4874.79131198,0.0
1.09881843111,0.878606562734,1.00681342392e-05,-22938798.7494,1.84572702797e-05,0.0,5716358.30736,681.646243905,650.743184509,66701639.6763,1758.8944298,37119601.1768,68809061.8572,4561.19530754,4552.41838916,0.0
1.03528520465,0.839236989952,9.82839907857e-06,-57428741.6156,1.52308528532e-05,0.0,5896161.07211,678.363386668,646.588733948,67191125.2526,1675.78615373,41211828.4678,71102262.0476,4297.4688845,4290.05964932,0.0
1.10389755554,1.06469972589,9.78742125127e-06,-20353143.9976,1.60559370313e-05,0.0,5658312.38759,682.094686495,651.046902358,66514813.7049,1762.08409423,38675397.4448,68580264.8984,4582.27875305,4572.17276282,0.0
1.06537185422,0.874376650204,1.02788260214e-05,-35718877.2866,1.61543715026e-05,0.0,5796365.04512,679.439401266,648.492545576,66916454.1495,1714.9184801,34626736.3866,69933092.5623,4422.35856687,4414.00604604,0.0
0.993451465434,0.845996198733,1.01551299778e-05,-95243359.1588,1.4921868248e-05,0.0,5911454.62656,678.989107484,643.904850179,67143065.8673,1616.41773271,70126692.7619,70374544.3099,4123.81703302,4115.69516774,0.0
1.15056354661,0.910166733398,9.51608333628e-06,-6415444.36182,2.19644177818e-05,0.0,5555764.284,685.032652013,653.977262191,66252744.351,1824.250999,46842287.9428,68797894.2736,4775.98928198,4766.03881372,0.0
0.949262782889,0.996603086086,1.06073938364e-05,-93043503.8394,1.37578259003e-05,0.0,5997504.99148,684.901849193,641.061360513,67351930.3884,1604.33944953,68190113.7182,68405915.1122,3940.38981177,3932.96367977,0.0
1.19544809379,0.986897248187,9.94934900825e-06,7246938.78745,2.3223517661e-05,0.0,8683056.88147,687.56426495,656.85357514,65557087.9653,1876.87050963,54025093.6592,66627053.4813,4962.30503732,4951.01778864,0.0
1.11114269588,0.862236481343,9.95343576911e-06,-17329439.6336,1.93611431497e-05,0.0,5676507.6018,682.391234854,651.489270493,66596081.9842,1774.15960415,40112693.4493,69071314.4376,4612.3533306,4603.18995187,0.0
1.05160402334,1.13603472754,1.0076765701e-05,-42772666.4766,1.27843998432e-05,0.0,5839206.78951,678.765337489,647.60135261,67026070.7306,1695.52183207,35318522.7283,70592693.7133,4365.20830088,4356.79572507,0.0
1.18364262175,1.02794573851,9.87518211138e-06,4305021.00086,2.15807915613e-05,0.0,6129781.77497,686.769072224,656.061865576,65790647.8177,1863.29094131,52419175.2468,67077773.4494,4913.30052288,4902.44316832,0.0
1.18458450762,0.909626851853,9.59743516942e-06,4125183.79371,2.34748647327e-05,0.0,6047803.23579,687.082324801,656.13135182,65789324.6325,1864.85099784,52454007.6808,67080965.9787,4917.21029113,4906.31615911,0.0
1.15219002814,0.95094880208,9.97769471063e-06,-6659558.72662,2.24623870282e-05,0.0,5565841.51545,684.8455408,654.118532506,66295524.1282,1827.85247008,46285156.9564,68704611.7991,4782.74080681,4773.30478958,0.0
1.068834341,1.03432748905,9.81914806345e-06,-34978344.0727,1.40768872203e-05,0.0,5779255.71966,679.928216828,648.698927278,66857041.5008,1717.15450969,34653624.7371,70046232.7022,4436.73134949,4427.51269626,0.0
1.10340763846,0.934887349692,9.83733478618e-06,-22199766.2146,1.8069978824e-05,0.0,5731299.44129,682.052172233,651.048687212,66761303.8695,1765.6513024,37528498.6882,68543005.1111,4580.24510725,4571.59609759,0.0
1.12085648423,1.00266213802,9.99017689023e-06,-14443289.1266,1.84797939034e-05,0.0,5602653.90295,682.908448231,652.040447157,66361713.0511,1784.51812787,41576179.8399,68291404.5928,4652.67526604,4642.56062318,0.0
1.04891131497,0.827904688324,9.87599723807e-06,-46150941.8056,1.57547932041e-05,0.0,5815663.11206,678.951065413,647.428269993,66949107.4358,1691.27733373,36070901.1073,70477157.9258,4354.03086844,4345.32108286,0.0
1.05911974573,0.935434065108,9.69934344106e-06,-39736960.8184,1.48664888849e-05,0.0,5834720.38649,679.481252033,648.071226084,67018050.2841,1706.07071274,34864170.9497,69852271.9221,4396.40606453,4388.05771849,0.0
1.13741333403,1.11614414025,1.00078055786e-05,-9075724.38291,1.81402795056e-05,0.0,5570248.99509,683.854794208,653.149438537,66282893.2402,1805.95624227,45100437.4976,68063579.776,4721.40274956,4711.27754753,0.0
1.05803550713,1.26036727406,9.92926593328e-06,-39428233.8665,1.17204829241e-05,0.0,5813714.44516,679.267733117,648.057914769,66943840.4042,1702.77360293,34766342.0808,69801185.4342,4391.9053901,4382.86524892,0.0
1.00817359404,1.08037074,1.00206504746e-05,-87629630.3464,1.287500223e-05,0.0,5892469.34843,677.881129157,644.84410968,67103194.0549,1635.71566459,63536966.2202,70781843.4821,4184.92858886,4176.48700837,0.0
1.27012675091,1.02583578124,9.94430291474e-06,23067740.7305,3.01568261158e-05,0.0,24967319.8625,692.303401482,661.499158395,64390149.6269,1962.33059613,66356687.6574,67321145.6974,5272.29614303,5259.28035979,0.0
1.17164889437,0.755394225817,9.98497527675e-06,1397866.83391,2.61623505869e-05,0.0,5415034.28947,686.19935217,655.344999564,65789974.7232,1849.11071006,50633838.5936,67477828.9089,4863.51456053,4852.85235124,0.0
1.10135929194,1.08003188231,1.0082327854e-05,-22203825.0828,1.61751235645e-05,0.0,5723436.30415,681.70205263,650.911383056,66728614.3261,1762.02546275,37466380.5302,68528148.5375,4571.74242084,4562.9254675,0.0
0.988993353969,0.757013827666,9.90777957678e-06,-95125343.3363,1.54981918961e-05,0.0,5924173.53732,680.112123612,643.621799617,67171594.3224,1612.72043385,70022729.8307,70267272.1595,4105.31141233,4097.18132809,0.0
1.14842783643,1.05415287522,1.02292485469e-05,-5127566.64143,1.92689449575e-05,0.0,5535259.37057,684.257161038,653.765990347,66156639.6279,1820.19890595,47130585.0166,68120577.8123,4767.12394902,4756.9558084,0.0
1.13939066095,0.979418746605,9.76800507644e-06,-9608851.56721,2.05895444654e-05,0.0,5622422.97345,684.152374063,653.303374645,66464148.0809,1811.40447085,44829656.1575,68105325.0186,4729.6106336,4720.38384945,0.0
1.12364787582,0.777008876928,1.00723535938e-05,-13328322.3647,2.19000166855e-05,0.0,5591325.4648,683.131635577,652.24351198,66335659.5831,1789.23678692,42350027.9643,67839151.1528,4664.26233253,4654.49453882,0.0
1.06464140573,1.01479920018,1.01256461957e-05,-36285802.8506,1.44301067556e-05,0.0,5806539.44854,679.576641416,648.528723576,66938845.7938,1713.54034603,34639874.095,70123860.1065,4419.32647519,4410.89170773,0.0
1.22166592983,0.90630721253,1.01202174708e-05,13339321.7523,2.74718014524e-05,0.0,14557739.2544,689.178831039,658.459173198,65038111.5114,1906.97409409,58639746.1902,66398966.2862,5071.13527472,5059.02922182,0.0
1.11692691467,1.18266962786,1.03619807071e-05,-15087081.4785,1.60363476147e-05,0.0,5645139.84151,682.290349563,651.792640559,66484869.3154,1780.56078467,41135539.2957,68889950.2837,4636.3636228,4626.80667033,0.0
1.25098515156,1.1440275311,1.04397747629e-05,20087465.3041,2.63932021599e-05,0.0,21926287.5291,690.641536577,660.260560191,64719623.1753,1939.80736823,64150060.5834,64922149.0131,5192.83936413,5180.42191497,0.0
1.16422089965,0.833135617253,9.88292429564e-06,-767001.375212,2.36595519897e-05,0.0,5427589.03392,685.800901852,654.875405959,65833186.7863,1838.79650255,49474986.0388,67715002.5364,4832.68095445,4821.73231127,0.0
1.07134228023,0.760134441852,9.87153590651e-06,-34247940.9102,1.76057780312e-05,0.0,5785439.24143,680.107643179,648.867218945,66882675.4581,1722.50467089,34795587.7602,69856059.8488,4447.14180523,4438.60351407,0.0
1.02412795881,1.01722292751,9.95410415853e-06,-67192679.6019,1.33493861562e-05,0.0,5928168.6385,677.837699551,645.877385158,67269523.5513,1660.82519478,47461067.9002,70972120.7526,4251.15515702,4243.90440613,0.0
0.946117199341,1.20550140581,1.00731034216e-05,-93385961.4599,1.16231523536e-05,0.0,6108549.03463,686.099813728,640.881688823,67685287.4507,1608.46591318,68491096.9803,68708729.3713,3927.33249446,3921.15264452,0.0
1.14781395967,0.830666686162,1.01136259828e-05,-7474656.42155,2.43298105467e-05,0.0,5563979.24326,684.515605962,653.807720424,66288456.6118,1822.36825074,45680740.3701,68529171.5638,4764.57574659,4755.21162178,0.0
1.19212348098,0.909867071798,9.95929985458e-06,5967957.94473,2.4656310647e-05,0.0,7538794.92157,687.455513559,656.611507195,65446328.4174,1872.18662267,53164706.5307,66664347.8218,4948.50456955,4936.83232812,0.0
1.22657603008,0.977995954736,9.9128773892e-06,14275649.9017,2.6170122491e-05,0.0,15686885.4042,689.54558134,658.776352086,65040577.2803,1912.55722572,59479543.3291,66570529.9193,5091.51710086,5079.29438508,0.0
1.05137888684,0.846628943998,1.00139909168e-05,-43086857.5765,1.55120701145e-05,0.0,5825009.42304,678.917247534,647.591584503,66981228.0154,1695.4049013,35372563.4864,70553213.0945,4364.27375927,4355.86472944,0.0
1.04321734788,1.02444694718,9.98706932481e-06,-50496473.6109,1.38373499173e-05,0.0,5835426.75837,678.548010188,647.048984284,67007413.1987,1683.87010652,37721158.6793,70972731.6768,4330.39521105,4321.80939908,0.0
1.07917570671,1.04290985178,9.52392991068e-06,-31652614.5145,1.466102233e-05,0.0,5809462.43265,680.611174574,649.332446844,66974559.7922,1733.07088587,35243057.4368,69808822.2949,4479.65835855,4471.18842028,0.0
1.2580045041,1.14167059898,1.04124929302e-05,21519399.6227,2.74231931882e-05,0.0,23488424.4751,691.096633959,660.726207508,64717490.0025,1948.7786266,65294465.1953,66165251.7477,5221.97669652,5209.7818098,0.0
1.0437900824,0.905845711012,1.01662915239e-05,-48680287.7334,1.49476407703e-05,0.0,5818013.52132,678.50085991,647.111478631,66953817.4889,1684.54418306,36950621.988,70902484.8203,4332.77263204,4324.08921113,0.0
1.06896420384,0.864281535167,9.92794356969e-06,-34607041.9208,1.63609733565e-05,0.0,5806552.924,679.881335993,648.725850281,66947552.3107,1719.78720882,34724846.9515,70035734.6693,4437.27041014,4428.95656675,0.0
1.12971080186,1.04387475165,9.73991165611e-06,-12404632.5081,1.8406955965e-05,0.0,5630221.85032,683.573321803,652.653380805,66472992.6685,1797.66172665,42919510.7413,67793799.2907,4689.42953852,4679.83734042,0.0
1.15014846259,1.10056691935,9.80363592461e-06,-7122198.37689,1.92199050389e-05,0.0,5554972.79108,684.755296342,653.947439932,66250632.6758,1823.34411579,45987728.2479,68727153.3803,4774.26626821,4764.22760293,0.0
1.09616873829,1.23304664972,1.00141081767e-05,-24060305.6762,1.40368196471e-05,0.0,5751147.71632,681.340997217,650.539057531,66817908.763,1755.15841026,36805180.9877,69115920.1901,4550.19643264,4541.46118479,0.0
1.07680101697,0.874266687415,1.00819232426e-05,-30443482.1955,1.67861854099e-05,0.0,5766286.90444,680.339893768,649.301545494,66838290.5812,1729.42176185,35368661.7616,69283861.457,4469.80102144,4461.17710184,0.0
1.10760245665,0.9494725087,1.0372634906e-05,-17302951.1421,1.815771402e-05,0.0,5655627.74634,681.867085238,651.251934342,66519240.783,1768.48097711,39917366.5217,68963249.461,4597.65779755,4588.25746527,0.0
1.10970746384,0.79604834414,1.04422133467e-05,-17000908.1017,2.08552804263e-05,0.0,5579174.55873,682.096933888,651.344580975,66265480.6053,1769.73243061,39890541.2348,68845782.7534,4606.3956824,4596.18902677,0.0
1.02951390713,0.916941449226,1.00659814614e-05,-61723684.9738,1.44285171327e-05,0.0,5856353.92534,678.020231714,646.206235802,67051268.0847,1665.78501159,43752810.3707,71019902.6902,4273.5122285,4265.14530351,0.0
1.08800824227,1.0779210202,9.80570773133e-06,-27380712.74,1.49990105442e-05,0.0,5772951.80056,681.107520929,650.04347003,66869454.3592,1744.62401536,36025276.2309,69400240.6226,4516.32221366,4507.71479254,0.0
1.25270957674,1.16700863103,9.85745542519e-06,20075079.7741,2.47864418331e-05,0.0,21863409.9403,690.996400298,660.380880493,64887436.9721,1943.30056086,64219623.5395,65136310.2663,5199.99745305,5187.77567858,0.0
0.99944641626,1.22012680206,9.86405614271e-06,-95907658.0788,1.15774890747e-05,0.0,5999077.10749,678.462336845,644.311632334,67425226.637,1627.36322488,70711014.6604,70980894.3001,4148.7020739,4141.79983327,0.0
1.10776358992,0.929091561165,1.00143855391e-05,-20231681.9179,1.85467608252e-05,0.0,5698973.25711,682.184024828,651.300738959,66661885.1673,1770.6280562,38373107.0672,68792962.2272,4598.32666176,4589.4083554,0.0
1.14714411343,1.01265753841,1.02571315859e-05,-7390090.43493,2.12968047445e-05,0.0,5575635.48215,684.295431677,653.769906292,66323571.7016,1821.25297267,45676652.5961,68573942.4745,4761.79521485,4752.44014406,0.0
1.11682998474,0.923975472845,1.02107304614e-05,-15174594.8827,1.9159504005e-05,0.0,5630204.40889,682.487221293,651.786384136,66436774.9206,1780.37894752,41185367.8586,68988575.1899,4635.96126666,4626.4062516,0.0
1.09081386795,0.921414943053,1.00987088172e-05,-25486053.8389,1.72792802305e-05,0.0,5741558.63399,681.077249032,650.173998293,66781292.0418,1748.41585084,36333646.7188,69179832.7877,4527.96836586,4519.31708412,0.0
1.13005740818,0.689040306371,9.48444533537e-06,-12739282.2281,2.31691043046e-05,0.0,5565403.763,684.014324648,652.648844188,66261412.7754,1796.96644858,42609538.8767,67289556.5944,4690.86830136,4680.58561677,0.0
1.00870458666,1.17501265959,1.01822832869e-05,-85584204.483,1.19897030803e-05,0.0,5890883.47938,677.57782128,644.876393846,67101671.1464,1636.40232304,61799498.691,70718568.2489,4187.13273923,4178.68246259,0.0
1.08035423176,0.879339876233,9.66341410085e-06,-29985290.0264,1.64896313588e-05,0.0,5770469.03404,680.659760134,649.405698821,66851475.1101,1733.51461726,35428070.1613,69420270.1501,4484.55041604,4475.68011275,0.0
1.10997019939,0.898021625514,9.80207170944e-06,-19733267.8218,1.87612624577e-05,0.0,5695149.1949,682.460095932,651.435938937,66659491.3986,1773.26029131,38714624.3189,68884850.1441,4607.48629767,4598.43176702,0.0
1.09699884864,1.01244638835,9.53145010239e-06,-24740239.1464,1.61583333807e-05,0.0,5752093.05765,681.780506699,650.563372367,66820421.557,1756.251304,36723889.6775,69330443.1998,4553.6422207,4544.79521412,0.0
1.12956091985,1.06586136948,1.05543780237e-05,-11275851.8255,1.87346082526e-05,0.0,5577328.25892,682.961593117,652.567553129,66294959.4876,1796.49698059,43431519.8438,67528393.9921,4688.8073783,4678.93926132,0.0
1.09735556694,0.92908404963,1.00608956936e-05,-23469044.2316,1.77174921338e-05,0.0,5724737.78642,681.525926233,650.634767453,66724569.55,1756.93786623,36944948.4267,69024191.7323,4555.12295837,4546.36905581,0.0
1.12135351582,0.895392992513,9.8255444032e-06,-14795525.8978,1.98307414761e-05,0.0,5659325.64099,682.977917437,652.094523141,66562173.0626,1787.68716902,41462457.9623,79491752.8107,4654.73844417,4645.5119633,0.0
1.06432686896,0.922323734577,1.02235735802e-05,-36417057.3974,1.55588280385e-05,0.0,5804021.89443,679.403402931,648.424363997,66936668.4868,1713.51101685,34624958.6781,70069786.0402,4418.02083305,4409.68449935,0.0
1.10128420008,0.907609457928,1.01886777861e-05,-21897039.1267,1.84280742485e-05,0.0,5706005.37452,681.698882798,650.90591265,66677051.774,1762.07670181,37552720.6052,68509006.2225,4571.43071453,4562.61494544,0.0
0.991589563655,1.15421076043,9.71694592897e-06,-95544353.2227,1.22008603031e-05,0.0,6001785.71059,679.856443826,643.805326558,67409469.3781,1616.62254819,70391259.2849,70633003.0436,4116.08827873,4108.95707964,0.0
1.08806604383,0.791519011732,9.90088981239e-06,-27001574.7218,1.85700897132e-05,0.0,5748298.38439,681.163036174,650.041566581,66794941.7741,1744.93770605,36026437.1646,69296223.7392,4516.56214794,4507.95382412,0.0
1.32279099922,1.19394899532,9.82552783845e-06,30469430.3907,3.15203201168e-05,0.0,31865471.4235,695.575695289,664.83743152,63639982.4349,2021.04088228,69979461.1901,71562646.8875,5490.90543776,5476.92901071,0.0
1.13194395731,1.16530741425,9.94584562114e-06,-10804793.4225,1.70246559647e-05,0.0,5624005.39341,683.51064575,652.812604461,66447594.1789,1800.11496759,44007881.8575,67689786.2602,4698.69936679,4689.09891918,0.0
1.03874074832,1.05262004996,9.85580883002e-06,-55460360.4547,1.3419896724e-05,0.0,5852046.96056,678.49049518,646.791783061,67051091.7638,1677.87954688,40125298.7057,71181505.8448,4311.81284628,4303.29923704,0.0
0.949898888678,1.06780876755,1.0082700948e-05,-93510442.1715,1.28290069614e-05,0.0,6091762.55188,685.663217721,641.125237844,67643057.1671,1609.72911512,68600806.5152,68820082.7346,3943.0302869,3936.79994815,0.0
1.03210929876,0.895574444865,1.03808045495e-05,-56978225.8366,1.4832755054e-05,0.0,5828084.42434,677.816090262,646.357480109,66971180.7672,1668.65871397,40895653.4367,70727876.0615,4284.28569915,4275.70448249,0.0
1.19557566166,1.11567191392,9.82815171968e-06,6411137.98929,2.09819246727e-05,0.0,7945568.79227,687.596238751,656.838624166,65515649.4149,1876.1709806,53511618.6901,66698427.1814,4962.83457155,4951.11164723,0.0
1.09623167313,1.11079781587,1.00444177014e-05,-23916130.4967,1.53614491231e-05,0.0,5742291.48089,681.372720798,650.547077632,66791333.1063,1755.32615685,36855610.6761,69067950.965,4550.45767516,4541.7214385,0.0
0.994246589462,1.13157574945,9.85052173627e-06,-95651391.643,1.20540766595e-05,0.0,5989347.72319,679.02160661,643.975140771,67370886.4752,1619.22679545,70485729.0705,70726321.8518,4127.11759286,4119.86373368,0.0
1.10986270482,1.13018434075,9.88997138148e-06,-17801033.536,1.5733634274e-05,0.0,5656855.46082,682.287065642,651.39812816,66521422.5294,1770.22097697,39901366.3343,69030946.6011,4607.04008771,4597.11489719,0.0
0.995420700216,0.935567381566,9.73925180527e-06,-95717813.5568,1.39504311636e-05,0.0,5999585.59768,679.251492547,644.056620817,67418426.699,1622.08019495,70544270.2924,70782393.1593,4131.9913266,4125.14791115,0.0
1.16315559781,0.914414239092,9.55496452054e-06,-2739864.70029,2.16749328406e-05,0.0,5452662.20606,685.909251366,654.818264865,65913770.8584,1837.58734834,48542515.766,68079927.4954,4828.25888651,4817.22591311,0.0
1.12051718983,0.761650531169,1.0587642037e-05,-13608927.6171,2.24076140811e-05,0.0,5581706.17328,682.608868818,652.037628008,66299156.8297,1785.50008857,42012436.2718,67636472.1407,4651.26685498,4641.65099134,0.0
1.16783774777,0.91854923568,9.92404548268e-06,-776151.11372,2.43028061049e-05,0.0,5499700.55535,685.901419449,655.129824087,66097183.1867,1846.73131582,49557196.5908,67858892.6645,4847.69449099,4837.88497373,0.0
1.22754600603,0.866504679891,1.03305609269e-05,14886538.0809,2.92022833451e-05,0.0,16393371.2234,689.446263195,658.843183933,64974165.1421,1913.98657635,59937657.0104,66529340.3605,5095.54347103,5083.55340444,0.0
1.07366456221,1.09985667933,9.87411474528e-06,-32769835.2518,1.3902855411e-05,0.0,5813145.82216,680.037306059,648.982675775,66981076.1195,1725.80328485,34981270.8185,69850509.808,4456.78159773,4448.39698242,0.0
1.22600023804,0.929840211256,9.56860854267e-06,14026219.1172,2.62474575445e-05,0.0,15463553.1807,689.656936104,658.759166988,65251498.6259,1913.80733667,59308407.1493,66660088.3382,5089.1269881,5077.47105027,0.0
0.999873790988,1.00070000526,9.69700764064e-06,-96018823.0773,1.35429011865e-05,0.0,5993462.79664,678.638233162,644.339672002,67403196.0734,1627.94167627,70806796.7052,70972946.2724,4150.47610639,4143.56826025,0.0
1.15872363509,1.06090935411,1.00869904082e-05,-2814243.54018,1.95775704223e-05,0.0,5504542.21877,685.156608904,654.548334366,66082035.8811,1833.23065702,48392345.5629,68106144.2886,4809.86180926,4799.54135782,0.0
1.04575010263,0.89158432048,9.90555950792e-06,-49779575.4168,1.52546390506e-05,0.0,5807803.3914,678.808968873,647.231891126,66924979.9077,1686.27634754,37470195.4134,70580347.0745,4340.90867602,4331.93041565,0.0
1.09208570804,1.00015770536,1.0237996671e-05,-24671260.5409,1.65918087468e-05,0.0,5737439.44322,681.017734852,650.251654764,66758705.4769,1749.99731507,36529270.3698,69013834.5987,4533.24777407,4524.57657949,0.0
1.0418096648,0.851584631637,1.01985688311e-05,-49645563.12,1.53671001277e-05,0.0,5818253.17538,678.377352723,646.961401177,66951345.9424,1681.95572354,37406398.0904,70910150.5243,4324.55191858,4315.90075043,0.0
0.994560419856,1.02325545898,1.01544314619e-05,-95321866.142,1.35215823459e-05,0.0,5918474.75794,678.79165234,643.976314848,67166273.7402,1617.78728174,70195793.9259,70459181.9746,4128.42030282,4120.28062382,0.0
0.992380385809,0.801400869246,1.01161406036e-05,-95197440.5011,1.52707290947e-05,0.0,5913260.13609,679.248688336,643.83875228,67145784.1592,1615.08473868,70086263.1843,70336328.3304,4119.37098149,4111.26650731,0.0
1.10956518124,0.839255207678,1.0151390315e-05,-17462457.4388,1.97271825169e-05,0.0,5654176.51642,682.185617737,651.380942046,66519616.2915,1771.36297713,39949550.1624,69003514.9447,4605.80506733,4596.47014311,0.0
1.10954688896,0.847330993972,1.01498130467e-05,-17523122.538,1.9612583122e-05,0.0,5654961.26927,682.181537081,651.379425152,66521831.0851,1771.32083612,39964719.3175,68999381.9713,4605.72913607,4596.3936013,0.0
1.02040202297,0.802796254254,9.69350113905e-06,-74317033.5422,1.51520248789e-05,0.0,5938550.19199,678.110818421,645.648508817,67288124.0605,1655.93449413,52704648.9719,70972850.6902,4235.68879735,4228.49112016,0.0
1.09960904294,1.03448315078,9.78520591684e-06,-21721762.0696,1.60670910922e-05,0.0,5670122.09393,681.848735701,650.767856004,66544122.712,1756.53843099,37984378.8706,68681355.4036,4564.47713724,4554.44641607,0.0
1.28333664352,0.758190176591,9.73446545491e-06,25383389.7653,3.6925303019e-05,0.0,27096962.8753,693.33717024,662.290268202,64178137.0181,1978.26512685,67767361.857,68688269.6649,5327.13040725,5314.19918467,0.0
1.01320442344,1.0340953791,1.02688952623e-05,-79039537.2912,1.31608642341e-05,0.0,5940553.03181,677.375469947,645.186642511,67271567.0637,1646.06921947,56410329.8517,70785692.7171,4205.8115617,4198.71621422,0.0
1.09952714917,0.894964814508,9.93851121455e-06,-23078796.5045,1.82223567109e-05,0.0,5721189.80864,681.76481392,650.785522146,66730174.2846,1759.81970117,37125929.7826,68941977.338,4564.1371962,4555.34756565,0.0
1.05270567204,1.12239282463,9.91768645246e-06,-45262357.2176,1.30611332787e-05,0.0,5816866.14007,679.028575092,647.673913937,66962896.0324,1695.94213939,35885613.5336,70494504.5326,4369.78124464,4360.86300062,0.0
0.959714203216,0.984629720306,9.80928665564e-06,-93946027.3081,1.39920829934e-05,0.0,6074575.7364,685.245589568,641.758816108,67603194.7855,1615.7815898,68984286.6886,69208550.9281,3983.77365755,3977.41129339,0.0
1.07205730095,1.01601370351,9.32687436475e-06,-33703787.8596,1.41403604524e-05,0.0,5808259.82598,680.417659556,648.913519336,66947936.7014,1721.86583388,34955222.8703,70179911.4069,4450.10985624,4441.18651726,0.0
1.17161552416,0.90895533925,1.03721463565e-05,2179852.83281,2.33873897585e-05,0.0,5400234.29852,685.847546212,655.317031882,65722454.9457,1847.87014299,50872619.4086,66848414.5207,4863.37604079,4852.53144536,0.0
1.16500174985,0.931299602649,9.74266094848e-06,-898785.567488,2.18000662224e-05,0.0,5444403.5598,685.863823025,654.927621346,65883008.1512,1839.72323403,49564687.689,67850405.7312,4835.92226363,4824.95962697,0.0
1.13255472738,1.1588746849,9.87211950318e-06,-11502618.3389,1.71699343276e-05,0.0,5624133.71929,683.621219832,652.845580969,66445494.5689,1801.1458307,43520397.0526,67605674.4489,4701.23467335,4691.59537677,0.0
1.05664258476,1.29678770069,1.02883799429e-05,-39779477.4366,1.1680746746e-05,0.0,5840647.40554,678.796259971,647.916680146,67036460.9742,1703.04832023,34823817.0136,69687525.3725,4386.12336934,4377.90712083,0.0
1.05330452026,0.985203089711,9.7962561628e-06,-45447111.2699,1.44413260551e-05,0.0,5810947.6847,679.216723667,647.715631532,66942620.796,1696.82114121,35940149.3248,70523712.6302,4372.2670636,4363.33752038,0.0
1.16960284488,0.981153653019,1.01016163342e-05,998396.987202,2.17672613996e-05,0.0,5445121.42263,685.846567284,655.22072226,65882556.5442,1846.15209021,50382052.2642,67512102.0519,4855.0214091,4844.39486113,0.0
1.02723709876,0.946186757057,9.78055457548e-06,-65057280.1993,1.40453885232e-05,0.0,5923643.47221,678.114429692,646.080399703,67259830.0415,1664.97980837,46002453.5925,70943756.7492,4264.06119695,4256.76603116,0.0
1.05062705967,1.06841764138,1.03973753686e-05,-42158747.3857,1.34128659272e-05,0.0,5838156.80365,678.48076772,647.535729299,67029210.2646,1695.17425809,35193964.8478,70443304.2022,4361.15292469,4353.02904585,0.0
1.10177972548,0.959336358944,9.91516072006e-06,-22250107.6566,1.75539240532e-05,0.0,5723257.11609,681.895919554,650.940067421,66738641.076,1762.85215872,37473239.651,68592379.2661,4573.48764047,4564.6639428,0.0
1.21440299684,0.789727514673,9.67030954883e-06,11812473.7333,2.8676196622e-05,0.0,13148765.0924,688.960443829,657.976325372,65295705.5485,1900.14300841,57454307.8944,66395152.0352,5040.98683988,5029.4333055,0.0
1.14475233102,1.08459265839,1.00756331874e-05,-8468073.97675,1.97004877427e-05,0.0,5599656.50348,684.177083595,653.573814142,66390038.1484,1818.25016506,45126779.3361,68393855.2738,4751.86692606,4742.55138461,0.0
1.12049603374,1.07907028622,9.51802091286e-06,-15428058.9307,1.68030171469e-05,0.0,5654783.14499,683.116030101,652.024809643,66523189.2429,1784.96988069,41231678.7517,69422232.1063,4651.17903605,4641.36476961,0.0
1.09146647268,1.14214901146,9.97272214518e-06,-25723186.5655,1.46071423463e-05,0.0,5760879.01161,681.110695082,650.219323899,66839445.3505,1749.08596096,36337170.1135,69288057.1611,4530.67732809,4522.01583104,0.0
1.03080622607,0.845537305094,9.33220406648e-06,-65314040.9872,1.51597508492e-05,0.0,5860788.6678,678.761388449,646.288108913,67057585.7859,1666.34412197,46157454.9032,71129035.5024,4278.87664442,4270.14682747,0.0
1.05874413897,0.874261561409,9.62914942475e-06,-43449810.4259,1.57873413232e-05,0.0,5795471.08727,679.645844507,648.037560099,66903230.8074,1704.08852076,35436359.276,70308019.9095,4394.84692086,4385.82788372,0.0
1.11198570452,0.870163249025,1.02739598992e-05,-16884625.2683,1.9622335485e-05,0.0,5644082.17633,682.21716422,651.507130476,66478547.614,1774.71978561,40254816.6453,69106704.7554,4615.85265946,4606.47732303,0.0
1.1530819797,0.958172425946,1.04099941134e-05,-3747307.60205,2.11689663592e-05,0.0,5458902.46523,684.729357548,654.179170366,65911467.2572,1824.72786966,47433949.4049,67994708.2628,4786.44329773,4775.70566427,0.0
1.09211363362,0.989857756497,1.00616972456e-05,-25196092.037,1.65949840752e-05,0.0,5744477.44817,681.141896349,650.250621368,66791104.3364,1750.0589943,36459789.7629,69165496.2076,4533.36369316,4524.69206114,0.0
0.954649948689,0.960503147959,1.0149322572e-05,-93581540.1398,1.38957995325e-05,0.0,6057006.64972,685.111783019,641.425812194,67540549.3375,1610.73333167,68663422.814,68884847.2337,3962.75193701,3956.16969902,0.0
0.988514680218,0.950588639394,1.00827008254e-05,-95296819.6185,1.38174816266e-05,0.0,5983994.54866,679.432154716,643.605248538,67355477.2788,1612.78337404,70173398.9725,70414020.0589,4103.32443758,4096.23779846,0.0
1.1904346953,0.639772886977,1.04395525829e-05,6979227.84512,3.20528056014e-05,0.0,8428324.95327,687.340629479,656.516254382,65223846.8824,1870.2791534,53526937.1349,66186966.9779,4941.49442019,4929.97013737,0.0
1.04603525701,0.897473636687,1.02238468197e-05,-47317839.2217,1.51360487433e-05,0.0,5806871.14591,678.675061448,647.327548427,66925822.5866,1687.54708627,36492798.5171,70232723.2748,4342.09235185,4333.37230796,0.0
1.07512223443,0.908855603628,9.75632553479e-06,-32521910.2214,1.60502790412e-05,0.0,5801677.98499,680.269472463,649.066051838,66946758.2879,1727.85838056,35024706.5094,69817232.0261,4462.83239512,4454.42524681,0.0
1.17608022472,1.01372371438,1.00921757999e-05,2529218.01591,2.15577968783e-05,0.0,5400836.15573,686.237965619,655.592861204,65737389.0689,1853.22319885,51181570.3232,66952674.2514,4881.90901281,4870.8519293,0.0
1.086182352,0.885366916217,1.00403556779e-05,-27252262.2752,1.72927809012e-05,0.0,5754467.81386,680.915516116,649.922493009,66813767.9395,1742.38571645,35936859.9005,69275698.4306,4508.74294315,4500.1640173,0.0
1.09266886954,0.908918366785,1.00668866829e-05,-24971017.3276,1.75530373861e-05,0.0,5736715.94018,681.20490592,650.285146052,66769006.2104,1750.84811647,36503944.3428,69110232.8183,4535.66847746,4526.98814622,0.0
1.02662722186,0.862297298379,9.54907387209e-06,-68108279.1688,1.47786239191e-05,0.0,5930360.29276,678.364900412,646.050232809,67275508.2909,1664.15601998,48119316.1694,71151534.0326,4261.52959794,4254.24315351,0.0
1.10790520008,0.909903809742,9.7107594671e-06,-19335295.6158,1.83616072711e-05,0.0,5632340.00924,682.457550893,651.2852963,66441601.1595,1767.36190826,39148702.9198,68751701.619,4598.91448553,4588.73900341,0.0
1.12398470255,0.831795540863,9.7394130357e-06,-14214023.6882,2.0884053601e-05,0.0,5641102.1429,683.281377479,652.26426484,66505368.139,1790.77832358,41799847.7501,68756097.2177,4665.66050029,4656.28960355,0.0
1.09028509478,1.12968046732,1.03475149457e-05,-25160525.6236,1.50496254596e-05,0.0,5751817.70973,680.779865605,650.133696917,66807548.1005,1747.89154066,36421295.0995,69111219.643,4525.77342843,4517.22852054,0.0
1.13572886076,0.761351110604,9.76294105148e-06,-10733485.3323,2.33806584226e-05,0.0,5581926.49313,684.11121061,653.058360515,66317212.5819,1805.687734,43995852.7547,67672867.7158,4714.41050101,4704.71770842,0.0
1.02615287822,0.916572491355,9.76155357507e-06,-66597613.7398,1.42691825618e-05,0.0,5925869.77682,678.103548797,645.999552057,67264300.9528,1663.54170657,47054787.4113,71011626.1122,4259.56059749,4252.2809332,0.0
1.17085081348,1.0953397109,1.00962726088e-05,1241079.82909,1.98918164915e-05,0.0,5453700.76685,685.842631156,655.290497791,65910812.8005,1847.52561472,50523641.063,67556084.9502,4860.20172676,4849.55343308,0.0
1.11828528099,0.945548461534,9.87646309705e-06,-15319813.6275,1.88824297359e-05,0.0,5612051.08463,682.84140325,651.873185514,66383118.368,1781.29449978,41165637.231,69080365.0482,4642.00220139,4631.932202,0.0
0.997007278883,0.79576993649,9.74628309069e-06,-95769038.4542,1.50685298144e-05,0.0,5989447.78148,679.099129558,644.15680733,67390196.3001,1624.26931361,70589385.908,70864772.7354,4138.57721464,4131.71170591,0.0
1.10971282035,0.813617130249,1.00449897445e-05,-17290655.2643,1.99142769579e-05,0.0,5622003.59627,682.332113915,651.379393458,66401886.3122,1770.32396501,39994560.3385,68955586.5058,4606.41791727,4596.49531209,0.0
1.15319380345,1.01987072742,1.03197689785e-05,-4516679.06297,2.17788938515e-05,0.0,5549884.17259,684.70365044,654.220871752,66234878.9526,1828.58322742,47396870.5311,68496155.0161,4786.90747812,4777.45993277,0.0
1.1533308582,0.921996521947,1.03557782435e-05,-5393254.06059,2.35162870342e-05,0.0,5538795.01715,684.763823353,654.230006528,66179074.0066,1829.12385528,46772030.0348,68425097.9232,4787.47639239,4778.02372301,0.0
1.18765805446,0.871030678171,1.06118849754e-05,6544470.11602,2.58756967344e-05,0.0,7943685.7554,686.776705591,656.346888164,65445163.9145,1866.98052049,53249048.9263,66386628.6638,4929.96858406,4918.81444745,0.0
1.1038288798,0.989209278868,9.97758928095e-06,-21474046.0979,1.7426851178e-05,0.0,5716672.45758,681.960888198,651.070241107,66708254.1208,1765.48923506,37786442.2193,68633840.8795,4581.99368005,4573.13763025,0.0
1.15550129229,1.1195639992,9.74941309907e-06,-5003083.47222,1.95094928271e-05,0.0,5576445.6378,685.079548419,654.327459657,66338155.6685,1831.43576038,47501050.6142,68784400.8837,4796.4858643,4786.90502917,0.0
1.18408573258,0.934405515806,1.03237864057e-05,5115187.52843,2.40101161644e-05,0.0,6688735.30511,686.593241224,656.085865229,65667494.1769,1863.78632772,52640987.2714,66894760.2127,4915.13987594,4904.36930054,0.0
1.00409811965,0.946261077438,9.99252090172e-06,-92248649.3796,1.4152150503e-05,0.0,5894186.25679,678.18698413,644.585973052,67101959.7492,1630.37974767,67479006.5263,70909307.2925,4168.01129467,4159.63633894,0.0
1.01391060539,0.922186694109,1.03694163976e-05,-77112934.596,1.40887910763e-05,0.0,5929460.29094,677.302293963,645.221539281,67240374.8557,1647.10515855,54865074.0211,70625535.6664,4208.74292297,4201.63759085,0.0
1.22222951636,1.19372644267,1.0228958188e-05,13519595.6996,2.21172074719e-05,0.0,14782451.1252,688.909153853,658.502048337,65211034.6045,1907.52070079,58874371.5453,66598088.6686,5073.47472241,5061.5827067,0.0
1.10191064502,0.947100751305,9.88740056626e-06,-22291056.8063,1.76863152593e-05,0.0,5723268.65071,681.924073976,650.94668952,66737661.9308,1763.0320447,37454284.3429,68615640.3118,4574.03108748,4565.20532429,0.0
1.08756108264,1.19002466423,9.91370189689e-06,-27245875.523,1.38152966186e-05,0.0,5776706.30458,680.959423373,650.012726689,66881857.2143,1743.95916211,36023199.5907,69388670.1157,4514.46605404,4505.86561497,0.0
1.16624270134,1.12308850763,1.01415350644e-05,312745.414211,1.90269668225e-05,0.0,5442411.27626,685.544211841,654.995023195,65865590.9796,1840.58367409,50010347.0135,67517508.6348,4841.07345326,4830.0953779,0.0
1.00243456791,1.12261991713,1.00075061639e-05,-95818061.3471,1.24359083294e-05,0.0,5909524.14051,678.199034212,644.480997228,67146788.4183,1628.03470499,70633989.6377,70757536.3399,4161.10589139,4152.7578668,0.0
1.12036250419,1.06829530591,1.02730035465e-05,-14131341.0538,1.76482114342e-05,0.0,5620652.58889,682.641102412,652.024972699,66406141.8527,1784.81714286,41795939.6984,68348233.7628,4650.62475489,4640.91095674,0.0
1.1053835979,0.882460502694,1.04295428822e-05,-17836999.9514,1.88330616795e-05,0.0,5655288.81837,681.737149071,651.118060365,66514010.1212,1765.65528334,39709625.1191,68816854.1843,4588.44731488,4579.08364183,0.0
1.16354553501,0.831421441924,9.75551141108e-06,-2247677.46874,2.54210497008e-05,0.0,5514892.87751,685.841915428,654.906412222,66135167.1244,1841.65032459,48946162.5778,68311156.0698,4829.87751583,4820.13832886,0.0
1.0006704876,0.927194775911,1.00476706371e-05,-95752989.1169,1.42582871752e-05,0.0,5899400.97962,678.355005539,644.365981824,67113892.2127,1625.83404714,70574524.2865,70709105.8494,4153.78319403,4145.46643796,0.0
1.01295651539,1.08984364095,9.95454285153e-06,-80773049.9883,1.25142388262e-05,0.0,5960637.76977,677.662693825,645.159240552,67326592.4395,1645.81303483,57821957.3314,70806892.6805,4204.78249538,4197.69037619,0.0
1.10021595403,0.8572261373,9.88887518555e-06,-22789056.0929,1.86377400381e-05,0.0,5721103.17593,681.858905546,650.830871739,66728088.1054,1760.90711269,37231214.1835,68928236.1545,4566.99642518,4558.1973839,0.0
1.2527834794,1.13956821707,1.04829985751e-05,20709422.1075,2.7078082837e-05,0.0,22633780.1099,690.694340808,660.388065584,64813112.6502,1942.97668691,64722924.7484,65522467.0005,5200.30422299,5188.32367907,0.0
1.06835578308,1.05764038821,1.01419617902e-05,-33788774.1733,1.42217943557e-05,0.0,5802570.54199,679.60773561,648.676733403,66934022.5158,1718.17621728,34841700.889,69835772.9954,4434.74485557,4426.25224455,0.0
1.02815842428,1.00890332636,9.97805507849e-06,-61846881.8446,1.35221447775e-05,0.0,5916389.82158,677.931076923,646.137378132,67240841.9334,1666.20564387,43825093.332,71000723.5571,4267.88561919,4260.57726984,0.0
1.17041062671,0.76802779244,9.88493163714e-06,1139112.79772,2.5072326601e-05,0.0,5405984.59069,686.183351347,655.264410747,65757564.5754,1846.76010471,50547882.6914,67461936.1357,4858.37451147,4847.43054413,0.0
1.05556063811,0.729790885877,9.40032061584e-06,-42464918.0201,1.64221786608e-05,0.0,5801627.51628,679.686275162,647.850320542,66897683.0931,1699.32738347,35276782.1647,70639657.7742,4381.63220879,4372.45598815,0.0
1.09529191635,1.15563825705,1.02577662636e-05,-23595987.1955,1.49161045297e-05,0.0,5738668.52533,681.164401533,650.49634234,66767709.2649,1754.04961546,36901834.8915,68957119.2028,4546.55674477,4537.83526846,0.0
1.20352553125,0.884438470375,1.01725236252e-05,9702409.32604,2.63886952086e-05,0.0,11027390.8971,687.97462469,657.276112211,65244327.9149,1885.41571509,55704895.5983,66791029.3157,4995.83448022,4984.01432402,0.0
1.20555201416,0.705932442599,1.01320476878e-05,10141621.7005,3.12878797063e-05,0.0,11468736.0161,688.311574683,657.387454469,65110551.1864,1888.1874029,56014519.4827,66752716.316,5004.24641078,4992.33908001,0.0
1.07511420696,0.842739720463,9.96904673128e-06,-31756506.8505,1.69540643535e-05,0.0,5788854.24031,680.137510503,649.060465134,66911263.1856,1727.90106038,35120021.8895,69610646.6441,4462.79907309,4454.39204894,0.0
1.03793035479,0.823648648291,9.82084876489e-06,-55867571.2616,1.54824903448e-05,0.0,5889251.94085,678.46909565,646.750865369,67171838.9319,1679.33384058,40383203.5325,71108386.1959,4308.44890273,4301.00154273,0.0
1.14744706576,0.995807611145,9.96371259995e-06,-8024533.03312,2.12786458808e-05,0.0,5587533.15437,684.474321453,653.758268655,66355129.7968,1821.80846954,45531303.2075,68519957.6833,4763.05276997,4753.69452169,0.0
1.1528539769,0.896189357103,1.0481308599e-05,-3620556.4727,2.22056634076e-05,0.0,5449058.38135,684.708405326,654.162388252,65883716.1369,1824.47237168,47433572.7598,67921227.6595,4785.49685811,4774.76327564,0.0
1.10671874755,0.887089070362,1.01199717337e-05,-20478772.0872,1.91425284959e-05,0.0,5690843.96299,682.063446831,651.232626583,66639300.4896,1769.15916446,38212893.2103,68748341.9135,4593.98952108,4585.08787829,0.0
1.13992848807,1.16369747958,1.02982544985e-05,-8960297.59173,1.79603239833e-05,0.0,5553341.77788,683.780920225,653.265649833,66226093.3474,1809.37327697,44831631.5667,68197084.6362,4731.84315398,4721.69617129,0.0
1.07918373299,1.11861904643,1.03146945683e-05,-29100288.7588,1.44026810057e-05,0.0,5782160.75307,680.23520877,649.48411637,66896673.0382,1733.3803685,35555115.1537,69251770.3136,4479.69167564,4471.31810197,0.0
0.951127285582,0.984089616354,1.01483699581e-05,-93529313.6392,1.3584085885e-05,0.0,6081807.61745,685.358223988,641.203892876,67615070.6108,1609.4823545,68617430.6124,68837324.1056,3948.12936245,3941.88258518,0.0
1.16815850947,1.17942195117,9.8531464673e-06,-869265.980884,1.97071714751e-05,0.0,5528534.62277,685.81461884,655.153420617,66184747.0887,1846.89393936,49592976.7794,67998257.4439,4849.02597281,4839.2111915,0.0
1.17841450112,0.929161146949,9.42738235753e-06,2014357.53059,2.24062839083e-05,0.0,5408501.04769,686.854257851,655.758135153,65799374.5679,1856.52463128,51244198.7709,67014144.62,4891.59859415,4880.38782378,0.0
1.04694401411,0.76869805503,9.90664098714e-06,-45870106.6309,1.60468768606e-05,0.0,5834884.3617,678.819235777,647.313164019,66999854.7185,1689.53918874,36175379.8291,70569957.9914,4345.86460257,4337.52389015,0.0
1.13722978768,0.729584123601,9.63133258883e-06,-10726789.5804,2.39430566945e-05,0.0,5587608.94612,684.294246057,653.154615265,66341634.7728,1807.9902603,43989336.1111,67729482.784,4720.64084866,4711.02781815,0.0
1.08291736373,0.855778467562,1.02654932027e-05,-27662224.3929,1.75754587489e-05,0.0,5752036.43992,680.584104999,649.716892817,66804713.1808,1738.11770341,35797866.0149,69196346.1973,4495.18997684,4486.66190861,0.0
1.09101517804,1.11651287658,1.04375462751e-05,-24622131.0226,1.53138676683e-05,0.0,5745153.00978,680.773730208,650.189195066,66789409.1003,1748.8467303,36537538.4887,69004498.5384,4528.80400404,4520.2462376,0.0
1.15558611211,1.03516564394,9.83634275458e-06,-5766257.63239,2.09916921826e-05,0.0,5564048.77753,685.086782067,654.328530495,66281777.8781,1831.87594674,46889327.2436,68699018.8856,4796.83795137,4787.25273695,0.0
0.991466087894,0.876503334008,9.80205002377e-06,-95307432.1789,1.4845187434e-05,0.0,5981658.11809,680.315209713,643.796577866,67357852.4647,1619.14578011,70182828.2374,70426741.6331,4115.57573085,4108.4395998,0.0
1.07907330887,0.798311288023,1.02181342989e-05,-30187638.7398,1.82584919202e-05,0.0,5767850.25987,680.421366677,649.472473382,66858122.9943,1733.7261635,35265587.3931,69204579.1265,4479.23330512,4470.95846836,0.0
1.10958653612,0.793188399082,9.8597145335e-06,-17829401.3701,2.00226418667e-05,0.0,5629382.68956,682.472478189,651.381411953,66435216.3597,1770.2311794,39885163.9709,68926029.919,4605.89371143,4595.9741702,0.0
1.09564893992,0.994654430325,1.00140893807e-05,-24164692.7017,1.68001244471e-05,0.0,5736516.10843,681.40483949,650.501374023,66771800.167,1754.66898776,36758645.318,69063746.1656,4548.03874961,4539.31166688,0.0
1.1957877506,1.05983527673,9.43385862178e-06,6641471.70531,2.14216433286e-05,0.0,8187791.27053,687.760816462,656.848624651,65781019.686,1878.57721657,54069278.211,67067964.3269,4963.71495274,4952.74194186,0.0
1.19887539196,0.894618530546,1.04225567708e-05,9414714.67034,2.60672784717e-05,0.0,10735225.3721,687.488676682,657.028028446,65425537.2787,1880.90466853,55477707.5055,66720796.1035,4976.53175203,4965.40819307,0.0
1.17258540136,1.1131643151,9.87146504439e-06,1220377.26913,1.94567708155e-05,0.0,5422111.35939,686.113867313,655.389057658,65821426.6411,1848.41236312,50555669.6709,67556768.8115,4867.40200105,4856.19911421,0.0
0.999469543533,0.898877716572,9.93370740588e-06,-95694207.1288,1.43763191189e-05,0.0,5975581.74458,678.818414142,644.312116358,67358234.2386,1627.6659266,70523654.797,70809981.6869,4148.79807521,4141.80544637,0.0
1.04697265369,1.11925492677,1.01144746183e-05,-46194216.6109,1.29293500941e-05,0.0,5829558.73369,678.548902268,647.304344337,66992473.806,1688.53617605,36107799.6651,70410207.5454,4345.98348547,4337.30521177,0.0
1.09162572084,1.07532593912,9.96841315899e-06,-25666182.562,1.53947675282e-05,0.0,5755958.84467,681.148311385,650.227738243,66824919.0227,1749.34691234,36347269.7517,69269023.4864,4531.33836721,4522.67437667,0.0
1.14653571902,1.0717339847,9.91229056156e-06,-8410754.2874,1.98695340346e-05,0.0,5600382.29889,684.403737041,653.694479899,66391787.992,1820.60788404,45353976.1169,68464860.8209,4759.26976965,4749.9261119,0.0
1.16611412799,1.16492361665,9.70841437305e-06,-643414.604648,1.80431209021e-05,0.0,5491818.95453,685.773686034,655.006629071,66044986.4117,1841.62700297,49762404.7919,67866723.4903,4840.53974529,4829.86888278,0.0
1.09773793488,0.814578073355,1.02039525381e-05,-22882312.5137,1.93249777743e-05,0.0,5708803.87816,681.520569833,650.674924945,66678605.0102,1757.53980404,37121142.1055,68717476.1941,4556.71016769,4547.95025156,0.0
1.13414765176,1.08138480248,1.0024598131e-05,-10510459.2253,1.87479500421e-05,0.0,5630570.76407,683.61956851,652.964420391,66479368.2448,1804.19233777,44282393.9212,67872448.9987,4707.84690246,4698.62329683,0.0
0.951797722893,1.04572064888,1.01761611544e-05,-93477655.3956,1.30704188992e-05,0.0,6067372.95599,685.359349164,641.242113293,67567376.1096,1609.49065292,68571969.0425,68792077.2371,3950.91234773,3944.36985689,0.0
1.17462707375,0.75506118971,9.72086029173e-06,2164446.30359,2.59556525743e-05,0.0,5428134.62747,686.498544629,655.529075914,65852662.8364,1853.02829637,51338292.9932,67104664.4999,4875.87698314,4865.27835293,0.0
1.13199430433,1.28505181889,9.97609790621e-06,-10761058.2281,1.56705815852e-05,0.0,5630830.91163,683.446715743,652.818466778,66469947.0721,1800.06564331,44045441.8341,67723358.6396,4698.90835727,4689.30707735,0.0
1.10821055209,0.783098023395,1.01842417507e-05,-17828424.4897,2.04505138169e-05,0.0,5651335.14489,682.120741678,651.299108588,66510143.1066,1769.65487831,39815089.3838,68908036.1907,4600.18200173,4590.86993827,0.0
1.24674486422,1.00002703244,1.02317749704e-05,19239926.7401,2.84990084015e-05,0.0,20973849.69,690.569100506,660.008318434,64823315.4907,1936.26271708,63502770.6006,64823315.4907,5175.23793138,5163.12239335,0.0
1.09766142141,0.934207278168,1.01596708593e-05,-23063587.215,1.77611220361e-05,0.0,5719932.72538,681.483963754,650.664867161,66712678.6081,1757.33125924,37079427.0705,68865446.8094,4556.39256027,4547.63384762,0.0
1.15027231657,1.18007762842,9.71689687246e-06,-6217978.06745,1.7905647599e-05,0.0,5574676.53516,684.742791724,653.967177579,66317642.223,1823.51381195,46847923.1913,68879751.475,4774.78038608,4764.8610308,0.0
1.07384618116,0.837965849544,9.77199715768e-06,-32984207.7075,1.68020016539e-05,0.0,5799957.14579,680.233211965,649.000635996,66939015.0484,1726.23826104,34926927.3954,69872460.2486,4457.535498,4449.14807654,0.0
1.00159996899,1.06542183271,1.03180394425e-05,-94822610.9417,1.31239130827e-05,0.0,5897084.27199,677.79243093,644.421595753,67113773.2339,1627.22175726,69767427.9951,70593419.0121,4157.64147128,4149.38854812,0.0
1.19066006311,1.10384094354,1.01148587423e-05,5756771.32189,2.11435259633e-05,0.0,7286584.79794,687.116283952,656.513447591,65504667.4333,1869.96320443,52956474.9442,66701644.7818,4942.42992197,4930.80461082,0.0
1.09342957938,0.956341006007,9.77635079891e-06,-25384938.72,1.67658010366e-05,0.0,5753078.26185,681.436931047,650.341055548,66814522.0278,1751.95898516,36480189.9645,69332381.1887,4538.82618401,4530.1338187,0.0
1.19215589632,0.860562428785,9.95167298105e-06,6006900.04189,2.56952298745e-05,0.0,7545065.83939,687.505719627,656.613610957,65422993.3792,1872.32878425,53178013.3199,66643110.7002,4948.63912562,4936.96628394,0.0
1.05438064357,0.880463226943,9.87339143259e-06,-44522616.1806,1.55848056982e-05,0.0,5797965.97712,679.244772843,647.772336193,66906754.2363,1698.35272951,35657747.8969,70346097.9206,4376.73405146,4367.78669084,0.0
1.04762112716,1.01401167261,9.66663895883e-06,-49033144.776,1.38724439948e-05,0.0,5831539.91002,679.041691016,647.359181636,66997683.0514,1689.21239218,37200975.4237,70940122.6029,4348.67529884,4339.8409994,0.0
0.987113738774,0.783024112392,1.0138139718e-05,-94971987.9542,1.53073219141e-05,0.0,5925452.37264,679.943987641,643.501330747,67172343.5006,1611.47200075,69887791.4044,70129641.3373,4097.50912965,4089.4889659,0.0
1.12833134568,0.839318591504,9.67859976299e-06,-12843958.1515,2.129829703e-05,0.0,5564134.63695,683.710303248,652.542580517,66256704.4067,1794.10575946,42548489.6375,67902725.4608,4683.70341592,4673.33567604,0.0
1.03171691572,0.969856991294,9.69628135463e-06,-60644462.4361,1.39457550641e-05,0.0,5916819.061,678.324380478,646.369114538,67245275.5354,1670.92161121,43106691.0014,71107075.3279,4282.65691715,4275.2975531,0.0
1.14613446579,0.710098985002,9.76407883267e-06,-7284296.51247,2.56344171443e-05,0.0,5545052.72536,684.700102254,653.66670572,66229728.8329,1819.09367863,46230353.639,68495777.9948,4757.60416749,4747.84551621,0.0
1.05029065703,0.856649764765,1.02808890807e-05,-44873522.4203,1.57568366097e-05,0.0,5794575.68377,678.735421195,647.517863504,66897240.4402,1693.24805007,35703271.5939,70358501.1209,4359.75651733,4350.96688989,0.0
1.17630553564,0.840858882843,9.94615557928e-06,2424995.47212,2.45907503944e-05,0.0,5385660.07483,686.46642221,655.610591402,65707604.5933,1853.90432602,51194172.7001,66938054.8341,4882.84427844,4871.78315877,0.0
1.04167790251,1.07948661817,1.02450744958e-05,-49561040.8059,1.3205791956e-05,0.0,5831131.62963,678.243310952,646.95534631,66991015.7849,1681.6160725,37373603.545,70941133.7135,4324.00497332,4315.35578446,0.0
0.975493256872,0.880690557538,9.91440200634e-06,-94760911.9516,1.45671050465e-05,0.0,6029199.25309,682.05654495,642.773885966,67477816.0229,1613.77859191,69701693.5216,69937537.8446,4049.27250928,4042.62123436,0.0
1.07314161271,1.09919975153,1.00726592259e-05,-31894542.8684,1.40122205839e-05,0.0,5795762.49992,679.845589824,648.924496888,66921654.6895,1724.43733986,35145346.1423,69600358.1145,4454.61083436,4446.04455168,0.0
1.08396483855,0.946246179982,1.00197379861e-05,-28096578.8293,1.6411932667e-05,0.0,5765649.7588,680.790444114,649.789984924,66844228.8626,1739.43418603,35791757.5121,69300592.4529,4499.53804482,4490.99367393,0.0
1.11087733039,0.869347095,9.40186831821e-06,-20652575.3562,1.90861336265e-05,0.0,5719747.44917,682.811964134,651.516398237,66738030.1831,1775.26963606,38332414.8025,68914407.7753,4611.25179845,4602.38338859,0.0
1.06275531955,0.855214606038,1.03163057771e-05,-36736726.632,1.62091418532e-05,0.0,5800345.10298,679.271024583,648.321506002,66924011.5921,1711.48285,34607845.5086,70021347.0913,4411.49733145,4403.18531721,0.0
1.08198872746,0.938897838618,9.83330652847e-06,-29419399.3301,1.62247570014e-05,0.0,5778327.14308,680.797077556,649.653333517,66888588.669,1736.85185023,35651966.4947,69362693.7244,4491.33520769,4482.82158186,0.0
0.985715375095,0.874723797247,9.70324793945e-06,-95091152.6367,1.48387327902e-05,0.0,5999362.57702,681.428399947,643.42839547,67401432.262,1618.97490295,69992402.6022,70233020.2154,4091.70452202,4084.6513305,0.0
1.19844941809,0.910879166953,1.03572628608e-05,9207247.38828,2.55824143844e-05,0.0,10567881.8903,687.494493253,657.008063178,65447358.8347,1880.44566934,55367115.7592,66715805.5561,4974.76353449,4963.64752468,0.0
1.23906595639,1.04865990351,9.82630426611e-06,17106039.3224,2.55339094091e-05,0.0,18637317.4038,690.205869862,659.507894008,64993611.4672,1927.56622498,61785524.514,66991361.7342,5143.36278497,5131.20482507,0.0
1.12881198156,0.675808689664,1.01030818682e-05,-12139072.5062,2.44292957868e-05,0.0,5559502.59064,683.542307012,652.587969725,66229124.0884,1796.17842942,42993267.1275,67191498.0784,4685.69853546,4675.84309437,0.0
1.14567814506,1.11755435983,1.02633575171e-05,-7348189.37328,1.89859601791e-05,0.0,5539190.87127,684.066230062,653.558242072,66194498.2458,1816.97044771,45576668.2687,68556743.3764,4755.70998014,4745.54245826,0.0
1.05048628979,0.786661218041,1.03846609264e-05,-43004542.3485,1.62553208591e-05,0.0,5804485.67781,678.623558849,647.523541881,66926724.0881,1694.32129701,35263926.6797,70379361.793,4360.56858892,4352.10212274,0.0
1.17887741777,0.940813117359,1.01236687427e-05,3258345.72401,2.31161766683e-05,0.0,5378783.4193,686.439500602,655.759814817,65673045.1211,1856.715626,51558790.2521,66938478.6438,4893.52016116,4882.41292882,0.0
1.0400791968,0.821620789004,1.00435207872e-05,-52809592.3862,1.56406192177e-05,0.0,5828044.28769,678.473550291,646.876254259,66979089.1516,1679.85953831,38763606.318,70945321.873,4317.36874592,4308.8335748,0.0
1.11315544684,0.857169670104,1.00741986414e-05,-16481003.9366,1.96597589781e-05,0.0,5618353.39106,682.454943947,651.568312086,66403330.0331,1774.92572257,40466196.8215,69196150.1199,4620.70825983,4610.82372422,0.0
1.06213331217,0.787642452912,9.85034919604e-06,-38501668.7084,1.66352659131e-05,0.0,5811884.19051,679.614810846,648.280310833,66957064.6025,1710.35726231,34718037.9191,69978364.5358,4408.91537882,4400.51977537,0.0
1.05932203656,0.927721415327,9.9642024376e-06,-39403081.2943,1.50070807255e-05,0.0,5823160.83187,679.32120735,648.09878515,66988506.8707,1706.53935196,34791832.1533,69814119.5623,4397.24577376,4388.8947189,0.0
1.12018222695,0.791982487686,9.80535520156e-06,-16682230.9979,2.12670356913e-05,0.0,5653032.7093,683.049424454,652.016333441,66531983.6573,1786.58735293,40438676.524,69254857.6441,4649.87642407,4640.65773542,0.0
1.05012644592,0.704410862038,9.91892342901e-06,-45398896.7355,1.71163441419e-05,0.0,5802744.79632,679.036148935,647.512110664,66912248.705,1693.00015037,35935431.3303,70482096.0153,4359.07487701,4350.34531665,0.0
1.1094964972,0.925988129856,9.68499637285e-06,-18732851.3211,1.80213762592e-05,0.0,5680595.54104,682.488387818,651.400812633,66598604.1864,1771.34437408,39490590.4683,68895749.794,4605.51995988,4596.08726819,0.0
1.12644776714,0.949100093523,9.97951552955e-06,-13305984.0242,2.01743829812e-05,0.0,5652630.39888,683.216459081,652.448956643,66543882.1314,1794.87876097,42396050.4959,68283642.9317,4675.8846814,4666.88651601,0.0
1.03447011918,1.00476100852,1.01167702486e-05,-56105292.6548,1.37289143746e-05,0.0,5847207.582,678.099624539,646.515568143,67030624.7886,1672.10031268,40460154.2734,70903142.5079,4294.08546472,4285.55204616,0.0
1.06713764522,0.781071994535,9.98860175392e-06,-34844770.6108,1.71758602924e-05,0.0,5793800.47963,679.771971574,648.605198499,66912301.599,1716.77883661,34711361.8585,70042264.6168,4429.68836531,4421.21483923,0.0
1.12199839,0.954923612218,9.71025592626e-06,-14545039.8716,1.89171976797e-05,0.0,5654483.71165,683.120299084,652.130823001,66535627.6887,1787.92330146,41595282.0384,69062226.4667,4657.41531689,4647.97468719,0.0
1.23553858131,0.965142587706,9.84593657863e-06,16322199.135,2.70461162354e-05,0.0,17829276.5095,689.932576367,659.260677897,65123692.7332,1924.7237344,61218928.3978,66853913.5354,5128.72065102,5116.97591993,0.0
0.966629912384,1.16532930454,1.01371260602e-05,-94108856.6398,1.23126972165e-05,0.0,6039728.9744,683.434132645,642.197322062,67510468.3424,1613.95735259,69127611.1103,69355724.6577,4012.48076631,4005.73045868,0.0
1.17229302352,0.982622836488,1.00139015242e-05,1501617.25474,2.18450280528e-05,0.0,5439537.4514,686.053289236,655.380030694,65867587.703,1849.53898353,50712977.3626,67383751.9043,4866.18834063,4855.51489487,0.0
1.08491037219,1.17232924148,9.66465553386e-06,-28534041.2738,1.36174606826e-05,0.0,5790439.10872,680.996666941,649.848865757,66921734.9406,1740.29130259,35836851.0799,69468725.2104,4503.46295496,4494.80689189,0.0
0.950033665414,0.872488491376,9.79968263011e-06,-93419368.6326,1.4844786869e-05,0.0,6058199.80529,686.866829392,641.125406633,67525816.3269,1612.88114858,68520676.0861,68738595.4959,3943.58974513,3936.76068294,0.0
1.12097922814,0.614983698932,1.04700904651e-05,-13633218.9848,2.5413007142e-05,0.0,5566384.93518,682.830809451,652.068125918,66250743.7107,1786.36529953,41961455.9343,67720602.2666,4653.18477601,4643.56120221,0.0
1.08024565624,0.899256793466,1.01035318712e-05,-30170106.5373,1.69716683854e-05,0.0,5776048.92457,680.535294269,649.549770953,66883171.1432,1735.19337979,35320862.0777,69256644.9726,4484.09971905,4475.80702943,0.0
1.195819201,1.20609313509,9.82255697369e-06,6405056.22007,1.96209937088e-05,0.0,7960881.53393,687.55740691,656.855025647,65544942.951,1876.34654948,53525463.4337,66723722.2096,4963.84550335,4952.1180636,0.0
0.986305938952,0.904209518862,1.03163700185e-05,-94923827.5774,1.43000153783e-05,0.0,5925902.6468,679.523839173,643.447684792,67178140.8303,1609.5027702,69845336.4379,70086159.8155,4094.15595259,4086.14848992,0.0
0.976545643957,0.896228582469,9.59397685575e-06,-94743076.2099,1.45956684846e-05,0.0,6027583.28184,683.034065818,642.840016006,67469960.0935,1618.07305235,69685852.3435,69921776.6301,4053.64096807,4046.71902198,0.0
1.07129350251,0.920741559236,9.5651476537e-06,-34822031.0058,1.55753625973e-05,0.0,5819671.42853,680.255196357,648.877676989,66991263.4983,1722.84882785,34754853.7247,70209623.6041,4446.93932892,4438.59131279,0.0
1.04765681573,0.749595141067,9.78122402522e-06,-47338160.7096,1.64864988488e-05,0.0,5817079.76123,679.008986079,647.355209423,66948721.4643,1689.64861486,36559770.9843,70522298.4888,4348.8234421,4340.13405298,0.0
1.20324673326,0.93571945689,1.02338420865e-05,9075117.142,2.54041434224e-05,0.0,10441847.3738,687.911857148,657.266881247,65257059.6919,1885.01879527,55203967.279,66699470.8808,4994.67718976,4982.79989749,0.0
1.12766775197,1.05389576286,9.91631659255e-06,-13143618.0539,1.86559842424e-05,0.0,5660033.15368,683.286531125,652.531395942,66567021.2986,1796.37217587,42561464.5902,68240946.7889,4680.94883843,4671.93145895,0.0
1.10825872485,0.94195175955,1.02263985823e-05,-16710541.3733,1.80547867332e-05,0.0,5668789.75896,681.972789801,651.298761839,66555965.3989,1769.3991099,40466661.2012,69095446.1279,4600.38196685,4591.08874664,0.0
1.04451907488,1.0375411306,1.00730266667e-05,-49053383.7438,1.3759317042e-05,0.0,5830196.3268,678.561460618,647.159852283,66995007.6605,1685.60595755,37138570.8547,71061946.4135,4335.79867983,4327.19182615,0.0
1.15573657323,1.10246925132,1.04874489067e-05,-3008365.56743,1.91639170553e-05,0.0,5460612.39397,684.748027662,654.339662162,65922617.4185,1827.74032852,47789030.2173,67793701.1866,4797.46251548,4786.67767316,0.0
1.01705662091,0.873799557394,9.76132286611e-06,-77613214.7566,1.44576371061e-05,0.0,5947459.82987,677.984951959,645.432376344,67305393.8742,1651.42848807,55282775.6685,70958483.0259,4221.8020334,4214.65186769,0.0
1.13597463147,1.08986294871,1.02353576085e-05,-10742163.988,1.9145406291e-05,0.0,5621056.62991,683.61075659,653.081455066,66449069.8018,1807.02449474,43892194.1029,67907281.8933,4715.43069523,4706.28027995,0.0
1.21404668879,0.953792247337,1.00813110267e-05,11703782.2374,2.56683140994e-05,0.0,12981647.0051,688.626886601,657.960608952,65218860.3275,1898.58643727,57336306.6847,66269069.9823,5039.50780517,5027.74292767,0.0
1.05197505131,0.815537426437,9.8906068044e-06,-45686729.5176,1.61458735306e-05,0.0,5798648.8788,679.149050067,647.628777207,66904900.1825,1695.20785899,36006812.1582,70497358.0295,4366.74843799,4357.84227589,0.0
1.16143043114,0.826485448654,9.73720066273e-06,-4188226.82369,2.51997276701e-05,0.0,5523711.02748,685.713564308,654.742864143,66160504.5691,1839.43916044,47710553.2804,68442532.1519,4821.09771966,4811.39024136,0.0
1.22577616323,0.717595076,9.73413757483e-06,13933575.177,3.20149938205e-05,0.0,15295891.3056,689.856814278,658.72509954,64928147.9926,1912.53073209,59125987.5772,66366254.0938,5088.19685357,5075.95154237,0.0
1.04811015784,0.881875848984,1.01518261447e-05,-46852701.2823,1.54025770431e-05,0.0,5808928.44059,678.724475541,647.379813607,66939634.684,1690.49104455,36338602.6792,70228583.8213,4350.70526519,4342.04025577,0.0
1.19415561414,0.950755656644,9.90170108413e-06,6289623.60424,2.3927270236e-05,0.0,7834566.03476,687.584594813,656.744260123,65453260.5992,1874.64260983,53375719.0591,66636110.2468,4956.9399543,4945.24334548,0.0
1.0256329592,0.992843407661,9.51250250693e-06,-69716156.6721,1.36214375547e-05,0.0,5940785.52743,678.329827701,645.980777792,67304435.7164,1662.75165419,49283125.6055,71073961.7879,4257.40241364,4250.13017784,0.0
1.09386234206,0.839316639531,9.77561261168e-06,-25211329.1133,1.8221122967e-05,0.0,5743054.50858,681.510352681,650.363780446,66784327.3248,1752.62883798,36515745.0981,69289127.5106,4540.62258189,4531.9234298,0.0
1.09389491736,0.897122863421,1.00160839726e-05,-24700168.3582,1.77594006019e-05,0.0,5734552.76679,681.322765536,650.370429875,66763254.4365,1752.47154968,36582298.4707,69098637.2968,4540.75780196,4532.05732487,0.0
0.982854294578,1.09906860376,1.01936150643e-05,-94846609.2153,1.26865701845e-05,0.0,5951716.15659,680.288970404,643.228226856,67245217.3981,1609.92621799,69777170.3125,70017065.8492,4079.82817679,4071.87574012,0.0
1.05775963304,1.00526788936,9.98923146036e-06,-40071814.5402,1.41470146831e-05,0.0,5830611.8577,679.17115151,647.980239319,67008658.035,1704.40420831,34880005.3488,69715061.9355,4390.76023675,4382.4327499,0.0
1.13957326725,0.996420500882,1.01356811301e-05,-9602685.31844,2.03927094772e-05,0.0,5572255.9231,683.961834714,653.277090529,66300976.197,1810.31076301,44600850.7783,68045563.4336,4730.36863235,4720.61153256,0.0
1.0229455278,0.999076296058,1.02111250674e-05,-67143627.0185,1.37420598125e-05,0.0,5863617.79323,677.668838433,645.786556209,67063573.7647,1656.59270538,47392170.9655,70886398.6165,4246.2468859,4237.899476,0.0
1.07574682862,0.778052212334,9.64773650576e-06,-32603870.7487,1.76068608259e-05,0.0,5795883.09466,680.439695725,649.109160398,66927936.537,1728.78192453,34998426.9387,69850732.2773,4465.4250856,4457.00827458,0.0
1.02099080192,0.874231567859,9.96352859917e-06,-71124730.8686,1.44926331666e-05,0.0,5929211.0541,677.809426854,645.68014267,67265125.257,1656.73395224,50296997.031,70845643.2663,4238.13281877,4230.92676584,0.0
0.992945496006,0.568205125965,9.66158484238e-06,-95323775.7852,1.81054311014e-05,0.0,5963694.06635,680.654207856,643.892527009,67302120.957,1621.13811207,70197257.5409,70441997.92,4121.71675392,4114.56185839,0.0
1.13412118928,1.22144724552,1.00683904323e-05,-11243774.269,1.66454174809e-05,0.0,5615883.00394,683.577156781,652.95290585,66428169.9967,1803.23790476,43642653.7306,67682233.3134,4707.7370567,4698.09629087,0.0
1.23511640035,0.784275599068,1.00794537528e-05,16457694.7334,3.16443103785e-05,0.0,18039008.5132,690.074268091,659.289513222,64908677.4231,1923.81339369,61244633.7331,66720456.6557,5126.96817785,5115.03722664,0.0
1.22091112455,0.850790325895,9.99302644947e-06,13088670.9795,2.83336192529e-05,0.0,14310337.3792,689.245150026,658.411288816,65044517.7607,1906.36191328,58411148.1633,66363335.9799,5068.00207801,5055.91008194,0.0
1.04579789096,0.995179480533,1.00383462579e-05,-48591332.9927,1.42351337349e-05,0.0,5825525.58371,678.667688416,647.241277743,66982904.9833,1687.32440783,37044401.7578,70873834.3373,4341.10704537,4332.47950006,0.0
1.07997964796,1.04698506703,1.051736426e-05,-28132082.4244,1.53832477494e-05,0.0,5766894.16599,680.157668211,649.533310343,66838193.2569,1734.45552138,35672799.5155,69162253.2249,4482.99551868,4474.60970872,0.0
1.10601451824,0.795185212983,1.01562710437e-05,-20553155.128,2.03586759371e-05,0.0,5683576.42121,682.045019736,651.188487249,66616477.3773,1768.33637965,38134835.4757,68695298.6359,4591.06626521,4582.17576939,0.0
1.0935887419,0.783190132012,1.03642114601e-05,-23969952.7773,1.96598098489e-05,0.0,5717365.19064,681.142364789,650.376927021,66706000.5526,1752.48707928,36781997.5831,68876266.9414,4539.48686763,4530.89069736,0.0
1.17650960698,1.11960644642,1.00616574478e-05,2940330.45141,1.97472993467e-05,0.0,5421144.11561,686.186475502,655.621872886,65803251.7174,1853.64961933,51565430.4617,67050512.0459,4883.69137857,4872.72770386,0.0
1.07111453019,0.812336394066,9.81001411314e-06,-34012146.9527,1.6948887772e-05,0.0,5803800.70912,680.098845355,648.857715328,66946196.1971,1722.68063007,34781240.5691,70005435.8598,4446.19641482,4437.8511586,0.0
1.24256117353,0.956915783512,1.01433808235e-05,18304680.8201,2.86870399601e-05,0.0,19938538.7625,690.381222757,659.756045701,64884226.0449,1931.73372707,62727128.3121,66748585.2422,5157.87143132,5145.83242843,0.0
1.12808922692,1.04144931023,9.60665278269e-06,-13363024.4198,1.82176669607e-05,0.0,5649494.2303,683.536785373,652.536725643,66532639.647,1795.86053561,42329480.404,68384778.1051,4682.69838094,4673.23490165,0.0
1.12696931825,0.982823951526,1.02075239208e-05,-12569372.0503,1.91034253517e-05,0.0,5596951.80522,683.156881726,652.462672434,66340820.3907,1793.49543117,42760990.9926,67308291.7456,4678.04964006,4668.24297255,0.0
0.978061693503,0.965427039831,1.03878965456e-05,-94748513.2622,1.39637248768e-05,0.0,6008693.94296,680.520212067,642.93645094,67432367.5191,1610.81932785,69690974.458,69926366.1242,4059.93408973,4053.32804407,0.0
1.0474110989,1.01184969473,9.61801293807e-06,-49417731.5711,1.38744135587e-05,0.0,5833831.40684,679.072814594,647.34830271,67007440.3015,1688.92548629,37384063.816,71070196.822,4347.80347153,4338.97263276,0.0
0.946298536369,0.954516145548,1.01908172118e-05,-93238959.4904,1.36925317787e-05,0.0,6075043.99114,686.049146058,640.887880487,67582135.0636,1607.66381842,68361825.9114,68579292.613,3928.08522447,3921.61907601,0.0
1.07041123544,0.964849981836,9.80420042853e-06,-34980130.2787,1.51235115567e-05,0.0,5804233.29688,680.027465129,648.816788877,66947543.4876,1721.110161,34754906.9449,70048091.8042,4443.27703831,4434.75336585,0.0
1.20512133034,0.851113638406,1.01591404176e-05,9976565.1467,2.73172091665e-05,0.0,11302229.3396,688.106343209,657.361106811,65203002.5776,1887.28059125,55889612.7333,66817026.5812,5002.45864224,4990.55934476,0.0
1.0724083856,0.983411911505,9.62558715778e-06,-34138149.5929,1.50121519324e-05,0.0,5818345.21783,680.239681722,648.941639174,66990788.3728,1724.25874882,34814730.7458,70122351.2229,4451.56720863,4443.2019916,0.0
1.22462967865,0.858064284119,1.00766855946e-05,13866067.7999,2.87427300519e-05,0.0,15232635.3624,689.438884284,658.649918111,64979891.5491,1910.59324767,59124304.3775,66425350.2758,5083.43779608,5071.27625515,0.0
1.02251409919,0.900637680842,1.01835669404e-05,-67787588.9097,1.45429774175e-05,0.0,5860240.35199,677.719005692,645.754922073,67051549.9959,1656.06378599,47843748.1158,70831820.6877,4244.45602574,4236.11553494,0.0
1.12740519311,0.775232758484,9.77481213674e-06,-12893465.8762,2.21443567423e-05,0.0,5614211.10412,683.543051936,652.499880794,66422096.8593,1795.02918349,42510813.3021,68059943.0827,4679.8589566,4670.33030768,0.0
1.19759184576,0.950500947652,9.91004526184e-06,7641312.56099,2.39995411367e-05,0.0,9086797.63357,687.736377496,656.979773293,65523439.8999,1879.55275203,54335166.1487,66631811.5255,4971.20375175,4959.87793858,0.0
1.02236899831,1.00078962093,1.01526290107e-05,-67205060.8905,1.35683559329e-05,0.0,5917176.82986,677.61345755,645.769570948,67231310.2217,1658.12219336,47464624.8443,70897531.4303,4243.85371198,4236.53859083,0.0
1.22815001551,0.94968609898,1.00479402096e-05,14866263.6205,2.71440931141e-05,0.0,16280767.1167,689.39245739,658.806324638,65184069.6156,1916.05021363,59990034.2304,66725256.467,5098.05071438,5086.47485819,0.0
1.01877435628,1.10278359959,9.97189946019e-06,-73654250.1068,1.24797642363e-05,0.0,5945581.81996,677.711183336,645.541707079,67310485.4762,1653.64713848,52195351.2917,70930155.1618,4228.93235292,4221.75780866,0.0
1.11217464932,0.956976101147,9.61850976285e-06,-19200484.9459,1.76352876877e-05,0.0,5656387.07014,682.742051246,651.561772343,66525590.2239,1774.13440497,39004467.7163,68811961.4652,4616.63696933,4606.77690244,0.0
1.21366377968,0.901125801337,1.02772688916e-05,12221788.9684,2.71019144652e-05,0.0,13471289.1056,688.484401944,657.959102283,65298344.9322,1899.0010077,57730691.8429,66395104.8411,5037.91834945,5026.63646361,0.0
1.17406461903,1.08674924748,1.00958817413e-05,2207805.01375,2.01675841096e-05,0.0,5424916.67118,686.050559928,655.474954632,65814938.7818,1850.79544008,51079500.2316,66794820.7814,4873.54223359,4862.62791509,0.0
1.02045705142,0.882807319231,9.89279123126e-06,-72385671.7421,1.44202809092e-05,0.0,5933895.26349,677.876091743,645.648427876,67275979.2968,1656.00814152,51233806.385,70962150.2196,4235.91722044,4228.71876061,0.0
1.15960544551,0.916759814496,9.87261395845e-06,-3087271.14334,2.17113783649e-05,0.0,5457631.85173,685.489200558,654.595165617,65937476.0269,1833.23441839,48139426.0091,67782547.8751,4813.52220431,4802.65547071,0.0
0.974926430484,1.09897756167,9.9139598055e-06,-94778004.9947,1.26506162649e-05,0.0,6041679.53684,682.048802499,642.737558876,67515154.1803,1613.51382465,69716711.6289,69952408.2387,4046.91961294,4040.27616641,0.0
1.05046967044,1.02303318338,9.75802731916e-06,-45301778.7926,1.36155844075e-05,0.0,5833209.08947,679.030945124,647.532229711,67003397.6711,1693.30718291,35988876.8648,70647967.3297,4360.499602,4351.76416734,0.0
1.08942701137,0.980335749464,1.00906114374e-05,-25868536.2167,1.65287692126e-05,0.0,5749102.68212,680.997964359,650.100124748,66799997.157,1746.51521129,36214558.5306,69227594.4496,4522.2115242,4513.55747521,0.0
0.996475217826,0.873748741002,9.48282426614e-06,-95569302.1976,1.47114551945e-05,0.0,5925893.01228,679.951122321,644.104740631,67178904.972,1619.93522448,70413613.223,70660098.6437,4136.3686292,4128.03737747,0.0
1.17473205165,0.676593212123,9.74456080707e-06,2105300.26531,2.79080631027e-05,0.0,5405147.34557,686.58755536,655.535631824,65776349.3547,1853.12940969,51160662.3908,67042254.641,4876.3127464,4865.5982682,0.0
1.1770067894,1.03701468141,9.95859308141e-06,2513456.7121,2.10460434932e-05,0.0,5407383.1222,686.357992607,655.653601663,65776623.248,1854.44614174,51262832.8556,66989503.6056,4885.7551828,4874.68149737,0.0
1.06713157311,1.01499135761,1.02242023399e-05,-35188824.5502,1.47312336453e-05,0.0,5802700.66731,679.525440972,648.607925089,66938403.9994,1717.13312833,34673881.6789,69907085.9763,4429.66315998,4421.2833515,0.0
1.17011918263,0.9502133552,1.02481036704e-05,1578963.43814,2.24256143236e-05,0.0,5415779.15391,685.807846319,655.232046675,65785134.5862,1846.03245588,50611219.2225,67067878.8464,4857.1647271,4846.32034668,0.0
1.0986169357,1.00967228461,1.01340899547e-05,-22876847.5398,1.69383525046e-05,0.0,5723782.28742,681.531806524,650.73375523,66725649.883,1758.51926055,37188820.0311,68744593.8739,4560.35890009,4551.58515338,0.0
1.28042071802,0.845046556843,9.6824460502e-06,24747725.7407,3.38748731386e-05,0.0,26425776.9116,693.113629143,662.121672425,64273453.5676,1974.84842699,67402963.3436,68337554.6397,5315.0264005,5302.09043144,0.0
1.06783696951,1.07862687906,1.02950827198e-05,-33790239.2267,1.41683962858e-05,0.0,5802894.06391,679.456069253,648.637578346,66941227.374,1717.80969216,34798335.711,69790546.9312,4432.59126044,4424.20074958,0.0
0.991803241046,1.18088553634,9.90297386885e-06,-95331535.1532,1.19177330224e-05,0.0,5943952.82528,679.53003505,643.804994311,67232849.5127,1614.13599365,70204218.9571,70453735.5429,4116.97525358,4108.79980134,0.0
1.13994186902,0.848773573573,9.8016954585e-06,-8974950.17765,2.2334290128e-05,0.0,5581047.04223,684.246654297,653.319744933,66329170.8496,1810.9972707,45255210.2427,68116531.6555,4731.8986983,4722.24409228,0.0
1.13617800981,0.85313300237,9.96302790396e-06,-11823678.8213,2.23773182046e-05,0.0,5519240.98618,684.080516764,653.063919011,66125980.6029,1804.4666072,43295472.6789,67495768.161,4716.27491872,4705.75563887,0.0
1.12595800987,1.0052822355,9.91076982841e-06,-13324184.1866,1.88837595236e-05,0.0,5640446.92905,683.132367953,652.327294266,66494464.8124,1793.14904945,42292562.2349,68231675.8184,4673.85169897,4664.44773761,0.0
1.04624881803,1.05015196367,9.96820957872e-06,-48691584.3697,1.36743679876e-05,0.0,5830865.58596,678.721372171,647.27103918,66999963.3077,1687.86824334,37081227.0297,70927874.309,4342.97884364,4334.34399741,0.0
1.03881209903,0.830755603691,9.84162140639e-06,-55451607.6544,1.55078121137e-05,0.0,5838629.17013,678.595623143,646.796728151,67009919.9153,1678.13576628,40108601.8082,71144739.7521,4312.10902307,4303.59426496,0.0
0.980427632706,0.692895969742,9.97519680493e-06,-94915485.4172,1.61127335143e-05,0.0,6005573.23435,681.257248264,643.090353092,67413800.2192,1614.34793772,69837845.4758,70076679.42,4069.75510336,4063.03441609,0.0
1.08135212938,0.973013377915,9.77745946171e-06,-29850399.2109,1.57782203782e-05,0.0,5788668.67703,680.598435215,649.479442678,66918670.4118,1735.99689991,35615711.4979,69396564.8412,4488.69268906,4480.18895797,0.0
1.2115777038,0.866791219576,1.04660507878e-05,11718250.3751,2.7905117937e-05,0.0,12957672.2035,688.345884284,657.806831984,65115393.0035,1895.13283876,57242343.0895,66142013.8671,5029.25904847,5017.45724156,0.0
1.11012762234,0.913867833117,9.92993470875e-06,-17483119.494,1.85215305614e-05,0.0,5635396.08682,682.38611821,651.410331678,66456829.2284,1770.77534488,39939179.8571,68995798.427,4608.13976033,4598.20999964,0.0
1.15520624086,0.986939551003,9.73710079178e-06,-4876956.39929,2.08724681278e-05,0.0,5512225.71495,685.199121751,654.289509595,66121843.9012,1829.02006521,47415574.7264,68484256.792,4795.26110581,4784.85774721,0.0
1.01821792501,1.23286127839,1.00658256196e-05,-73421905.579,1.15595844378e-05,0.0,5942770.67306,677.575339248,645.503286968,67298410.4727,1652.4651287,52016939.9426,70906343.61,4226.62260672,4219.36711986,0.0
1.23521710859,1.28811617595,9.85946858519e-06,16108817.9303,2.11175202015e-05,0.0,17639683.5245,689.69408761,659.24712043,65249443.7474,1923.85369073,61092150.6732,66960660.3881,5127.38621776,5115.64729881,0.0
1.15802234869,0.773176114019,9.97335201524e-06,-3217644.93858,2.42166027546e-05,0.0,5442598.69146,685.431420017,654.495606508,65893636.4376,1831.48376759,47933096.8822,67683025.2992,4806.95076941,4796.13789762,0.0
0.993302290801,0.868526628777,1.02184062798e-05,-95227375.2092,1.47137951088e-05,0.0,5910763.41629,678.847350988,643.897077548,67141370.7181,1616.22085068,70112623.5161,70368539.944,4123.19780912,4115.0783389,0.0
1.06882762392,1.02526167271,1.00599912447e-05,-33850272.1763,1.45583575038e-05,0.0,5802601.59453,679.708439833,648.709011354,66933446.5729,1718.82265755,34838205.1738,69875896.7551,4436.70346689,4428.20345868,0.0
1.02312856753,0.96418498423,9.67014840618e-06,-71209867.1393,1.38191052425e-05,0.0,5939611.44401,678.125163745,645.819289087,67297393.6955,1659.46214632,50369030.2583,70969313.3818,4247.00668382,4239.77018496,0.0
1.13321903217,0.816888553718,1.01342634115e-05,-11065373.2688,2.24156669858e-05,0.0,5561253.75421,683.604255267,652.805355633,66242145.4145,1801.59186529,43634060.7838,67584258.762,4703.99220254,4694.06127197,0.0
0.961253008319,0.715458087365,1.02514695878e-05,-93786597.3947,1.57813314774e-05,0.0,6026007.66044,683.994595473,641.850556475,67459021.2366,1611.51492274,68844016.972,69068600.9568,3990.16123753,3983.48658768,0.0
1.16150630205,1.11993560295,1.00864842704e-05,-980701.796063,1.87643240156e-05,0.0,5463687.01173,685.297671908,654.702516174,65928515.9195,1834.78500935,49336136.7917,67748419.2343,4821.41265981,4810.53986197,0.0
1.20413279935,0.759413146591,1.02879471833e-05,10329337.6613,2.95909371848e-05,0.0,11621013.7412,688.001416665,657.309919497,65261132.3683,1887.0385294,56145265.557,66870405.6977,4998.3552501,4986.89744722,0.0
1.06857663899,1.06453064332,1.04330286426e-05,-32368814.6274,1.4579415287e-05,0.0,5795832.24035,679.348062957,648.64635731,66913955.1282,1718.70383193,34980897.1781,69572027.2542,4435.66162845,4427.30124213,0.0
0.944188655499,0.749526233986,1.03868925322e-05,-93082173.4962,1.48792411702e-05,0.0,6063677.93821,685.785399374,640.750780638,67545525.7985,1604.839627,68223843.1346,68440032.4954,3919.32710898,3912.89014883,0.0
1.11296973785,1.00619012647,1.03451806472e-05,-16144581.6678,1.79470823359e-05,0.0,5644846.23442,682.143354458,651.545875726,66477558.3803,1775.67821016,40572772.0901,69252739.9754,4619.93738182,4610.44620309,0.0
0.958991481182,0.768910483548,1.03574565597e-05,-93727099.3217,1.51764885711e-05,0.0,6027214.31277,683.911605067,641.703362384,67454479.854,1609.3116224,68791573.9606,69013795.9821,3980.77363839,3974.1010372,0.0
1.13336679992,0.952938108016,9.83389891057e-06,-11302686.5209,2.01777937422e-05,0.0,5604708.11178,683.809396952,652.901592657,66385547.7705,1802.41564966,43622087.638,67592802.5387,4704.60558647,4694.952007,0.0
1.06031822666,1.01146108846,9.84624374418e-06,-39438583.6507,1.41335182422e-05,0.0,5830519.81305,679.429980188,648.163294512,67010300.7566,1707.77476085,34812672.6068,69881175.7141,4401.38095887,4393.01365153,0.0
1.00575085186,0.893322802574,1.0160469726e-05,-88825041.4638,1.45462593611e-05,0.0,5880932.53359,677.819059763,644.687114975,67066193.9719,1632.65721995,64546382.0073,70748052.6695,4174.87178607,4166.4698375,0.0
1.05108657556,0.845400912235,1.05608890392e-05,-40276303.9573,1.56013741296e-05,0.0,5814987.91489,678.412222535,647.547698712,66957084.2633,1695.4963649,34824391.835,69861468.3414,4363.06037515,4354.83811095,0.0
1.08203310624,0.846026382938,9.81947795803e-06,-29417936.2056,1.73100766121e-05,0.0,5772558.52774,680.849096856,649.657195192,66870664.6687,1736.98969349,35645031.3674,69347049.0109,4491.519424,4483.00510821,0.0
1.07103753653,0.999583627599,1.00762877669e-05,-32804045.2219,1.49945884286e-05,0.0,5794351.65631,679.797303944,648.818222204,66913020.6562,1721.75033485,34997591.0064,69690895.899,4445.87681414,4437.34212543,0.0
1.01426444648,0.943866704889,9.88742862139e-06,-79781931.9381,1.38111567403e-05,0.0,5952706.1039,677.798876182,645.241343959,67303568.2849,1647.64118561,57018800.8057,70790811.9961,4210.21171734,4203.1011033,0.0
1.21414054229,1.01215089465,9.88458438884e-06,11402630.0015,2.4367577601e-05,0.0,12704045.5291,688.703095472,657.94961987,65234656.8745,1898.35892973,57139626.9283,66287337.456,5039.89739105,5027.93169237,0.0
1.11444035355,0.895220964961,1.01403928234e-05,-15856475.3213,1.93084276044e-05,0.0,5639713.75794,682.404835253,651.637426209,66476801.6146,1777.42983759,40722506.8534,69357174.3156,4626.04190759,4616.52669372,0.0
1.13630469482,1.09878479447,1.00734928199e-05,-10858869.6727,1.88967065694e-05,0.0,5627326.29652,683.732844378,653.101864499,66461379.6807,1807.44816022,43833561.2546,67897583.901,4716.8007882,4707.62020336,0.0
1.05646427981,0.986370275831,1.04672448907e-05,-38037337.0758,1.45359906367e-05,0.0,5813808.45295,678.7442211,647.910764735,66951391.8913,1702.58509534,34620548.6676,69806113.9254,4385.38322549,4377.07616973,0.0
1.10647833122,1.26568675687,9.85507560142e-06,-17823486.8926,1.37210096403e-05,0.0,5708107.73562,682.024835441,651.211951222,66666948.7611,1766.81415575,39846038.2009,68954991.4799,4592.99155289,4583.52967262,0.0
1.06409870278,1.01792563601,1.037015894e-05,-35149605.3596,1.46879727613e-05,0.0,5805002.8469,679.234018465,648.410643099,66941543.0339,1712.95119333,34651735.3475,69954863.7777,4417.07371524,4408.74116316,0.0
1.10216565641,1.07305639158,9.9910795779e-06,-21956930.6784,1.6158896722e-05,0.0,5727555.74005,681.814981188,650.965383836,66739199.056,1763.24295787,37591489.5013,68560668.9647,4575.08963976,4566.25985268,0.0
1.10845749898,0.715063670083,9.96974375054e-06,-17847790.7404,2.13379213528e-05,0.0,5618791.947,682.38748693,651.309324389,66402902.5977,1768.85903074,39708061.181,68850490.9102,4601.20707827,4591.30699998,0.0
0.995313646864,0.896295473006,1.03409877151e-05,-95285284.7305,1.44698713127e-05,0.0,5902412.83784,678.339500488,644.021878003,67120654.215,1618.93945232,70163659.0945,70550757.678,4131.54694813,4123.39516064,0.0
1.03678664198,0.692867879982,9.89013709133e-06,-56737959.4188,1.6780721086e-05,0.0,5832974.56979,678.52670374,646.667297085,66988821.4288,1675.55680227,40790194.2069,70994396.114,4303.70135086,4295.21781206,0.0
1.14760235901,0.979762599988,9.93569335736e-06,-8009680.09916,2.15164987044e-05,0.0,5587000.76907,684.509499695,653.767155472,66353189.5489,1822.03907301,45497494.5026,68520109.0456,4763.69739225,4754.33665683,0.0
1.08630948559,1.20550836759,1.03832334101e-05,-26382674.3566,1.40064650388e-05,0.0,5765525.25343,680.538591471,649.916478049,66844092.4608,1742.64236272,36079750.1747,69199440.8109,4509.27067468,4500.78728887,0.0
0.969132359945,0.723204080737,9.71853878419e-06,-94342053.9449,1.59170059825e-05,0.0,6018543.09671,683.946148721,642.358040459,67423174.7644,1615.22181595,69332889.5771,69563230.1018,4022.86842613,4015.81341543,0.0
1.16985618809,0.86090421738,9.72966147757e-06,667068.054028,2.33317161219e-05,0.0,5426027.04801,686.185787028,655.23120387,65836525.1028,1845.98230645,50421563.9975,67713146.3948,4856.07303676,4845.12876427,0.0
1.09069777477,1.03387106276,1.00599953095e-05,-25638691.6048,1.59087024582e-05,0.0,5751638.22098,681.053511895,650.172128439,66811683.2784,1748.16651378,36246258.7887,69226418.3841,4527.48646307,4518.83699803,0.0
1.18462216055,0.870466489762,1.04229938623e-05,5645223.06489,2.52929442608e-05,0.0,7154798.94443,686.664340869,656.117281311,65487209.4331,1863.2125896,52761059.427,66626163.4149,4917.36658844,4906.16013017,0.0
1.24900406215,1.04454464055,9.82775791103e-06,19150453.8867,2.66791288363e-05,0.0,20774928.295,690.915535875,660.141353608,64783214.7229,1938.39637815,63343906.6798,65218476.4036,5184.61586198,5172.04634083,0.0
0.986218971591,0.962876107511,9.74854539017e-06,-95117790.0958,1.41206964651e-05,0.0,6000151.74156,681.196305838,643.460409538,67406861.6335,1618.57380792,70015994.9848,70256617.8182,4093.79495107,4086.73451285,0.0
1.14761068768,1.14598290725,1.02345524371e-05,-5934513.36212,1.88336073055e-05,0.0,5563169.92645,684.179253443,653.72685758,66259233.0464,1820.17451933,46707013.6477,68783522.6066,4763.73196456,4753.94881636,0.0
1.03901288756,1.0536804917,1.00970660159e-05,-51809541.4404,1.32809440896e-05,0.0,5837749.84004,678.272900571,646.802262,67009994.265,1677.80710885,38293810.5326,70802889.6249,4312.94249626,4304.24822834,0.0
0.979421878401,1.1354442403,1.04077445702e-05,-94599765.0927,1.24935537218e-05,0.0,5965410.39681,680.595382069,643.009081202,67293500.4303,1610.3943731,69559936.3519,69796388.2036,4065.58021724,4058.00157662,0.0
1.11892040618,0.794886254705,1.03288637741e-05,-14530550.0518,2.14043520939e-05,0.0,5603722.28124,682.648936615,651.933606786,66359317.3247,1783.5092234,41463403.6983,68453305.5613,4644.63860605,4635.04936934,0.0
1.0059040541,0.800313339888,1.01353270097e-05,-88884270.2585,1.52873721242e-05,0.0,5876417.76066,677.889217018,644.696610522,67052142.972,1632.91123809,64596953.2128,70754799.7469,4175.50772857,4167.1032761,0.0
1.19174162772,0.946608777718,9.28947276037e-06,4991381.35824,2.29884791249e-05,0.0,6685909.35954,687.735146096,656.564340892,65648234.2939,1872.60492773,53060384.4148,66996600.7263,4946.91949667,4935.36672182,0.0
1.10766596139,1.13047980799,1.01973899776e-05,-18046228.3883,1.57719253343e-05,0.0,5682463.79381,681.906453069,651.269007948,66605434.055,1768.59897753,39742474.0267,68965209.2357,4597.92140573,4588.6182723,0.0
1.16001133979,0.995164550009,1.05441178526e-05,-4069982.31078,2.2991991823e-05,0.0,5409690.87796,685.161013747,654.603713009,65747688.5384,1833.75336366,46930321.1402,67534364.6995,4815.20707147,4804.26135578,0.0
1.08687240625,1.1009129433,1.03723284762e-05,-26208961.3966,1.51471882418e-05,0.0,5758076.78591,680.61134425,649.947199387,66822134.6251,1743.45046221,36106234.1712,69174578.2593,4511.60735834,4503.1152725,0.0
1.05947400496,0.96915870329,9.90177396385e-06,-39593934.9297,1.4569843868e-05,0.0,5824749.08405,679.47765707,648.187720482,66992159.3992,1706.6981471,34819524.3198,69810426.4649,4397.87659459,4389.52243484,0.0
1.02954291172,0.938819947865,1.00926398209e-05,-60619092.7822,1.41775198211e-05,0.0,5854747.44404,677.97154538,646.205924305,67045287.6932,1665.60590612,43080217.0739,70876198.668,4273.63262655,4265.1788038,0.0
1.16319536354,0.831084357627,1.01417732211e-05,-584677.288789,2.38598688433e-05,0.0,5419640.16847,685.571324318,654.805349002,65795674.6669,1837.3797101,49491488.8354,67592179.405,4828.42395405,4817.51943838,0.0
1.06788223288,0.818850267905,9.88711533675e-06,-35711633.2077,1.66564725462e-05,0.0,5798015.90244,679.886961731,648.653074112,66925650.1645,1717.92674465,34666238.0536,70105464.0895,4432.77914868,4424.29366523,0.0
1.01981908626,1.00945461717,9.57584113944e-06,-75052941.4635,1.36585092348e-05,0.0,5891774.69618,678.27395963,645.593236075,67130846.4177,1652.02645664,53294240.7827,71056938.6515,4233.26902707,4224.88820523,0.0
1.08248396512,0.910741313897,1.02092619345e-05,-28007663.2399,1.68328640554e-05,0.0,5759249.55752,680.581391103,649.693971827,66825510.4047,1737.51126468,35735177.0388,69229124.7183,4493.39093921,4484.86961256,0.0
1.1398097329,0.936617973747,1.02498604365e-05,-9374451.80688,2.17537400865e-05,0.0,5589136.46851,683.879841023,653.287010196,66349387.2776,1811.72773886,44624967.925,68083298.8955,4731.35020127,4722.03301463,0.0
1.19763491362,1.09122155219,1.00492943128e-05,7478954.14249,2.17799274448e-05,0.0,9001676.84935,687.603252063,656.964626872,65421458.2242,1878.26452584,54123681.8862,66554651.2776,4971.38252644,4959.60967692,0.0
0.94420470318,1.01007579297,1.02935457373e-05,-92912678.4347,1.37427785926e-05,0.0,6022850.78587,686.468931474,640.737586986,67416160.4911,1606.252487,68074886.0449,68288588.6398,3919.3937229,3912.04570706,0.0
1.14433724231,0.961141234603,9.86712615484e-06,-8716181.46478,2.08994568759e-05,0.0,5547913.07478,684.320832164,653.458214793,66213043.9782,1815.69500285,45158078.3349,68334497.0863,4750.14389283,4739.99935559,0.0
1.20943066436,1.26414396767,1.00491435627e-05,10645195.3324,1.99240858575e-05,0.0,11939698.7176,688.102085044,657.630905457,65384262.9944,1892.33700412,56510651.8254,66740221.4104,5020.34668776,5008.55679992,0.0
1.19583960059,0.82167196437,1.01370683961e-05,8394655.03666,2.7050711132e-05,0.0,9820933.77248,687.559243405,656.863778813,65461517.7938,1877.63610373,54800575.5234,66607497.6267,4963.93018205,4952.83301394,0.0
1.05613124699,1.03509055582,1.0129096209e-05,-42054411.6375,1.43584728365e-05,0.0,5800927.8857,679.035714991,647.864960097,66918885.2478,1700.93401789,35069216.181,69732018.5749,4384.00080626,4375.20522253,0.0
1.06521546168,1.09108781852,1.01221568341e-05,-36062698.0822,1.36585892299e-05,0.0,5813085.60175,679.4554061,648.479209601,66959974.6652,1714.22539275,34653131.9444,70116305.6243,4421.70938143,4413.26563959,0.0
0.986298238323,0.80787395055,1.0002184955e-05,-95001925.9069,1.50203426609e-05,0.0,5929879.99275,680.252685759,643.448308365,67186459.1328,1611.38100798,69914074.0078,70157355.0425,4094.12398728,4086.03751995,0.0
1.11651868556,1.02968454593,9.85572450078e-06,-16015712.4666,1.76275012735e-05,0.0,5676965.96711,682.646912334,651.785406288,66604911.8978,1780.98776995,40818238.4599,69442511.2574,4634.66906376,4625.41960552,0.0
0.963234855742,1.01515441126,9.6132993344e-06,-94178065.2345,1.35550801955e-05,0.0,6051366.9565,684.924796417,641.979313644,67512639.0501,1614.60554728,69188479.4341,69416003.7117,3998.38788618,3991.41868753,0.0
1.00468661545,1.00009639809,1.00582721579e-05,-90783434.5114,1.36682395974e-05,0.0,5893692.50968,677.998908233,644.622034061,67102100.5334,1631.14425893,66215076.6027,70731238.5147,4170.45414073,4162.06957755,0.0
1.20235482021,0.96483546076,1.00280130271e-05,9384397.1686,2.43749456808e-05,0.0,10758672.5378,687.924769763,657.235826037,65370038.2055,1884.32376093,55524193.673,66818604.5086,4990.97485869,4979.34327837,0.0
1.15383098349,0.892387663132,1.03735942957e-05,-2209917.75536,2.21969735301e-05,0.0,5490616.49618,684.745395585,654.235080818,65999986.2342,1826.74225305,48665037.0318,67935974.6802,4789.55241247,4779.32154945,0.0
1.06557257925,1.17183863433,9.71786355363e-06,-37534281.1084,1.27709188136e-05,0.0,5832337.18741,679.747866173,648.502287787,67023955.6895,1714.62406198,34721077.6341,70232096.0209,4423.19177647,4414.74244972,0.0
1.2446307259,1.04953227085,9.6489669236e-06,18017970.8939,2.57865804003e-05,0.0,19651742.1317,690.730552846,659.882905994,64883496.3089,1933.69772147,62475999.509,67135862.1974,5166.46214321,5153.97184796,0.0
1.22319257905,1.16221778421,1.02846094244e-05,13792517.0852,2.28072125826e-05,0.0,15075151.3258,688.962769302,658.563636657,65153147.6972,1908.59349742,59095105.2409,66598666.7943,5077.47239564,5065.56262768,0.0
1.07051581586,0.818432852477,1.0161945633e-05,-32667809.2127,1.70608498602e-05,0.0,5780361.91889,679.779007123,648.78091364,66870317.5481,1721.20289454,34983688.7627,69605414.9357,4443.71115163,4435.18465558,0.0
1.06342766368,1.09216061142,9.57655703039e-06,-38363266.1663,1.32320238459e-05,0.0,5803669.09334,679.777984986,648.350511384,66920701.7313,1709.60453081,34862305.4194,69935528.3793,4414.28823194,4405.14089671,0.0
1.20656703989,0.818089305326,1.00320308373e-05,10263326.7691,2.80447331672e-05,0.0,11592852.9805,688.294727179,657.451781532,65186360.902,1889.11974419,56170737.5945,66885504.3467,5008.45978258,4996.53382685,0.0
1.10284453423,1.01982070826,9.65944936984e-06,-22427783.0057,1.66403659476e-05,0.0,5730146.25982,682.105618745,651.006593018,66750719.0189,1763.87111699,37442065.9227,68831374.5415,4577.90766159,4568.96615913,0.0
1.01505842636,0.754908842968,1.0185942661e-05,-78523310.8818,1.58373473854e-05,0.0,5849095.2213,677.70864396,645.281453641,66992722.7466,1645.18762564,55984252.0347,70574252.3953,4213.50752782,4204.95291491,0.0
1.13924244605,0.756162737686,1.03058775178e-05,-9136173.08315,2.437626042e-05,0.0,5523057.24931,683.85730086,653.143513545,66138020.6511,1809.2990431,44640340.0078,68025896.7653,4728.99539355,4718.96202082,0.0
1.1387000079,1.09237069172,1.0279282873e-05,-9924365.5659,1.93768076896e-05,0.0,5610379.79797,683.724189115,653.23061138,66420669.1357,1810.48561311,44321286.6958,68055571.1026,4726.74373279,4717.55007496,0.0
1.26896998894,0.825916715752,9.87308467299e-06,23070193.0053,3.46894264106e-05,0.0,25082328.7198,692.415285003,661.435079241,64381648.4621,1961.89299792,66313614.8356,67336141.5107,5267.49442409,5254.74064102,0.0
1.13860009018,0.731940766434,9.77624476768e-06,-9307939.55641,2.42344359266e-05,0.0,5574895.15918,684.263064528,653.242417674,66308721.166,1809.43175574,45000385.5828,67972840.9531,4726.32897434,4716.6965158,0.0
1.09182680503,1.0245919859,1.00561058018e-05,-25316057.8604,1.61151138345e-05,0.0,5747995.41873,681.112864877,650.232224162,66802168.1465,1749.65387331,36424971.1929,69176761.3309,4532.17306768,4523.50592819,0.0
0.998852682553,0.943004003779,1.04706816214e-05,-95607388.715,1.41195683212e-05,0.0,5890579.21436,677.744147633,644.246489238,67091734.6743,1623.67915035,70446001.1621,70446001.1621,4146.23748528,4138.02891148,0.0
1.10172434639,0.958013980716,1.02646049269e-05,-21554558.2264,1.79427486867e-05,0.0,5705246.51285,681.650957981,650.9300686,66676903.1502,1762.60993744,37674167.0334,68555109.1752,4573.25776186,4564.43441175,0.0
1.08375781469,0.917273822975,1.00244435236e-05,-28149042.2814,1.67241518458e-05,0.0,5764110.58918,680.788718729,649.778562885,66839162.3974,1739.18933144,35798556.4012,69292313.4558,4498.67868878,4490.13754097,0.0
1.13683861974,0.904732534509,9.68263798462e-06,-10790962.1676,2.10026998801e-05,0.0,5603514.22238,684.135909437,653.130962911,66390934.7099,1807.26577646,43972342.4684,67766685.0858,4719.01711054,4709.41052805,0.0
1.12695678751,1.13917502919,9.88519458313e-06,-13146361.1187,1.7033966582e-05,0.0,5647314.75133,683.249805207,652.473444186,66516521.9147,1794.32510864,42382415.3511,68150381.1999,4677.99762495,4668.57829672,0.0
1.10129381335,1.14519742547,9.8164888731e-06,-22721668.7574,1.51098992079e-05,0.0,5742486.32561,681.846900859,650.902865246,66794640.3031,1762.06466403,37308956.3234,68923382.5681,4571.47061922,4562.65458606,0.0
1.19583591706,0.625576901262,9.97351734582e-06,7658095.93306,3.22664343185e-05,0.0,9115117.56053,687.913308122,656.869687441,65352656.716,1877.97781073,54292585.2178,66437654.4159,4963.91489172,4952.60694777,0.0
1.06697947482,0.649382822162,9.64978609937e-06,-36376349.8524,1.861207293e-05,0.0,5809596.09301,680.066463831,648.598460339,66953391.3519,1717.35928522,34660724.8088,70313443.3389,4429.03179998,4420.75020517,0.0
1.02605385775,1.06273901011,1.00142553908e-05,-64195848.698,1.29581456023e-05,0.0,5923291.70586,677.806073147,645.9956617,67259913.4342,1663.37626909,45410862.9851,70866025.2965,4259.14956352,4251.87131426,0.0
1.05273385702,1.16231981753,1.02556956558e-05,-43842702.7551,1.28410453624e-05,0.0,5809766.66353,678.735296811,647.660901056,66948965.907,1696.26349535,35475579.1216,70309516.3897,4369.89824049,4361.06839425,0.0
1.24224057799,0.779407839733,9.96318599891e-06,17801285.6396,3.25525963293e-05,0.0,19403951.9528,690.696673272,659.732337366,64692349.7244,1931.18406502,62248348.4866,66875283.0102,5156.54063924,5144.04311087,0.0
1.16032486885,0.971983476008,1.05834741968e-05,-1237080.06224,2.17006067788e-05,0.0,5438626.05467,685.031415652,654.629712061,65854923.9909,1834.0338803,48755617.9064,67425243.7258,4816.5085306,4805.84709228,0.0
1.10226997888,1.08564175053,1.00037843843e-05,-21856881.9723,1.60193617322e-05,0.0,5727504.51572,681.807660388,650.971704418,66739806.8861,1763.36427465,37571382.6165,68573819.4878,4575.52268233,4566.69124891,0.0
1.15604485382,1.03836217686,1.0010772476e-05,-5520411.03543,2.13286285627e-05,0.0,5562018.16997,684.883591463,654.267199085,66288334.6064,1832.61788038,46913898.0322,68590518.2882,4798.74218821,4789.24414137,0.0
1.04827385986,0.768469328053,1.01109552949e-05,-47011712.4149,1.65582333741e-05,0.0,5802785.5976,678.808635295,647.390169757,66919693.9824,1690.78803197,36427268.6779,70209116.7769,4351.38479228,4342.71712802,0.0
0.997929758971,0.935867872813,1.00729308611e-05,-95500268.4273,1.41418055266e-05,0.0,5906026.32045,678.533603091,644.191846529,67129954.1862,1622.1841792,70352959.9603,70736845.0876,4142.40642949,4134.13170635,0.0
0.940468615284,0.660439008774,9.92382481309e-06,-93102633.6597,1.60351467999e-05,0.0,6102087.10651,687.503549799,640.518578594,67652672.9728,1608.81361047,68241720.4053,68456521.9323,3903.88522204,3897.78030606,0.0
1.0598350203,0.875619783643,1.01997319754e-05,-38189359.5014,1.56677183988e-05,0.0,5809641.29557,679.185269723,648.128763682,66954059.7188,1707.28851717,34658338.1813,69882920.0943,4399.37516927,4391.01538823,0.0
1.08221516137,1.04485531841,1.03976617901e-05,-27711494.0125,1.54930338664e-05,0.0,5765892.07209,680.375141956,649.672814015,66839093.8263,1737.39456038,35790429.7082,69193323.2369,4492.27513485,4483.85491702,0.0
1.11229953774,0.821555462052,9.73522983761e-06,-19390130.5575,2.0068523514e-05,0.0,5681959.29717,682.677340932,651.575897841,66621989.8885,1776.25763984,38917174.9394,68956330.0714,4617.15538116,4608.06263143,0.0
1.08670204331,0.950880596056,1.01782830008e-05,-26612242.8217,1.6751351035e-05,0.0,5755226.71865,680.81878946,649.951905021,66819691.3982,1743.25405311,36050306.5247,69241941.1325,4510.90018178,4502.36181249,0.0
1.01794767357,1.08222073309,1.03424116581e-05,-72773344.2547,1.27834668163e-05,0.0,5927466.51675,677.340225244,645.481968519,67258505.2566,1652.40574179,51511626.0146,70776366.3545,4225.50079299,4218.33826606,0.0
1.13493424035,0.879050540927,9.54354316396e-06,-11427322.1076,2.10493911844e-05,0.0,5558454.59657,684.196150044,652.990749468,66250943.8186,1802.82651784,43468458.712,67525731.0219,4711.11203169,4700.72729325,0.0
1.06390689881,0.786329503991,9.76530949933e-06,-38010432.3721,1.67282601325e-05,0.0,5810561.73778,679.775834503,648.395423567,66954386.4598,1712.70346764,34684218.4158,70069643.0826,4416.27753696,4407.85424659,0.0
1.00750224627,1.0290256297,9.74770965471e-06,-89374398.9405,1.30396564673e-05,0.0,5978972.27739,678.068354564,644.826176826,67371440.9606,1638.4466208,65017877.1811,71095889.0376,4182.14182427,4175.12660929,0.0
1.11566241931,1.03098128955,9.43741273996e-06,-16941650.0904,1.69820312945e-05,0.0,5670502.86522,682.956107244,651.767289848,66575379.0797,1778.86994942,40309748.1696,69318378.3978,4631.11470256,4621.38229669,0.0
1.08903934234,0.991616092636,9.66025262314e-06,-27063424.8779,1.58773642586e-05,0.0,5767692.02266,681.301986827,650.107828594,66858147.3237,1745.84443214,36085161.6955,69431830.5544,4520.60231005,4511.88121887,0.0
1.02528355026,1.1255718298,9.97278902774e-06,-65590037.3089,1.23967503908e-05,0.0,5930237.79551,677.804911078,645.94805429,67278353.3057,1662.31256379,46357784.0719,70981312.6831,4255.95201713,4248.68477179,0.0
1.11323703416,1.02833021222,9.82383289909e-06,-18655208.4176,1.74538561998e-05,0.0,5693082.24213,682.55557085,651.625809939,66659032.8468,1777.26064831,39323230.6195,69071012.6151,4621.0469288,4611.93967102,0.0
1.10525966158,0.65751804647,1.0113536126e-05,-20844586.0,2.26839499146e-05,0.0,5674774.84406,682.112605582,651.146217614,66586867.8771,1767.52285589,37991034.8946,68620929.3798,4587.93285522,4579.0543014,0.0
1.05987650277,0.917249411839,1.01000251263e-05,-38578593.2289,1.5200783993e-05,0.0,5815885.51352,679.253075506,648.134015782,66970084.653,1707.30530353,34696195.8257,69888953.9798,4399.547363,4391.18693595,0.0
1.0810672146,0.990667158303,9.8028648856e-06,-29863510.4216,1.55852278086e-05,0.0,5789540.28721,680.556149749,649.4604014,66921291.3586,1735.60797932,35582496.9829,69394745.0204,4487.5100078,4479.01070367,0.0
1.09777243959,1.12268683486,1.01675311891e-05,-23059369.7406,1.54232800302e-05,0.0,5733296.22857,681.402200263,650.673088403,66754025.208,1757.31311487,37101471.4894,68884191.8974,4556.85339674,4548.09293787,0.0
1.0605598196,0.905594855009,9.47743078287e-06,-43160696.9322,1.54709416118e-05,0.0,5798990.25707,679.837468126,648.150572988,66914947.2652,1706.43601545,35391309.1037,70084752.8576,4402.38381116,4393.3338672,0.0
1.13797247741,1.04579130497,9.48456469562e-06,-10012817.5051,1.8723655158e-05,0.0,5621444.1414,684.231540086,653.205967813,66457928.3316,1808.39732892,44574732.8321,67938406.6346,4723.72375373,4714.10009947,0.0
1.13205194594,0.769277124956,1.02379057882e-05,-11129643.241,2.31819202191e-05,0.0,5555339.09486,683.491026134,652.72949552,66224535.3461,1800.13255867,43558776.8843,67520907.3889,4699.1476276,4689.23730314,0.0
1.01303696111,0.924428203878,1.00962263527e-05,-81609977.0189,1.44186803508e-05,0.0,5867061.56817,677.75625987,645.151239702,67034119.8473,1642.34788396,58487696.3732,70697859.6882,4205.11642557,4196.5950628,0.0
1.08069537349,0.779543052165,9.86310862982e-06,-29763280.0193,1.81117533087e-05,0.0,5769762.02046,680.761878946,649.563920118,66860493.0757,1735.27997932,35571353.3233,69320856.7333,4485.96649536,4477.47296739,0.0
1.13926793042,0.80831519595,1.00690351395e-05,-9577982.92017,2.31939346852e-05,0.0,5529638.35164,684.130768353,653.251979017,66144424.2544,1809.02656186,44621502.4539,67970931.911,4729.10117917,4718.94017462,0.0
1.02616977344,1.08199730854,9.9716820716e-06,-64474850.643,1.27870475764e-05,0.0,5925851.34006,677.845719985,646.006132137,67267348.0538,1663.51622537,45604778.6742,70883256.8178,4259.63072955,4252.35082381,0.0
1.07401902566,0.857412291382,1.00227928224e-05,-31622358.1049,1.67575263001e-05,0.0,5779241.99673,680.034514105,648.983250835,66871894.9508,1725.77586722,35152558.9643,69533366.7273,4458.25297551,4449.67288764,0.0
1.22330580326,1.0399053304,9.83156712678e-06,13265996.1875,2.446659885e-05,0.0,14542497.0918,689.334024016,658.565908958,65130967.9204,1908.99416348,58651713.7524,66488456.6415,5077.94238933,5065.77790646,0.0
1.21081780139,1.15070346497,1.03182962165e-05,11206267.8499,2.20717062168e-05,0.0,12456619.3563,688.138153362,657.743374051,65277797.7474,1893.92620045,56914621.8698,66291004.5998,5026.10469357,5014.31689891,0.0
1.18298884535,0.735617365294,1.03406608734e-05,5231511.82867,2.84536694676e-05,0.0,6802239.31997,686.654059635,656.017127211,65593576.9934,1862.89550818,52688544.4513,66843682.4425,4910.58669705,4899.91889381,0.0
1.0820079315,1.17873171357,9.59500857251e-06,-30201481.0512,1.34045622141e-05,0.0,5808034.01028,680.677383059,649.521162333,66975974.1241,1736.69277771,35559060.3328,69483047.5766,4491.41492366,4482.90099926,0.0
1.02670255433,0.772499751956,9.73438272877e-06,-66125227.2688,1.55713608301e-05,0.0,5918730.01308,678.191304704,646.036622391,67242877.3769,1664.34770422,46719300.5318,71016405.4007,4261.84230302,4254.55478157,0.0
1.19498702408,0.780320302658,1.04979231013e-05,8088317.39558,2.84827258834e-05,0.0,9468044.74851,687.349697689,656.793752883,65366303.6474,1876.34184691,54341309.3009,66435169.8366,4960.39113696,4949.20717293,0.0
1.01750868966,0.735248124422,9.99715637431e-06,-74818256.3845,1.55325228654e-05,0.0,5930211.04273,677.777658483,645.45698017,67257722.8647,1652.15145732,53084482.4966,70790551.5005,4223.67857078,4216.52199263,0.0
1.08359563448,1.0408997919,1.00210126144e-05,-28241404.03,1.52751055097e-05,0.0,5773220.33429,680.729823609,649.769218703,66867089.4333,1738.8762106,35782904.1799,69321793.9932,4498.00547873,4489.4668555,0.0
1.1057490413,0.925033075541,1.03079737351e-05,-17998684.1286,1.82158165275e-05,0.0,5662951.19616,681.826380522,651.146387437,66537361.4215,1766.10893952,39630926.4885,68837971.4893,4589.96427044,4580.59456361,0.0
1.16918424525,0.680030818947,1.02127044643e-05,1428533.05418,2.79270446376e-05,0.0,5383551.72874,685.992324682,655.179589718,65682998.815,1845.37233598,50520715.9917,67341153.7139,4853.28380203,4842.45596883,0.0
1.08567618952,0.833203625716,1.03419173964e-05,-26638268.4715,1.82468893107e-05,0.0,5744763.6307,680.68886697,649.88407985,66777516.9534,1742.10268245,36037372.3969,69145063.7077,4506.6418627,4498.16826019,0.0
1.02874502892,1.09289488932,1.01347936303e-05,-61213443.1641,1.27385535025e-05,0.0,5864589.16583,677.845018093,646.154835411,67074301.8284,1664.43719529,43428184.6273,70933823.6707,4270.32061505,4261.87965317,0.0
1.24216936505,1.08609118722,9.88218153521e-06,17530436.7544,2.51671408444e-05,0.0,19062746.3062,690.446619505,659.734514182,64874410.8236,1930.52647738,62099053.0769,67031012.5875,5156.24503432,5143.74871723,0.0
1.0878123722,1.08877155326,9.67014729783e-06,-27476999.6955,1.46493521577e-05,0.0,5777428.69497,681.184312139,650.033555976,66885831.3286,1744.16203987,36007503.6809,69452010.1083,4515.509157,4506.80741039,0.0
1.16199761091,0.828698857013,9.88441015247e-06,-2410861.4742,2.34893445231e-05,0.0,5436437.45829,685.689947264,654.741425438,65874465.948,1836.32354607,48433047.2457,67692036.0304,4823.45208289,4812.54259031,0.0
0.969549099824,0.998139249039,9.96223226077e-06,-94342697.6254,1.37239949363e-05,0.0,6015665.19434,683.09540062,642.382135972,67419455.5874,1612.4946561,69333464.0398,69563684.5662,4024.59831337,4017.45525486,0.0
1.11560408516,0.683248843593,1.01258371738e-05,-15519758.6977,2.28856547441e-05,0.0,5613669.78488,682.623065571,651.709178269,66398428.2016,1779.20302789,40932735.5629,69181868.9034,4630.8725575,4621.33799872,0.0
1.03843061491,0.9184214286,9.60842629268e-06,-55367818.943,1.46840152142e-05,0.0,5838256.66616,678.739729659,646.772891754,67005316.4887,1676.4639884,40016269.3534,71115988.6406,4310.52548249,4301.66790897,0.0
1.12777248414,0.933971203782,1.01959631739e-05,-12330027.5504,2.01532577979e-05,0.0,5589059.26359,683.129912275,652.437706865,66321559.3965,1794.48430595,42908567.6998,67235513.4236,4681.38358167,4671.54572349,0.0
1.18036723117,1.12384255191,9.84654313236e-06,3049617.96505,1.97222584801e-05,0.0,5411121.22835,686.571601749,655.86214088,65790975.1617,1858.56499444,51634727.5788,67051676.9742,4899.70437659,4888.58363258,0.0
0.998856325345,0.93851124171,1.04392290775e-05,-95619111.1174,1.41693314622e-05,0.0,5891491.68835,677.811310534,644.248890332,67094369.2343,1623.67861643,70456182.5047,70465119.4762,4146.25260651,4138.04397397,0.0
1.08714105891,0.828694318231,1.02031277112e-05,-26394959.5495,1.82164140073e-05,0.0,5740792.60676,680.866320395,649.970176837,66775538.2484,1743.6741729,36060238.4065,69177065.3313,4512.72253554,4504.1286527,0.0
1.08107944529,0.893092250973,1.0093638595e-05,-28891514.58,1.68584586785e-05,0.0,5766942.3592,680.593670256,649.605775628,66844554.4573,1735.69500378,35646216.126,69270417.5605,4487.5607774,4479.06128324,0.0
1.05804439931,0.855467921914,1.02451340587e-05,-39188676.6338,1.58791240179e-05,0.0,5814592.96468,679.067418222,648.016328336,66958062.3716,1705.2005469,34751184.7384,69712989.0689,4391.94230154,4383.70301302,0.0
1.08037849771,1.14822018105,1.02525552197e-05,-29572793.3303,1.42639362022e-05,0.0,5785471.24626,680.34561543,649.567514877,66900877.0829,1735.17571218,35434167.8575,69264370.6548,4484.65114399,4476.35643042,0.0
1.19548978544,1.13827457927,1.01733184484e-05,8201205.91832,2.09206391786e-05,0.0,9610796.43249,687.284743585,656.844614326,65595971.6828,1876.738522,54688617.3685,66718910.7974,4962.47809936,4951.41448493,0.0
1.08886046986,0.966454338139,9.99151796611e-06,-26509315.6466,1.65422965812e-05,0.0,5754677.95499,681.058166941,650.082597633,66817759.5829,1745.83224424,36147984.7475,69289929.1431,4519.85981039,4511.23907596,0.0
1.06970264116,1.01505100483,9.99419652829e-06,-34545958.0719,1.46321962781e-05,0.0,5802070.4273,679.825540817,648.767736335,66932733.9115,1720.1655032,34770875.0129,69916085.9166,4440.33566346,4431.82163779,0.0
0.991505300188,0.670484445842,9.98429053581e-06,-95193219.2524,1.63113953815e-05,0.0,5911022.08007,679.586210347,643.783759697,67131796.5433,1613.99419937,70082463.6089,70322510.2444,4115.73850108,4107.56786418,0.0
1.04410593018,1.24618695122,1.00622466359e-05,-49365020.9557,1.19538629802e-05,0.0,5843520.052,678.469112277,647.128560557,67036070.9823,1684.92147795,37234328.1758,71085242.5396,4334.08371618,4325.48354301,0.0
1.20982471945,0.989377690054,1.03802019512e-05,11170985.6599,2.50914330764e-05,0.0,12413184.4185,688.158797891,657.678850159,65212532.9246,1892.92719714,56838069.9051,66214908.1696,5021.98241044,5010.21291806,0.0
1.15139270725,0.689427478877,1.0227274111e-05,-4215268.88678,2.56125999995e-05,0.0,5489508.50625,684.657595816,653.951778814,66031592.4309,1824.44004487,47537947.339,67954389.9786,4779.43112779,4769.23598061,0.0
1.22926456496,0.794519413592,9.82218928856e-06,15288150.4799,3.03197984947e-05,0.0,16674039.4871,689.829724821,658.970781039,65123129.1865,1917.66288558,60318764.0826,66721058.3235,5102.67720915,5091.10252817,0.0
1.12317519588,0.932316800461,1.0013803981e-05,-13647974.6774,1.95575229947e-05,0.0,5610482.5701,683.043692684,652.21025678,66393656.5889,1788.4646443,42206435.8082,68119986.6643,4662.3002381,4652.54041348,0.0
1.05406540428,1.07520454142,1.03488207032e-05,-41564413.0858,1.35763345993e-05,0.0,5814968.75461,678.705708909,647.735340757,66955405.0291,1698.88559566,35072583.6863,69895158.4924,4375.42549317,4366.90212107,0.0
1.02978312669,1.018637059,1.02862023554e-05,-60405445.8657,1.36947123019e-05,0.0,5847156.25253,677.78399862,646.216726127,67024262.3642,1665.71123775,42910846.1252,70876558.1669,4274.62975889,4266.17237978,0.0
0.897847233834,1.16295471397,1.00012108522e-05,-91138536.2199,1.13126597704e-05,0.0,6159676.36108,692.470243617,637.755402432,67752213.321,1592.01021113,66513087.0148,67752213.321,3726.96386764,3720.34608122,0.0
1.09742847668,0.925709661808,1.03602858586e-05,-20758120.0278,1.77852080608e-05,0.0,5649284.08063,681.375172401,650.633797304,66483128.359,1753.91176586,38274092.9445,68290108.428,4555.4256067,4545.62168615,0.0
1.09655786449,0.975817782275,9.69993824528e-06,-24342046.3327,1.65018091048e-05,0.0,5722464.51567,681.693518542,650.536850061,66711395.4128,1754.72457974,36757644.2566,69309417.4615,4551.8116955,4542.58184515,0.0
1.06046661381,1.05515810395,1.01049133096e-05,-38319752.6867,1.37815399324e-05,0.0,5823077.93495,679.221585355,648.170044675,66992298.98,1707.98666911,34696411.5773,69948007.3568,4401.99691393,4393.62729479,0.0
1.11774412667,1.22723695424,1.01294440501e-05,-14157302.6207,1.53307132881e-05,0.0,5650593.65343,682.447794194,651.849472815,66508817.6856,1780.93084622,41950867.1248,68884622.7134,4639.75586981,4630.089823,0.0
1.07476899464,0.963343382445,1.00051755749e-05,-31382822.8221,1.55735563153e-05,0.0,5785088.27989,680.047477159,649.034030546,66891015.2039,1726.67875609,35223233.9928,69544628.3722,4461.36609675,4452.7742017,0.0
1.11450542728,1.07336329394,1.04692802767e-05,-15464381.77,1.72487358492e-05,0.0,5639933.02319,682.110005644,651.63362104,66466588.9637,1777.54276256,40929897.7569,69076085.9649,4626.31202864,4616.79625958,0.0
1.05322011328,0.855794249729,1.01457342352e-05,-41311785.5774,1.57835189381e-05,0.0,5831745.41552,678.823620049,647.691802881,67015538.739,1698.44479223,35169588.4124,70136427.7662,4371.91669023,4363.87372603,0.0
1.12925111891,0.652756906451,9.83200026577e-06,-12262202.4323,2.47695464131e-05,0.0,5589759.40598,683.71625259,652.623884681,66334869.0684,1797.56097613,42863178.1224,67573865.4929,4687.5213946,4677.96230049,0.0
0.955616398548,0.711107389482,9.76961059153e-06,-93747503.1117,1.60228762426e-05,0.0,6075196.57913,686.001574749,641.495167161,67593969.4435,1615.22606271,68809500.7874,69031888.5843,3966.76367037,3960.45650878,0.0
0.913617976299,0.835244995683,9.97320782896e-06,-91685997.4589,1.4407455968e-05,0.0,6103427.39929,691.194901629,638.770072717,67609143.5782,1599.7365065,66994995.9274,67609143.5782,3792.42821962,3785.57467731,0.0
1.08965285189,0.953394219708,9.9352256249e-06,-26401748.8455,1.6707879071e-05,0.0,5753985.26379,681.144908813,650.129344836,66815569.3295,1746.88006668,36171758.574,69305122.8143,4523.1489882,4514.51586779,0.0
1.06285195367,0.922605213381,1.03757451305e-05,-36467569.2016,1.55342958606e-05,0.0,5801652.54649,679.207858863,648.328689411,66929465.5596,1711.56385544,34600557.1239,70025274.6938,4411.89845968,4403.58495089,0.0
1.15617295058,0.977788481895,1.00681984139e-05,-5321986.38132,2.24759953627e-05,0.0,5548124.27729,685.088792518,654.413283897,66246015.4425,1832.81633874,46960455.944,68510328.5343,4799.27391786,4789.77380693,0.0
1.12134346683,0.831973765634,9.57135121308e-06,-15012691.8448,2.02809464103e-05,0.0,5627632.48849,683.268224074,652.077800039,66442319.3661,1786.30136826,41421253.9676,69158579.9207,4654.69673081,4644.86808448,0.0
0.922753220157,0.93965613304,1.01309162727e-05,-92120253.1181,1.38075294231e-05,0.0,6095587.61163,689.536751458,639.361484581,67593882.8169,1601.19620022,67377165.364,67593882.8169,3830.34861687,3823.61755567,0.0
1.11417037404,0.768156862863,9.88260523168e-06,-16562308.3141,2.09749193488e-05,0.0,5661319.24829,682.646564625,651.659828959,66553342.7412,1778.20540559,40531966.0941,69223810.7029,4624.92122264,4615.70980865,0.0
1.0299445818,0.788856205631,9.91399032687e-06,-60561927.1065,1.54928559026e-05,0.0,5904489.80287,678.114639806,646.253033712,67207251.4697,1668.69946754,43032573.0985,70974948.942,4275.29995905,4267.96602213,0.0
1.06993213396,0.949840302038,1.01991624869e-05,-32827068.7337,1.55466636439e-05,0.0,5788903.01148,679.66981435,648.747879131,66896238.1945,1720.33449382,34957427.4279,69635365.3232,4441.28828807,4432.77095383,0.0
1.1728512367,0.749507547531,1.00642463469e-05,1814026.75585,2.65055323206e-05,0.0,5369739.58554,686.275858995,655.394084018,65651352.1314,1849.4593695,50739149.9015,66890209.8613,4868.50548354,4857.40179135,0.0
0.99306567168,0.716195958552,1.03520502065e-05,-95158345.7925,1.57978250978e-05,0.0,5898168.20833,678.614611582,643.880023904,67104323.3512,1616.03153084,70051887.8907,70322647.132,4122.21560314,4114.09993136,0.0
1.14172119836,0.979745818514,1.00200465825e-05,-8991295.29893,2.05629959226e-05,0.0,5548914.0755,684.176394078,653.389623807,66212148.5568,1812.29976867,44856877.4927,68180558.0637,4739.28469439,4729.18334172,0.0
1.08171209973,0.911940870817,1.00272507512e-05,-28866866.3072,1.6637303268e-05,0.0,5769244.61827,680.673409291,649.647330484,66851203.4629,1736.51455168,35665998.873,69294538.3996,4490.18692598,4481.6776004,0.0
1.17096740045,0.971750395381,9.69433861596e-06,998899.836733,2.11378513964e-05,0.0,5440132.97426,686.181684714,655.301352632,65877523.5202,1847.17431407,50614129.7494,67687387.9659,4860.68567927,4849.73151532,0.0
1.06115961986,0.827537067036,1.03472538265e-05,-37354341.3714,1.64083325717e-05,0.0,5801276.035,679.168169079,648.215865665,66925084.5888,1709.36467322,34614998.8434,69935097.6303,4404.87358204,4396.5876912,0.0
1.17905310797,1.04214531212,1.00931742916e-05,3200064.68481,2.12592027063e-05,0.0,5392682.27106,686.396199453,655.772215795,65715239.9524,1856.80447616,51563766.0523,66984855.7254,4894.24945118,4883.13906607,0.0
0.989681152876,0.8999472197,1.03009271159e-05,-95064142.8454,1.43922145434e-05,0.0,5918099.86998,679.095783858,643.664473398,67159150.092,1611.65121553,69968895.0074,70213675.181,4108.16646559,4100.10524639,0.0
1.00866255905,1.03808384283,9.46474421995e-06,-90170262.0221,1.306675956e-05,0.0,5978463.06023,678.428018627,644.902444437,67361626.9157,1639.34533211,65709331.9901,71309057.3427,4186.95828262,4179.75201333,0.0
1.09512473071,0.62221780377,9.81389877238e-06,-24613950.2659,2.19161947992e-05,0.0,5719060.46088,681.672948661,650.445300393,66712314.0104,1754.49820523,36640878.2447,69150145.1691,4545.86275718,4537.14379536,0.0
1.0609045582,0.9367399358,1.01961318441e-05,-37716406.8646,1.50972183831e-05,0.0,5810870.31735,679.225790758,648.199399433,66957279.8403,1708.67925048,34642456.7781,69948295.0998,4403.81482109,4395.43837746,0.0
1.09858917896,0.996657298316,1.00112549176e-05,-22755192.9369,1.70547879518e-05,0.0,5732319.58351,681.606296621,650.725425824,66750880.3429,1758.58477955,37262775.2947,69018619.9109,4560.24368186,4551.51403322,0.0
1.12963338943,1.01460036145,9.90365438761e-06,-13329441.0712,1.91795965756e-05,0.0,5564779.59688,683.572477054,652.628040312,66258292.557,1795.75235286,42277227.2249,67514195.7729,4689.10819952,4678.72994431,0.0
1.11223849506,1.06737573722,1.01935569874e-05,-16585162.0394,1.7024909721e-05,0.0,5626468.4848,682.216608087,651.507337088,66425243.1231,1773.13443988,40462233.4134,69199309.5482,4616.90199299,4606.93590756,0.0
1.23289957993,1.11990175597,9.93980028152e-06,15977578.5751,2.39309482382e-05,0.0,17427834.8569,689.738892113,659.199512264,65198984.4795,1921.21656503,60946689.3023,66891662.2512,5117.76615629,5106.12591245,0.0
0.997015502936,0.858847722625,9.56409660459e-06,-95792204.9289,1.43691580571e-05,0.0,5976669.93532,679.337039055,644.152602505,67329224.1855,1622.82864318,70609695.9694,70870389.5381,4138.61135269,4131.23279264,0.0
1.13036655069,1.03296981678,9.81269756129e-06,-12552319.6336,1.87835424061e-05,0.0,5570378.6022,683.653873338,652.679558152,66265054.7889,1796.66389063,42756111.072,67602459.065,4692.15155191,4681.74801741,0.0
0.957525869376,0.626556058258,9.82330234733e-06,-93791695.7919,1.70216560233e-05,0.0,6061946.75868,685.653293095,641.617772589,67559141.5315,1615.32319746,68848469.4217,69071803.4411,3974.68988378,3968.35702514,0.0
1.10131893298,1.0156196208,1.01941741947e-05,-21888242.179,1.71309155637e-05,0.0,5713736.90507,681.649737785,650.90913557,66700925.0229,1762.02895149,37575837.8684,68538095.5412,4571.5748908,4562.75857396,0.0
1.01862145696,0.893842912818,9.86390846138e-06,-74736358.4943,1.42956335987e-05,0.0,5940132.87772,677.896606236,645.533296677,67289037.8594,1653.51488648,53028920.8581,70920164.0422,4228.29766784,4221.125295,0.0
1.10754840683,0.710093690549,9.84588788237e-06,-18507575.0478,2.10753559952e-05,0.0,5654234.0411,682.401777249,651.276176344,66511471.1508,1768.85695696,39424290.1106,68762602.1806,4597.43343675,4587.93427263,0.0
1.20066156016,1.14068628711,9.71835875608e-06,8355901.28146,2.06917418537e-05,0.0,9783327.61618,687.894600628,657.166991925,65587501.2916,1883.01536653,54987422.8429,66827980.967,4983.94613622,4972.53491213,0.0
1.063899723,0.945368161283,1.00002048721e-05,-37117471.6417,1.50825969871e-05,0.0,5811772.68395,679.533839045,648.394515021,66962018.3555,1712.6200902,34658845.4826,70103359.2492,4416.24775017,4407.8245719,0.0
1.07756758962,1.17080527439,9.79280010755e-06,-31400641.502,1.33463511969e-05,0.0,5810847.00185,680.27864748,649.226880618,66980795.3573,1730.87761531,35256196.9785,69804928.8831,4472.98306451,4464.5380596,0.0
1.10071023826,0.801674171242,1.03289484424e-05,-19559982.682,1.94863868918e-05,0.0,5642968.73044,681.643412917,650.843299842,66462074.6405,1758.8997109,38802775.7493,68459577.3988,4569.04819902,4559.37693525,0.0
0.99754319839,0.690191783587,1.00707760464e-05,-95419828.3318,1.60980587672e-05,0.0,5893448.24645,678.675573012,644.167512772,67090464.458,1621.82397771,70282199.2702,70623055.2697,4140.80181652,4132.53337128,0.0
1.13807618853,1.00709023134,9.89255340814e-06,-10451187.9382,1.98393719176e-05,0.0,5590792.69562,684.044164675,653.205120707,66351111.886,1808.52326432,44235250.708,67865365.5392,4724.15425859,4714.42215361,0.0
1.06904133424,0.85592128171,9.76782985607e-06,-35701638.9705,1.62361182506e-05,0.0,5802001.75492,680.026723087,648.72836675,66938366.3525,1719.4073944,34695710.1177,70150154.0928,4437.59057843,4429.08839674,0.0
1.19042749351,1.09448796382,1.00944906179e-05,5670479.93687,2.12558561099e-05,0.0,7201837.147,687.117363402,656.495964642,65507204.0271,1869.72223753,52917147.0109,66623687.6217,4941.46452556,4929.84351087,0.0
1.06708372558,0.740442062157,1.04722218683e-05,-33380231.025,1.7963814204e-05,0.0,5776414.19929,679.396790353,648.574816247,66862057.98,1717.04473594,34776484.5765,69579546.3422,4429.46454488,4421.08572572,0.0
1.12159142003,0.809576312836,1.02308397113e-05,-14106185.8563,2.12661838812e-05,0.0,5600343.7237,682.870246841,652.108989981,66351715.2555,1786.84685406,41756082.5094,68175846.2878,4655.72598454,4646.0912069,0.0
1.0757057205,1.07028691589,9.96141648939e-06,-31571426.5456,1.4387921872e-05,0.0,5802435.07681,680.086547319,649.100597533,66954521.876,1728.50606045,35167361.7741,69633432.2756,4465.2544458,4456.83827087,0.0
1.05662288627,1.09135854085,1.002774791e-05,-40482194.6826,1.3228528891e-05,0.0,5837270.13417,679.0437561,647.902711587,67027386.7234,1702.83639564,34931826.9016,69948928.1257,4386.04160091,4377.73178075,0.0
1.15993435942,1.06847292721,1.04068495683e-05,-2061178.23752,2.11121988612e-05,0.0,5468073.8223,685.08868034,654.611576834,65952535.804,1834.36288563,48499020.7106,67662165.0601,4814.88752595,4804.47411686,0.0
1.13056533117,1.10163880878,9.8514047618e-06,-12084500.7863,1.77110063008e-05,0.0,5628508.3513,683.522907728,652.710603623,66457505.5544,1798.70445728,43101733.689,67475398.5685,4692.97668969,4683.39589629,0.0
1.05947759279,1.13576822599,9.91811027891e-06,-39575116.8008,1.29065161609e-05,0.0,5837266.86444,679.282280295,648.10572333,67031040.5681,1706.58804996,34836642.9621,69854852.2174,4397.89148767,4389.53727206,0.0
1.10273809692,1.09556992878,9.63143158783e-06,-22586536.4407,1.56616021722e-05,0.0,5737048.29124,682.082746303,650.996972746,66771778.7121,1763.67114117,37425480.613,68931881.0697,4577.46584031,4568.52603392,0.0
1.14638989337,0.884597414551,9.85770971452e-06,-8481470.28892,2.28889053145e-05,0.0,5586992.88763,684.52573758,653.683673415,66349312.5799,1820.65377677,45279438.7589,68393165.2537,4758.66444738,4749.32312342,0.0
1.14926924952,1.02034826401,1.01886598841e-05,-7022324.51727,2.1266253539e-05,0.0,5572509.74916,684.490284066,653.927234084,66314879.0505,1823.97068611,45958392.8478,68722684.7249,4770.61665476,4761.22920585,0.0
1.09743576935,0.946630811127,1.00407453439e-05,-23388405.6204,1.75417109939e-05,0.0,5726179.4278,681.537587696,650.642997213,66728714.8929,1756.93362919,37037448.8601,69135904.1824,4555.45587857,4546.70038069,0.0
1.15677851997,0.816976852276,9.67843017762e-06,-3324700.20209,2.29409072202e-05,0.0,5468400.20866,685.420241318,654.376718665,65964633.4577,1829.87918499,48384817.576,68332261.6281,4801.7876364,4790.97226236,0.0
1.07317628451,0.821232623913,1.00275813776e-05,-31982303.5321,1.7142352227e-05,0.0,5778784.64595,679.998791924,648.929038518,66868759.4402,1724.69799858,35122943.8685,69574096.3268,4454.754757,4446.18792897,0.0
1.09826924119,1.06994853816,1.06046561543e-05,-19923649.1972,1.62286701821e-05,0.0,5647645.46694,681.174000378,650.677828344,66469703.1153,1754.78459836,38633188.1575,68438085.9773,4558.91562018,4549.09720642,0.0
1.17980715518,1.10645657843,9.68538262734e-06,2695038.54053,1.97757848881e-05,0.0,5412176.54939,686.651897273,655.829692775,65802963.7386,1857.75342875,51494650.7354,67055329.5291,4897.37950115,4886.16327346,0.0
1.00167599335,1.01630951475,1.01671570042e-05,-95095098.5861,1.34363769253e-05,0.0,5897784.0904,677.999651015,644.426378172,67112347.8343,1627.1372007,70006838.9591,70635847.2209,4157.9570484,4149.62392217,0.0
1.22374253551,1.0101691087,9.71178107872e-06,13624808.2642,2.48989870821e-05,0.0,14983241.3742,689.382802565,658.614520084,65284780.9912,1911.00738127,59025159.0203,66617061.244,5079.7552649,5068.16966551,0.0
1.07956046456,1.0416488226,9.63644705653e-06,-31103158.0546,1.47643066358e-05,0.0,5803982.52126,680.557133646,649.358422033,66960140.5494,1733.57736967,35368500.4159,69432325.2432,4481.25548839,4472.77958009,0.0
1.07500673249,1.03180085018,1.06398753891e-05,-30239070.1726,1.53852411036e-05,0.0,5776448.34207,679.786686038,649.209609948,66870441.6922,1728.17532982,35137010.1911,69125645.1211,4462.35294657,4454.13840209,0.0
1.16138941013,1.05243437015,1.00070241768e-05,-2436999.73576,2.14140046753e-05,0.0,5534542.79134,685.378407809,654.731428765,66201951.8581,1838.56842645,48712363.894,68321626.5897,4820.92744145,4811.23383004,0.0
1.05296095254,0.798947365563,1.03282292708e-05,-42096462.1563,1.62775194753e-05,0.0,5801371.52899,678.779342996,647.670602647,66920929.8955,1697.60878995,35187818.2808,70258351.813,4370.84091399,4362.33511863,0.0
1.14525048999,1.24458034286,1.00696597576e-05,-8450465.79211,1.75383227696e-05,0.0,5610484.9852,684.14353431,653.607887104,66424498.5519,1818.73131712,45229958.102,68440579.3929,4753.93478395,4744.6116868,0.0
1.0687082603,1.11766400251,1.02275647664e-05,-33324886.2522,1.36776311345e-05,0.0,5801823.93428,679.52762357,648.684638053,66933996.9361,1718.5968399,34902755.2774,69735271.6652,4436.20798851,4427.70985184,0.0
1.09791124681,0.851468657588,1.02154189539e-05,-22811095.4424,1.88454756955e-05,0.0,5710478.27276,681.506195264,650.686053771,66685236.8341,1757.72618829,37147552.4304,68672153.3445,4557.42958551,4548.66694312,0.0
0.999356317502,0.889499818793,9.90400078939e-06,-95839392.2831,1.42757825113e-05,0.0,5981839.25581,678.508299891,644.306871385,67373682.5387,1627.43201648,70649297.369,70820697.7345,4148.32807395,4141.42979849,0.0
1.12880268203,1.07236800778,9.9935260826e-06,-12227511.1239,1.80421019778e-05,0.0,5607132.97736,683.252448545,652.509841982,66392445.2291,1795.53138244,43058680.6209,67353435.4829,4685.65993311,4675.80506464,0.0
1.08490932391,0.65523456691,1.00850574184e-05,-27483360.0921,2.04721202443e-05,0.0,5739200.12764,680.917509368,649.843202152,66765071.347,1740.91440133,35852340.1304,69211520.742,4503.45860355,4494.89952197,0.0
1.16112636762,0.856176625941,9.69717812918e-06,-1938777.99785,2.27192875466e-05,0.0,5452938.92693,685.713428593,654.690889595,65921736.8446,1835.06651876,49002212.8871,68051037.392,4819.83555199,4808.94229684,0.0
1.04940337889,0.904416297741,9.91759200713e-06,-45826131.3933,1.50266686834e-05,0.0,5817702.34953,678.913233443,647.463095379,66956973.7296,1691.88340585,36070664.9518,70558685.2144,4356.07342577,4347.35563463,0.0
1.05515539974,0.871471536546,1.0237603434e-05,-41452445.3859,1.56584856428e-05,0.0,5803692.12346,678.930090216,647.804680703,66931202.7114,1700.47202575,35045938.3537,69829348.7648,4379.95006432,4371.40933106,0.0
1.00531735625,1.1959332939,9.82094771641e-06,-91484048.8797,1.16396138789e-05,0.0,5989376.48721,677.981482076,644.688103896,67400649.0068,1635.432232,66834907.3592,71018375.8932,4173.07234579,4166.0878367,0.0
1.13102923027,0.95743527687,1.00606759782e-05,-11764968.8661,2.00037403769e-05,0.0,5586094.81092,683.433878782,652.660490926,66312901.202,1798.66678934,43277229.4701,67432833.057,4694.90233485,4685.00934775,0.0
1.15044870566,0.850184786439,1.02621616633e-05,-4496728.19451,2.24854305159e-05,0.0,5510105.20431,684.462783339,653.891968198,66094131.0457,1823.00352769,47407501.08,68551096.9418,4775.51257719,4765.33514203,0.0
1.20889948804,0.826065480337,1.02132946153e-05,10841596.7724,2.83435529976e-05,0.0,12116976.7234,688.333218098,657.59306235,65127981.2701,1891.77176486,56559772.7409,66458185.322,5018.14177485,5006.1719344,0.0
1.14941153247,0.976597551738,1.01128088666e-05,-5018079.85767,2.14868725745e-05,0.0,5535341.27445,684.574154785,653.929247325,66174749.6295,1822.23433231,47371765.5421,68671100.6552,4771.20727128,4761.28451612,0.0
1.2048109608,0.894317778811,1.00425557156e-05,9790718.00788,2.61778638082e-05,0.0,11149691.3298,688.131176568,657.355497828,65239476.3906,1886.94680695,55813716.0763,66822125.8757,5001.17029828,4989.24986809,0.0
1.06863735299,1.25574083777,9.88909651383e-06,-35458147.0212,1.22904026788e-05,0.0,5822515.26376,679.761417451,648.702213113,67002390.3029,1718.61062212,34723367.6372,70156788.284,4435.91365226,4427.41633402,0.0
1.07352840174,0.914578429819,9.45957125449e-06,-34225478.8819,1.57066016454e-05,0.0,5817896.77266,680.446506547,649.012842831,66988128.6064,1725.77665426,34822366.5502,70176648.8003,4456.21639562,4447.83388384,0.0
1.06998284446,1.11149105279,1.00572045246e-05,-33384957.0143,1.37181471158e-05,0.0,5805271.01848,679.725631232,648.768597139,66943740.8385,1720.27708715,34918146.2095,69810907.1616,4441.49878735,4432.98065729,0.0
1.1565895206,1.0281356964,1.00069061466e-05,-3685898.69001,1.9883062427e-05,0.0,5467638.67393,685.157778976,654.403234336,65964017.4007,1828.964592,47764699.6155,67832212.2065,4801.00310001,4790.10115382,0.0
1.01970523438,0.925587569296,1.02541478655e-05,-69799939.5534,1.42557071903e-05,0.0,5865563.84711,677.577099156,645.572565698,67061567.9391,1652.31125347,49299365.6019,70887822.5639,4232.79642791,4224.50092779,0.0
1.10106152845,1.1269139907,9.98129919379e-06,-22323786.5516,1.54170205189e-05,0.0,5734939.37994,681.733606797,650.893385361,66759544.7382,1761.76144399,37445447.4326,68655493.4956,4570.5064046,4561.69403442,0.0
1.01960469069,0.618569056511,1.00988237099e-05,-71171767.7582,1.70149595306e-05,0.0,5905576.58745,677.74442845,645.584760729,67187922.3708,1654.6633816,50319415.2399,70830560.6109,4232.37907105,4225.103685,0.0
1.12005891965,0.821023064291,9.57494916191e-06,-16871557.4528,2.00077161753e-05,0.0,5639432.14313,683.2322783,652.014484231,66479735.4394,1785.20014186,40195615.0907,69324004.973,4649.36457547,4639.58542814,0.0
1.06220973328,1.00726137679,9.65766685151e-06,-39304118.7976,1.41866172037e-05,0.0,5829954.80386,679.803255586,648.371293885,67008828.1656,1710.25416293,34833840.0688,69978922.2893,4409.23260285,4400.83580718,0.0
0.969453177742,0.728385004454,1.00973900382e-05,-94153375.023,1.60451971505e-05,0.0,6012860.18084,683.374214573,642.379058834,67429771.9239,1615.55207335,69166859.2847,69396284.8962,4024.20014081,4017.40996175,0.0
1.02808530144,0.871203146892,9.94187862765e-06,-62016002.3426,1.46898016915e-05,0.0,5911583.45333,677.999573922,646.130176015,67224730.3659,1666.15592614,43939763.7918,70971289.2576,4267.58208628,4260.26343709,0.0
0.960997482464,1.06211811196,1.03637743929e-05,-93856045.4942,1.29778625788e-05,0.0,6036690.12469,683.514465726,641.832546971,67485065.9495,1609.60904212,68905084.7911,69128108.6687,3989.10054971,3982.39974001,0.0
1.00318567646,0.822705666213,1.0567041207e-05,-87210775.3106,1.50101876955e-05,0.0,5870235.8163,677.337917992,644.520387096,67037578.815,1629.53696237,63148269.8301,70563614.5394,4164.22374299,4155.94517787,0.0
1.18539447609,1.00240072887,9.73915681479e-06,4589081.03988,2.20222475232e-05,0.0,6324626.9329,686.97355098,656.17132047,65794964.7931,1865.49652395,52675814.319,67097889.6364,4920.57247025,4909.66382972,0.0
1.02855917866,0.662316013283,9.89823039267e-06,-62103075.087,1.66047398063e-05,0.0,5901186.6908,678.129762645,646.162211827,67194281.8077,1666.9331087,44017750.4422,70962431.3836,4269.54915062,4262.23506358,0.0
1.1577004731,0.825483450207,9.84263241647e-06,-5044233.0217,2.49612808164e-05,0.0,5535519.26955,685.344069375,654.461179105,66197873.6285,1834.78009515,47159714.967,68526186.9155,4805.61466384,4795.99509095,0.0
1.25038108736,0.698001114815,1.02287113041e-05,19956835.2103,3.72052752397e-05,0.0,21765687.5964,691.200143311,660.210446325,64411201.4307,1939.80382523,63942842.1433,64823811.4775,5190.33189363,5177.57208237,0.0
1.05783410777,1.01816565434,1.02619578701e-05,-39277589.0837,1.42276062882e-05,0.0,5823845.44485,678.984137102,648.002041458,66986339.4534,1704.80385889,34775473.0607,69727175.2332,4391.06938135,4382.83478577,0.0
1.12633081548,0.810853523265,9.46162894351e-06,-14246453.0954,2.14938803892e-05,0.0,5663634.3346,683.609968648,652.425942364,66572903.1847,1794.86731751,41985724.3675,68960009.7735,4675.39921506,4666.27218982,0.0
1.04817616775,1.02413747595,9.80587227506e-06,-47080283.5302,1.38083203794e-05,0.0,5832473.56396,678.898644663,647.386938827,66997277.9135,1690.14223976,36592181.6926,70381295.447,4350.97927233,4342.2814416,0.0
1.10854380914,1.00948652925,1.0481558507e-05,-17084055.1108,1.75974687429e-05,0.0,5653415.78681,681.828566341,651.303793072,66498771.7297,1769.9137124,40036731.9209,68973336.4536,4601.56535174,4592.14905753,0.0
1.10788966862,0.990937270022,1.03870285388e-05,-17197908.8068,1.77215200114e-05,0.0,5657494.96189,681.853950919,651.268214191,66525506.7758,1768.82361553,40001056.2498,68990552.6957,4598.85001444,4589.44430424,0.0
1.05194770748,0.865135402368,1.02514134642e-05,-44196781.2171,1.57581968027e-05,0.0,5792158.9764,678.829092308,647.614925141,66893001.775,1695.44144926,35540346.0573,70301039.9255,4366.63493375,4357.8181504,0.0
1.07347121771,0.864546293356,9.98028341073e-06,-31981751.7743,1.66117927844e-05,0.0,5782946.38241,680.031841729,648.949456464,66881047.8242,1725.05110614,35115432.2554,69610788.1443,4455.97902471,4447.40737951,0.0
1.09479511349,0.916266087741,1.0283468224e-05,-23807025.6161,1.79334615583e-05,0.0,5727084.49788,681.219393779,650.461091119,66737269.8095,1753.96290362,36808060.414,68921979.8458,4544.4945161,4535.87959532,0.0
1.14996462399,0.775134352253,1.02485583992e-05,-6574856.53329,2.58479339123e-05,0.0,5544168.69654,684.632758343,653.973841608,66230400.8288,1825.09184277,46146534.0425,68584722.9759,4773.50315418,4764.1045521,0.0
0.977667087782,1.17035666882,9.79660701668e-06,-94981895.4567,1.16819810158e-05,0.0,6032790.32973,681.539978445,642.910873262,67475773.1539,1611.91404155,69896018.3618,70134005.0163,4058.29608138,4051.28283675,0.0
1.20110946507,1.00721787937,1.03460491643e-05,8724932.80191,2.39894419226e-05,0.0,10064403.3341,687.66591485,657.142898825,65303440.4712,1882.24608012,54889377.9968,66636894.2873,4985.80538951,4973.98802759,0.0
1.03800646052,0.978082694642,1.03663043623e-05,-51928874.7836,1.39494474966e-05,0.0,5837267.97306,678.030764776,646.739224276,67005304.3503,1677.3719608,38322527.1442,70762347.0549,4308.76481762,4300.3492516,0.0
1.05935672385,0.955757738672,9.7651242416e-06,-40219972.8403,1.46427951421e-05,0.0,5829213.14609,679.568510933,648.165993342,67003423.574,1706.52139092,34918179.5433,69776338.2159,4397.3897607,4389.03742677,0.0
1.01937545327,0.964937296144,9.71032330307e-06,-75375286.2398,1.37483784425e-05,0.0,5947721.56489,678.024072819,645.574766086,67312048.6608,1654.48187738,53524022.8585,70956123.3665,4231.42750652,4224.24442298,0.0
1.03836106812,1.02345997533,9.90144781237e-06,-55430276.488,1.36979074081e-05,0.0,5849371.37092,678.447365154,646.767366087,67042958.249,1677.41964716,40089430.1714,71151665.4729,4310.23679377,4301.729297,0.0
1.00260213148,0.930463492286,1.03226163012e-05,-92447036.871,1.43462723273e-05,0.0,5886017.22201,677.775180696,644.4888274,67081311.6117,1628.65201946,67676752.4549,70588812.6833,4161.80144777,4153.53232271,0.0
1.13514500467,0.713411540416,1.0210735536e-05,-10892522.8726,2.52702025946e-05,0.0,5591758.72319,683.76808556,653.027706131,66355517.1203,1806.37710867,43745402.6504,67756743.6318,4711.98691439,4702.85109609,0.0
0.969405478306,0.675780508453,9.49887630615e-06,-94350848.8101,1.64629252579e-05,0.0,6021131.07072,684.550412262,642.376846664,67435463.6489,1617.54629612,69340668.9342,69572583.5938,4024.00214045,4016.89025087,0.0
1.07247113046,1.13969037933,9.66909467862e-06,-33994836.4486,1.33266776025e-05,0.0,5826677.03711,680.146105984,648.943828623,67017124.3938,1724.22744942,34834524.6945,70106137.7032,4451.82766254,4443.46147702,0.0
1.14079985822,1.04205912217,9.47207587014e-06,-8450082.43758,1.78399894922e-05,0.0,5559175.72721,684.430886046,653.361286642,66233382.1568,1809.39623962,45481739.7704,68226315.026,4735.46021147,4724.85442989,0.0
1.08641517772,0.921875500123,9.89483848475e-06,-27639902.3115,1.67815164507e-05,0.0,5762518.94735,681.024964276,649.94361751,66836619.1836,1742.66876611,35933313.4077,69337869.483,4509.70940272,4501.12684548,0.0
1.07824852014,0.925111067608,1.00385106613e-05,-30135519.6497,1.62515145889e-05,0.0,5778925.1989,680.432709247,649.402484859,66876083.7804,1731.96004125,35434468.7863,69304954.9714,4475.8096071,4467.35404825,0.0
1.02733805474,0.887970896678,1.01106180945e-05,-63950745.2331,1.47839077366e-05,0.0,5851133.76033,677.911519984,646.050713705,67030930.4698,1662.51818069,45198540.8802,70876973.1426,4264.48026523,4256.06227719,0.0
1.09305669016,0.848591624707,9.74706109421e-06,-25544739.7577,1.78495299562e-05,0.0,5674867.62337,681.544893126,650.284183215,66556472.5597,1748.37703645,36559236.5725,69222958.2007,4537.27832085,4527.35228947,0.0
1.15331804244,0.925108947303,9.84118710215e-06,-7296625.63472,2.28377797748e-05,0.0,5460087.39813,685.176416676,654.153564907,65960825.1791,1825.71376715,45673162.325,68359659.5768,4787.42319417,4776.49665824,0.0
1.06548368587,0.903217968601,1.02898766876e-05,-35632321.2205,1.58584405142e-05,0.0,5797381.10906,679.427092704,648.500076071,66919923.8155,1715.04786923,34632797.73,69922072.0406,4422.82278005,4414.46852615,0.0
1.11817923988,1.02882750319,9.85745106889e-06,-15462114.3159,1.79224805175e-05,0.0,5676092.69234,682.737861644,651.889203824,66594311.6575,1783.19107223,41153937.3965,69354854.8394,4641.56202474,4632.38078644,0.0
1.14145510345,0.978303824112,9.9230715739e-06,-9758124.43704,2.09648831767e-05,0.0,5608696.34156,684.184747901,653.413698785,66409300.7858,1814.26282906,44595061.6784,68126326.7191,4738.18013442,4728.91757384,0.0
1.22961221606,0.781407288619,9.9900800791e-06,15227084.9128,3.10640323074e-05,0.0,16647504.5516,689.663768775,658.900672442,65090820.5668,1918.16125394,60262753.2132,66668247.3545,5104.12030887,5092.51818664,0.0
1.12125812364,1.01601239359,9.89109770073e-06,-14534541.1498,1.82216593654e-05,0.0,5607138.47751,682.989405406,652.066797113,66373224.1591,1785.03263192,41565764.4509,68424501.22,4654.34247123,4644.21994724,0.0
1.17232233118,0.6323396927,1.01748710787e-05,1822549.9241,2.97890649289e-05,0.0,5325762.30247,686.331234286,655.351878004,65505293.9158,1848.50560138,50697673.8212,66778567.9247,4866.30999673,4855.00876391,0.0
0.995539924039,0.800420047139,9.94499830835e-06,-95395132.1259,1.5227520427e-05,0.0,5907949.06693,679.119517185,644.042048206,67135640.5856,1619.02593263,70260503.5275,70491806.556,4132.48622469,4124.25028269,0.0
1.11895399946,0.75701521258,1.03939031593e-05,-14365917.9482,2.21110652936e-05,0.0,5596090.10969,682.634267514,651.934809704,66337409.2832,1783.5715011,41517593.8306,67657156.4494,4644.77805176,4635.18813054,0.0
1.15233915991,1.18859353575,9.90620601755e-06,-6885926.90353,1.86229262897e-05,0.0,5590162.77737,684.774662087,654.127326589,66367817.1544,1827.83351378,46256712.0134,68800610.1724,4783.35985279,4773.92143888,0.0
1.01823530664,1.19829752501,1.00340060026e-05,-73048215.1872,1.19662104051e-05,0.0,5892435.52186,677.718550402,645.487397815,67135976.5239,1650.11774498,51754612.6083,70788316.6518,4226.69475786,4218.42276276,0.0
1.2412842048,0.97183001046,1.00804995522e-05,17971594.5069,2.80819422186e-05,0.0,19558049.4904,690.330577649,659.683566994,64911465.1372,1930.26801975,62456008.6014,67071564.535,5152.57073412,5140.52633472,0.0
1.17989971439,0.873155563439,1.03440137591e-05,3818459.95758,2.4810824167e-05,0.0,5735574.44068,686.398354121,655.808443906,65609089.6035,1858.15587231,51787666.2359,66721891.1124,4897.76371443,4886.74411145,0.0
1.04702747757,1.03421981361,1.03972883158e-05,-46040108.7911,1.38867403716e-05,0.0,5809533.9166,678.400731116,647.30373636,66938765.1196,1688.7828752,36024979.849,70276548.6013,4346.21105939,4337.47481078,0.0
1.09371709187,0.951820230971,9.93046464008e-06,-25071499.916,1.70523191614e-05,0.0,5742518.20719,681.340129931,650.352756088,66786618.0716,1752.18702591,36534979.5345,69189580.0704,4540.01964835,4531.32288426,0.0
1.16878947247,0.894388748482,1.00678330849e-05,1230245.49077,2.30960831989e-05,0.0,5407645.803,685.896263222,655.155141459,65760925.2657,1843.95080774,50529992.4975,67486817.8857,4851.64510022,4840.61850184,0.0
1.25741954113,0.985248175933,1.0320624041e-05,21224869.4331,3.04595966501e-05,0.0,23196950.8034,691.265360612,660.684911875,64601110.1087,1948.11578604,65041436.9062,65892701.9602,5219.54851523,5207.1250593,0.0
1.08018963395,0.796689124025,1.01932977042e-05,-29811918.9987,1.83553108833e-05,0.0,5765725.82434,680.511411425,649.550534852,66853102.9716,1735.19007967,35355068.6433,69206698.6968,4483.86717053,4475.57533439,0.0
1.11056315933,0.92599713544,9.62108091042e-06,-18356359.8333,1.79639485216e-05,0.0,5682598.2983,682.59239437,651.466785179,66604789.8906,1772.85978259,39641673.9464,68955776.2867,4609.94767438,4600.49720281,0.0
0.939294614498,0.955920012816,9.96474442485e-06,-93094574.6817,1.36055760297e-05,0.0,6116945.37021,687.39874281,640.442714484,67696356.1477,1607.66434876,68234595.5308,68448742.4067,3899.01194478,3892.92258378,0.0
1.03725700291,0.804862073416,9.86606083837e-06,-56569217.2154,1.57055212208e-05,0.0,5839761.93544,678.522812919,646.698613658,67010283.0621,1676.08861683,40705801.9065,71021499.9992,4305.65381908,4297.16408657,0.0
1.14100499566,0.961375080671,9.89858467623e-06,-8545164.26097,2.07519256126e-05,0.0,5582782.31036,684.114536608,653.328291731,66338220.9637,1812.2036172,45482660.2527,69775131.6755,4736.31173698,4726.63956841,0.0
1.19803848039,0.901409444827,9.70506968753e-06,7432968.3393,2.49006457996e-05,0.0,8962043.8497,687.978169999,657.001907089,65426799.7859,1879.34007691,54233817.18,66622004.2336,4973.0577321,4961.26657337,0.0
0.962720018953,0.996898841464,9.76241665739e-06,-94115096.683,1.37193042076e-05,0.0,6069870.38767,684.793304381,641.951981823,67584901.6097,1615.7426772,69133055.5028,69360498.8342,3996.25079867,3989.76903764,0.0
1.08648287283,1.00435122676,1.01094651035e-05,-26983563.2416,1.60071882523e-05,0.0,5759005.42685,680.829413328,649.938179321,66829146.8232,1742.6783094,36045556.1501,69263975.6939,4509.99040512,4501.40679193,0.0
1.07259653416,0.940227976118,1.04815739807e-05,-32909913.6262,1.62711301707e-05,0.0,5707235.94923,679.867112017,648.993222254,66643110.3152,1721.73424489,34714373.9981,69130828.36,4452.3482133,4442.77129296,0.0
1.08620544463,0.888651897905,1.00813594904e-05,-27105960.1893,1.72851865889e-05,0.0,5752881.47366,680.885712208,649.923331076,66809826.6417,1742.41414515,35940996.7153,69258575.0961,4508.83880066,4500.25951466,0.0
1.13661982714,0.820796997629,9.70615279898e-06,-10724051.1753,2.23529316497e-05,0.0,5595712.77793,684.15288536,653.116127836,66366635.849,1807.06833009,43914773.2972,67737786.3545,4718.10890246,4708.50592579,0.0
1.18493693916,0.97397018214,1.0256753955e-05,5160350.61399,2.32489031892e-05,0.0,6755203.75201,686.6583288,656.140779112,65683038.8444,1864.82637368,52712577.2847,66920914.9474,4918.67323445,4907.88930553,0.0
0.992972928585,0.852349043513,9.87097164673e-06,-95539765.4646,1.44542917702e-05,0.0,5976697.94331,679.233353159,643.892382577,67330183.4276,1617.70031805,70387476.4802,70627040.3675,4121.83062656,4114.59537319,0.0
1.05853040375,0.623542942439,9.82243937194e-06,-40316119.413,1.82803662087e-05,0.0,5810871.10706,679.485374772,648.022707484,66946685.372,1705.67574423,34905959.1347,69796101.4327,4393.95970597,4385.62023147,0.0
1.1349114051,0.877806749175,9.8334260145e-06,-11981113.179,2.17422663594e-05,0.0,5532767.43705,684.059051859,652.985304578,66163969.4949,1802.69336072,43209563.0358,67469393.4328,4711.01724257,4700.52027138,0.0
1.05044031454,1.10765150494,1.00375806809e-05,-44778826.4236,1.31440404221e-05,0.0,5823602.2558,678.793721334,647.533093196,66979913.7468,1693.1418271,35771685.6899,70510726.7036,4360.37774566,4351.64307452,0.0
1.09119778694,0.96784666098,1.02153613447e-05,-25032209.6299,1.68680647449e-05,0.0,5738606.54717,680.99926288,650.203035229,66760924.5269,1748.8695181,36451956.7033,70254895.8432,4529.56201359,4520.90472291,0.0
1.08791229223,0.968659341333,1.028626645e-05,-26077509.7424,1.6769131368e-05,0.0,5749843.3885,680.782571131,650.009340818,66796653.7019,1744.93072495,36163083.0686,69175732.8643,4515.92392505,4507.41575797,0.0
1.15333363832,1.00414258748,9.94201797721e-06,-6479492.24985,2.16270934473e-05,0.0,5568829.58023,684.911007855,654.191517229,66304391.088,1829.26037734,46511714.7179,68697784.5839,4787.48793267,4778.03353033,0.0
1.1116894564,0.851199206371,1.02855286366e-05,-16298346.4762,1.97675266298e-05,0.0,5637824.08854,682.186001326,651.477535264,66469727.0534,1773.89829783,40540823.809,69197310.3412,4614.62293352,4605.1533857,0.0
0.988006091316,0.967258826328,9.83319355928e-06,-95360028.36,1.35647022872e-05,0.0,5993957.11513,679.980149002,643.574552405,67378377.9339,1613.51965748,70229194.4389,70472824.772,4101.21328505,4094.0503952,0.0
1.26042578474,1.11249807453,9.98998841601e-06,21404109.056,2.70770117696e-05,0.0,23374105.9105,691.526094259,660.876703141,64661220.5502,1951.56677736,65165148.112,66044439.431,5232.02743246,5219.42337769,0.0
1.13143523439,0.960659322872,9.95362815975e-06,-10839170.5541,1.99060295492e-05,0.0,5607431.5364,683.577483403,652.778237777,66395888.5942,1799.67248127,43936285.6731,67607449.1806,4696.58765795,4686.99561866,0.0
1.16190643269,1.06248047416,1.00364066242e-05,-2287887.04945,1.96258388031e-05,0.0,5458825.13208,685.422312255,654.732782356,65914970.6022,1835.80478843,48442039.108,67687622.6177,4823.0736021,4812.19147546,0.0
1.20529116456,0.95194129797,1.00763222588e-05,9329167.93116,2.50731346622e-05,0.0,10717028.5062,688.105752668,657.386007056,65259311.5287,1887.62548341,55459200.5108,66797870.434,5003.16362409,4991.23472252,0.0
1.14228531985,0.909949650838,9.61836213426e-06,-9528368.71445,2.13903618028e-05,0.0,5587723.02755,684.501869199,653.472554316,66350159.973,1814.28098696,44885700.0401,68132431.2923,4741.6263627,4731.92828236,0.0
1.14125494941,0.964404043473,9.9512478962e-06,-8640864.31062,2.11895853356e-05,0.0,5598674.71997,684.130960825,653.384651782,66391539.2611,1813.35980225,45380339.7455,68241495.0231,4737.349295,4727.98550771,0.0
1.05960830801,0.701137022242,1.06423074705e-05,-35854566.5625,1.77083720818e-05,0.0,5782036.862,678.888246433,648.11621912,66863467.7394,1706.8837288,34566127.3643,69903361.062,4398.43408655,4390.0795838,0.0
0.995784440559,1.19238067528,1.02380028036e-05,-95389478.2005,1.19982225588e-05,0.0,5922715.34308,678.405389334,644.054045204,67182014.53,1619.34363853,70255316.1053,70608195.6747,4133.50121276,4125.34185333,0.0
1.01986052126,1.03968919388,9.74381633966e-06,-74409188.01,1.30754622802e-05,0.0,5949038.33643,677.97287979,645.613584139,67319218.7684,1655.07277729,52783902.9951,71009044.7503,4233.44102375,4226.25104608,0.0
0.990101439373,1.02120297509,1.00335127839e-05,-95194111.8995,1.33488894869e-05,0.0,5932037.55576,679.516725408,643.693046135,67197383.5058,1612.2130251,70083275.597,70329316.931,4109.91107484,4101.76331098,0.0
1.14425007735,1.1520481331,9.83042358175e-06,-7827232.68366,1.80632349106e-05,0.0,5592501.48326,684.268273353,653.540737568,66371730.2361,1816.15145368,45914611.0196,68509634.5817,4749.78207108,4740.05628772,0.0
1.18233694168,0.913119415642,9.59506175031e-06,3727836.46215,2.3167127777e-05,0.0,5693136.17848,686.976703321,655.980339005,65708218.0234,1860.88823683,52173978.7237,67030893.3859,4907.88064491,4896.60291028,0.0
1.0807516807,1.00032835101,9.93383379649e-06,-29521697.2259,1.55351459855e-05,0.0,5781471.79956,680.631181446,649.573122656,66886326.8135,1735.18745302,35586924.3714,69348180.7388,4486.20022659,4477.70582404,0.0
1.12383223934,0.957916103731,1.04371000024e-05,-13140529.9342,1.96939634817e-05,0.0,5596153.63682,682.814110217,652.257631637,66346769.6676,1789.56232078,42386023.6691,67310620.9521,4665.0276255,4655.35546265,0.0
1.15066277928,0.850812933709,1.02328323838e-05,-6447733.38872,2.44030577628e-05,0.0,5552721.20446,684.515692508,653.928621181,66257229.7837,1825.89199047,46275141.7805,68598634.4024,4776.40119679,4766.99139153,0.0
1.12437100352,1.06292715342,9.94992813202e-06,-13672077.9038,1.79157630565e-05,0.0,5646652.60861,683.077037345,652.301509826,66511604.1971,1791.05950862,42041506.5604,68436307.1053,4667.26403561,4657.88690473,0.0
1.08880648343,0.658144032654,9.93112216025e-06,-26623284.5358,2.07227041803e-05,0.0,5734079.61943,681.243710173,650.083568125,66753599.49,1746.03537261,36066555.3728,69246745.4694,4519.63571272,4511.0158219,0.0
1.06571890357,1.10599610964,1.00558135916e-05,-36100749.608,1.35096718532e-05,0.0,5815294.5271,679.52661793,648.511785515,66966938.8788,1714.87604454,34673851.2411,70146059.5353,4423.79916872,4415.3475532,0.0
1.13641191835,1.22993319086,1.03752213985e-05,-10348901.2665,1.74408303565e-05,0.0,5623645.36116,683.476496413,653.098295372,66460241.0724,1807.40837709,44040468.4795,67983513.0607,4717.24587307,4708.08852512,0.0
1.12582090937,0.881969509688,9.77158983986e-06,-13454492.9826,2.0013106903e-05,0.0,5582038.25095,683.43315953,652.364838165,66309435.38,1790.9289133,42166469.407,67976975.33,4673.28259479,4663.00048557,0.0
1.11667618951,0.983137528414,1.03243641437e-05,-15185741.3797,1.85855425813e-05,0.0,5631522.24737,682.394884947,651.775805987,66440715.7823,1780.45377265,41104106.7677,68927798.6292,4635.32286266,4625.77008298,0.0
0.998002754462,0.935753497081,9.98273093321e-06,-95510790.237,1.41821588934e-05,0.0,5909247.13942,678.72638906,644.198536041,67138474.639,1622.26060184,70362229.3833,70725934.6809,4142.70943377,4134.43352494,0.0
1.05429586912,1.04930191512,9.78092420138e-06,-45049236.0775,1.37802505249e-05,0.0,5810652.09473,679.360512518,647.854617392,66943782.6179,1698.07582305,35835078.4397,70492689.5174,4376.38215272,4367.43619622,0.0
1.10039640415,1.05759843867,1.00001491066e-05,-22472491.3607,1.62196528366e-05,0.0,5731196.95168,681.707104675,650.848378622,66747027.8741,1760.94521957,37355784.1239,68723854.9461,4567.74547363,4558.94358858,0.0
1.16506944562,0.968652349067,1.01799470601e-05,186362.336562,2.16181024589e-05,0.0,5427127.33386,685.552412159,654.921774834,65821447.4085,1839.32643306,49926964.2975,67572975.2819,4836.20326877,4825.26679748,0.0
1.10076236133,1.03044241397,9.75638514809e-06,-19920350.2294,1.5691071941e-05,0.0,5720102.51887,681.857322013,650.867610129,66697014.6839,1759.85779252,38816832.287,68573874.2829,4569.26456188,4559.99581665,0.0
1.07644823277,0.9958505665,9.91313173653e-06,-31410468.5437,1.52895073241e-05,0.0,5797415.52497,680.19757104,649.150935235,66939483.9474,1729.54156247,35206235.7041,69616658.8789,4468.33661423,4459.90894678,0.0
1.05428874898,1.18369670375,1.04629693931e-05,-41705462.1479,1.29661367256e-05,0.0,5805258.83344,678.619881715,647.745753235,66938470.2633,1698.68969186,35007328.0429,69554324.8699,4376.35259702,4367.67710499,0.0
1.07536869973,1.11717005111,9.95035222714e-06,-31773399.7526,1.38543178655e-05,0.0,5806774.79465,680.055736066,649.077621875,66966546.0641,1728.02948308,35145605.1401,69676501.179,4463.85547258,4455.4445119,0.0
1.15521488822,0.894719645793,1.05166646536e-05,-2989052.80814,2.24823796491e-05,0.0,5437510.07069,684.831744034,654.305949586,65851205.0449,1827.35314383,47766347.3153,67721248.0275,4795.297001,4784.52144262,0.0
1.14703827773,1.16276502155,1.01837252913e-05,-7651222.83288,1.8864744122e-05,0.0,5592769.4181,684.248354928,653.753808066,66375249.0529,1820.99870223,45625213.3078,68591624.2027,4761.35589086,4752.00251485,0.0
1.16243564974,0.682617738918,9.8043138345e-06,-2392251.65825,2.88641830169e-05,0.0,5498272.56742,685.848376498,654.836427487,66084785.8538,1840.44194754,48826654.9259,68276670.3546,4825.27038207,4815.54934795,0.0
1.18411144441,0.8095360128,9.89675096546e-06,4683805.92516,2.58841408826e-05,0.0,6314522.52563,686.976694756,656.076515685,65611372.0316,1863.24582873,52542562.7844,66936026.0703,4915.24660575,4904.04933916,0.0
1.08478528678,1.09900368714,9.56551748947e-06,-28832160.7612,1.42110781802e-05,0.0,5774086.164,681.081615406,649.833155726,66867112.9751,1739.13581905,35717234.8789,69439817.5344,4502.94372542,4494.00198442,0.0
1.10735637811,0.963556507325,1.01837576799e-05,-18112475.5205,1.79650199607e-05,0.0,5669361.55496,681.996083353,651.252678247,66568451.6407,1768.37273385,39681406.7504,68910484.5154,4596.63632553,4587.33751287,0.0
1.06995607318,0.888346211744,9.75130547119e-06,-34744752.8943,1.59624336124e-05,0.0,5813636.93035,680.059968219,648.79176536,66973933.5359,1721.11481739,34733400.5023,70130545.83,4441.38765977,4433.06025886,0.0
1.03543034403,0.953867982552,9.89384231825e-06,-57948425.1486,1.42692799579e-05,0.0,5851843.69941,678.361681282,646.575934811,67047105.7079,1673.58748274,41472952.5691,71091355.5192,4298.07135807,4289.6096163,0.0
1.00790486158,1.06185845553,1.01668249191e-05,-83608175.0118,1.29213712671e-05,0.0,5888087.68403,677.52380066,644.821900322,67089506.3391,1635.41248567,60032622.1182,70652889.1757,4183.81308042,4175.37551547,0.0
0.999751783671,1.14245651619,1.00273303237e-05,-95665475.6224,1.22427399752e-05,0.0,5916545.76842,678.377795085,644.308432371,67164797.2871,1624.45076246,70498407.1314,70726368.7799,4149.96965402,4141.66784359,0.0
0.952637172451,0.874599571596,9.39954018025e-06,-93664631.322,1.49743737388e-05,0.0,6062974.95887,687.346960886,641.294418744,67532741.1812,1615.42910348,68736501.5039,68957635.5648,3954.39690284,3947.37543712,0.0
1.18999381277,0.944341276489,1.02030694686e-05,6437380.90452,2.39547374454e-05,0.0,7948096.12812,687.0992818,656.485096025,65509687.1488,1869.83714143,53373163.2794,66610620.9287,4939.66431681,4928.37437715,0.0
1.05580474277,0.852800557239,9.68169792775e-06,-44637654.0941,1.5889885313e-05,0.0,5796485.05268,679.60066556,647.946938701,66901662.7852,1700.21269289,35670441.2208,70423698.7623,4382.64548724,4373.67452593,0.0
1.0823348494,0.814693475192,1.02983354299e-05,-27775311.983,1.82292227922e-05,0.0,5754326.55955,680.542957062,649.682833504,66801743.6159,1737.65433392,35882860.7386,69189646.7735,4492.77195986,4484.34786783,0.0
1.00451427764,0.824518464157,9.43725678429e-06,-95982199.3243,1.52312050073e-05,0.0,5903598.65301,679.200413554,644.615634731,67123600.5459,1630.63089968,70776618.8161,70840061.4318,4169.73876648,4161.27579743,0.0
1.13024929982,0.738598087477,9.40711643945e-06,-13407746.067,2.31131904524e-05,0.0,5653567.36702,683.934211957,652.690470612,66553316.5948,1800.36843616,42430584.5448,68613197.7915,4691.66484355,4682.5794917,0.0
1.05327014581,0.824366561109,9.62235228311e-06,-43024005.1809,1.54546201033e-05,0.0,5838489.01441,679.322541471,647.72126985,67018475.0457,1697.99956245,35392091.32,70726534.4551,4372.12437526,4363.68384539,0.0
1.132545956,1.15439968876,9.68649533013e-06,-12964730.2981,1.73008809237e-05,0.0,5577665.31486,683.820035017,652.822396791,66312378.7295,1799.36522488,42565628.6034,67539132.8038,4701.19826336,4690.74398755,0.0
1.10832920483,1.00806176595,1.01002519978e-05,-17876331.105,1.73151133526e-05,0.0,5646717.38845,682.111668423,651.298810662,66482611.4979,1768.52979241,39741311.62,68932871.9485,4600.67452925,4590.87337213,0.0
0.9930908515,1.03248341864,1.02322753461e-05,-95247557.595,1.33823853158e-05,0.0,5920548.49049,678.781144066,643.884267142,67169293.3253,1615.84345009,70130317.3277,70383005.9395,4122.32012458,4114.20404862,0.0
0.982195602172,1.09675895648,9.81659462029e-06,-94997755.4943,1.25778735245e-05,0.0,6015225.77896,681.322656359,643.200885807,67439352.9321,1615.45786504,69910075.3806,70150097.6646,4077.09394462,4070.00882935,0.0
1.04430097924,0.981426997566,1.03189171699e-05,-47880997.0659,1.43051964438e-05,0.0,5815315.99806,678.366674597,647.138185185,66949897.3317,1685.18386112,36725874.4848,70413582.7877,4334.89336483,4326.20161569,0.0
1.12131057984,1.05156656001,9.74245022344e-06,-14848472.6219,1.75223735748e-05,0.0,5617392.9643,683.061073629,652.071089256,66417038.9297,1785.04292147,41461780.0025,68725108.4879,4654.56021692,4644.4376197,0.0
1.11088787317,0.711272163761,9.73682510034e-06,-17292983.7796,2.15970716342e-05,0.0,5701941.47103,682.549074879,651.491118916,66671204.9797,1775.10767271,40112151.1577,69133934.546,4611.29556153,4602.55865261,0.0
1.12300616773,0.923180899706,1.01059064671e-05,-13496756.0804,1.97550098333e-05,0.0,5605646.86269,682.983680565,652.200179492,66379310.6793,1788.22746178,42265784.0953,67968926.4508,4661.59860225,4651.84070715,0.0
1.23097695664,1.1925214509,9.82287276946e-06,15187341.8519,2.21613328436e-05,0.0,16594909.2273,689.687745008,659.064872351,65114664.946,1917.59277238,60223103.3473,66802726.5844,5109.78534701,5097.61070394,0.0
1.10716958752,1.12341439178,1.01354548951e-05,-20387663.3303,1.61234989446e-05,0.0,5707013.62544,681.967439133,651.259601312,66689662.8866,1769.51916309,38329010.1137,68825094.0988,4595.8609578,4586.95217585,0.0
1.0764261929,1.02489671772,9.85551532445e-06,-31634791.8609,1.48986267066e-05,0.0,5801848.38876,680.224988087,649.149108449,66952026.5123,1729.48877634,35187531.1063,69677406.4791,4468.24512673,4459.8178005,0.0
1.081706325,0.893507322783,1.01880203363e-05,-28314691.6465,1.69662631333e-05,0.0,5761412.52107,680.556177204,649.644879636,66829294.7378,1736.50818071,35650916.2816,69229395.4797,4490.16295508,4481.65297821,0.0
0.945237830238,1.14742267462,1.00871411011e-05,-93338329.7079,1.2043381318e-05,0.0,6107310.70565,686.194535313,640.824998388,67680271.9879,1608.07864942,68449201.1088,68666429.8818,3923.68223332,3917.51409814,0.0
1.06319916171,0.907062607468,9.82845368707e-06,-38119269.1078,1.5370841885e-05,0.0,5817660.00928,679.640529267,648.348624507,66975755.7874,1711.68519953,34702744.234,70057504.7224,4413.33972026,4404.92748263,0.0
1.09875252792,0.786183287479,1.02751793394e-05,-22376556.1574,1.99017911644e-05,0.0,5700053.81618,681.546947661,650.740393232,66655882.7908,1758.88061019,37289265.9529,68366065.4664,4560.9217434,4552.14586243,0.0
1.07969638026,1.00799847391,1.02594006371e-05,-29802542.2031,1.57765155836e-05,0.0,5778329.41061,680.34968656,649.518931116,66878231.0409,1734.38141362,35368143.9919,69234306.4106,4481.81967446,4473.53535136,0.0
1.03780403673,0.918115496645,9.84079122841e-06,-56316977.0769,1.46461918817e-05,0.0,5846433.81801,678.52275063,646.735302356,67031521.6419,1676.72925744,40575176.9592,71098028.8866,4307.92455647,4299.42602414,0.0
1.05368438788,0.982073220462,9.8461683411e-06,-45033648.6029,1.45071751577e-05,0.0,5807659.20731,679.192530188,647.734078117,66934883.9714,1697.34069915,35819688.2705,70457834.2563,4373.84389409,4364.90806302,0.0
1.06815047636,0.961497845035,1.01198327835e-05,-34716563.1342,1.52021855165e-05,0.0,5797417.45205,679.674049063,648.670944675,66917765.2372,1718.17423809,34727124.1104,69893002.0093,4433.89262737,4425.40294058,0.0
1.16860902439,1.03301091685,1.00211432868e-05,1107317.07364,2.05193989228e-05,0.0,5460839.47978,685.77564114,655.157928069,65926686.8006,1844.68201514,50553068.4951,67633462.6233,4850.89606024,4840.29568754,0.0
1.21124467665,1.01382636926,1.00994236262e-05,11263376.0759,2.44637194191e-05,0.0,12567123.888,688.401143962,657.757485327,65186024.8011,1894.26155582,56961014.859,66449164.505,5027.87665277,5015.8317685,0.0
0.952922639534,1.10264264214,1.00746646921e-05,-93640429.9355,1.2587551953e-05,0.0,6087522.50331,685.286092258,641.319865207,67632735.6544,1610.72617094,68715193.288,68936232.501,3955.58187671,3949.31104006,0.0
1.00209757385,0.984563990626,1.06730109085e-05,-87359038.8255,1.37635760153e-05,0.0,5877003.61944,677.142237767,644.448447281,67058426.9687,1628.01490018,63272004.0073,70515510.322,4159.70702905,4151.44606274,0.0
1.06628096164,1.0686642154,9.94662511362e-06,-36259150.4142,1.3853178224e-05,0.0,5816023.5014,679.652484701,648.549104444,66978395.2247,1715.65087754,34651017.521,70205970.5218,4426.13227177,4417.67186229,0.0
1.15246845966,1.02196576152,1.00570040606e-05,-4684036.3838,2.09699761892e-05,0.0,5542736.38514,684.643066527,654.032655752,66216647.9841,1826.45853806,47492755.6102,68612186.4782,4783.89657605,4774.03275231,0.0
1.05401727279,1.27086715339,1.00168687583e-05,-41813234.7424,1.17787778459e-05,0.0,5839789.32076,678.99636985,647.826458372,67031530.7267,1698.64512708,35138545.6078,70642763.6692,4375.22569935,4366.7750757,0.0
1.15954232441,0.964457865506,9.81713520358e-06,-3272822.615,2.22715675573e-05,0.0,5510911.15685,685.484855285,654.612462562,66111394.225,1835.30281038,48241689.0096,68263689.7048,4813.26018863,4803.15608378,0.0
1.14527138289,1.04805902918,9.89119131216e-06,-8374677.11036,1.96118934541e-05,0.0,5552465.71425,684.289651867,653.505976026,66227138.5326,1816.74780475,45258505.9961,68433655.9642,4754.02151038,4743.86096304,0.0
1.18200110897,0.979288587609,9.72507011431e-06,3917906.19427,2.21239513911e-05,0.0,5892352.0644,686.789327322,655.971115718,65831451.0233,1861.38810904,52298956.7527,67115185.2269,4906.48660333,4895.66049488,0.0
1.13808015282,0.77955431622,9.79333688591e-06,-9856868.69589,2.37918661524e-05,0.0,5608584.89849,684.15717107,653.218829849,66419728.3996,1809.9073516,44689388.593,67984764.2075,4724.17071436,4714.96478625,0.0
1.14496034146,0.993269186485,1.02084114901e-05,-8104720.61218,2.13822536505e-05,0.0,5583910.18827,684.151524736,653.582516152,66344038.9847,1818.52856971,45352537.443,68409121.1398,4752.7303774,4743.41025074,0.0
1.03375671467,0.976919003364,1.02506531388e-05,-55744946.0545,1.39678502656e-05,0.0,5842072.24436,677.962863451,646.469441053,67016004.3266,1671.1771275,40206077.0816,70866101.1381,4291.1241226,4282.60224728,0.0
1.05230936242,0.734641424092,9.79978466185e-06,-42771198.9802,1.63525122243e-05,0.0,5828709.35208,679.165116588,647.655767377,66989785.9951,1696.80846257,35308190.0744,70646113.2963,4368.13616341,4359.71078426,0.0
1.10563066175,1.01958586718,1.0036441879e-05,-20779248.1745,1.72061764227e-05,0.0,5711015.91604,682.001319739,651.173590644,66696831.6477,1767.80639511,38075343.9565,68732915.7404,4589.47287692,4580.58769833,0.0
1.03114738313,0.749113282787,9.87392052667e-06,-60050135.7249,1.59003935798e-05,0.0,5900937.81167,678.204875636,646.330957485,67198892.7623,1670.32352731,42812851.4805,70967630.9925,4280.29278737,4272.94159831,0.0
1.18377233498,0.910260401301,1.00123956449e-05,4845922.3736,2.40198887121e-05,0.0,6475589.46959,686.754732228,656.061625386,65731661.6118,1863.62853107,52627192.7172,67029318.5905,4913.8389625,4903.07628309,0.0
1.10263772043,0.695940920102,1.01025204943e-05,-21654149.9644,2.16424145732e-05,0.0,5687634.40309,681.951703729,650.991920361,66621458.9999,1764.05860083,37641604.9652,68515760.9171,4577.0491775,4568.21205257,0.0
1.01033509419,1.07755133975,9.79491563899e-06,-85565951.7647,1.26206018742e-05,0.0,5972963.80004,677.894329216,645.000742784,67359164.3942,1642.25492811,61793904.5971,70994208.5021,4193.90097598,4186.84586311,0.0
1.08782998894,0.887158899377,9.65632242903e-06,-27473001.7807,1.69376523279e-05,0.0,5763912.31723,681.286578429,650.035158091,66844195.0727,1744.34601273,35997034.9368,69410066.8989,4515.58228409,4506.88025986,0.0
1.15535787697,1.03911154563,9.50169150578e-06,-5136331.90792,2.01865742582e-05,0.0,5552537.98344,685.29887576,654.315244784,66248492.4002,1830.17458737,47554444.7956,68798260.8928,4795.8905473,4785.85941213,0.0
1.01587118073,1.08503233237,9.96271662367e-06,-77134270.4633,1.25899564935e-05,0.0,5952552.19112,677.679811832,645.35331034,67319086.9857,1649.74701775,54901543.0945,70845603.1769,4216.88127121,4209.74790892,0.0
1.05740640557,0.96443768386,1.02808048238e-05,-38328549.1872,1.45183653621e-05,0.0,5787055.11641,679.107956588,648.040256701,66859167.9775,1702.45489303,34597633.5818,69713712.4743,4389.29398952,4380.35505452,0.0
1.09479734471,0.685285067735,1.02814442995e-05,-23756669.2101,2.13322361811e-05,0.0,5709120.46377,681.329820947,650.460427554,66682079.2044,1754.17761934,36797918.526,68863063.9891,4544.50377789,4535.88882242,0.0
0.964117002872,1.01946792224,9.8114411907e-06,-94160937.7812,1.35052535975e-05,0.0,6036142.25614,684.248335274,642.03369271,67470961.4086,1612.6545156,69173404.8923,69400720.8467,4002.04967892,3994.98646068,0.0
0.982563866536,0.731982033376,1.02321373719e-05,-94757189.6553,1.55591990009e-05,0.0,5930924.64925,680.369349666,643.208880019,67181695.4459,1609.68857698,69698528.6744,69937963.7218,4078.62260999,4070.67464803,0.0
1.20051037698,1.04324575825,9.93470964091e-06,9049197.14485,2.26396675773e-05,0.0,10496309.2375,687.777827549,657.15094341,65562462.8728,1883.12240928,55410886.6779,66871386.5992,4983.31857484,4972.1594132,0.0
1.14078413168,0.936692481786,9.42285194183e-06,-9999559.92969,2.05517337252e-05,0.0,5563720.91549,684.582797634,653.37006159,66266984.8579,1810.82433715,44291897.3723,67936889.0851,4735.3949306,4725.10634104,0.0
1.14082174013,1.03340082454,9.63737786874e-06,-9915114.23245,1.93425435038e-05,0.0,5603317.06999,684.338286547,653.384258776,66396332.5519,1812.26023261,44642612.095,68060735.828,4735.55104328,4725.87879356,0.0
0.96762676255,0.812966276949,1.00702185454e-05,-94099658.4378,1.53418631616e-05,0.0,6022455.42818,683.676833792,642.261689819,67455616.9719,1615.34618211,69119565.4021,69348141.4116,4016.61869135,4009.85431719,0.0
1.22843557043,0.937693999205,9.93826790587e-06,14682860.7421,2.70802026715e-05,0.0,16075657.6953,689.662129574,658.902933319,65055614.8762,1915.44367381,59802065.7815,66611882.6385,5099.23605285,5087.20141436,0.0
1.06605952626,0.829541532756,9.71659523841e-06,-37238734.0118,1.63362781874e-05,0.0,5809853.66835,679.912118721,648.53487783,66955354.2415,1715.51294117,34685249.4147,70191932.6941,4425.21309351,4416.75614905,0.0
1.00787286697,0.758528665012,9.85377157444e-06,-87948638.0491,1.51960572007e-05,0.0,5961870.74881,677.972051064,644.846455518,67321668.1248,1639.11015322,63807109.5247,70932047.3476,4183.68027079,4176.65984149,0.0
1.13186601676,1.04646587834,9.87192945582e-06,-12822131.6129,1.89489956851e-05,0.0,5560102.39617,683.728592564,652.779448345,66244840.9041,1798.56119646,42753467.5199,67327722.5438,4698.37583557,4687.93359362,0.0
1.12035094524,1.05315833445,1.0154177369e-05,-14134239.0648,1.77475355075e-05,0.0,5624212.10833,682.709160465,652.024641865,66433132.4823,1784.6606031,41841111.8028,68454374.9222,4650.57677369,4640.86451021,0.0
1.09509675814,1.11802901552,9.95500508056e-06,-24344409.5111,1.50414147993e-05,0.0,5752366.42367,681.342647068,650.452872298,66816851.8391,1753.98477732,36734944.5596,69176323.7353,4545.74664304,4537.02812038,0.0
1.11190183951,0.897648452887,1.00346109316e-05,-16778157.5137,1.89933508355e-05,0.0,5622764.9788,682.412874006,651.505883287,66408393.4922,1773.06266027,40413836.9241,69102468.4055,4615.50453581,4605.5441462,0.0
1.20867792738,1.16256601425,9.85079182905e-06,10172293.8402,2.11745334768e-05,0.0,11514356.6779,688.246602002,657.590604189,65377991.7096,1891.63490315,56191100.5169,67110870.8422,5017.22207655,5005.35793146,0.0
1.10411982884,0.838896282681,9.75304841655e-06,-20323640.1996,1.88314919034e-05,0.0,5639203.51261,682.252165607,651.060818052,66455476.7738,1762.60974173,38724193.311,68528408.1419,4583.20140951,4573.09157091,0.0
1.12111764006,0.866447495507,1.0178737142e-05,-13824781.2064,2.03983797353e-05,0.0,5604103.99781,682.842752896,652.076198395,66372807.3923,1785.83667764,41985262.0591,68195095.7054,4653.75932389,4644.03415822,0.0
1.06066279332,0.792361255717,1.00490892053e-05,-38390404.7807,1.65596098492e-05,0.0,5808353.2589,679.381342253,648.184079143,66946761.6962,1708.43139301,34682678.2294,69907229.6929,4402.81125507,4394.43857915,0.0
1.06242570687,1.21948675154,9.82595071065e-06,-38562505.1361,1.22974004881e-05,0.0,5838194.79177,679.485526109,648.300130166,67037349.3943,1710.44601545,34758185.75,70073837.8079,4410.12910922,4401.72894385,0.0
1.0763518148,0.83072961242,1.03113965918e-05,-29747547.707,1.71947671423e-05,0.0,5731402.06462,680.198470726,649.270921034,66722701.2634,1727.72731103,35180943.6107,69125305.0013,4467.93638323,4458.84971528,0.0
1.07357585791,0.907754065776,1.01150942046e-05,-31509484.0336,1.61949471339e-05,0.0,5779993.26307,679.920657123,648.953593241,66875344.4359,1725.15543889,35169682.2044,69483765.2142,4456.41338618,4447.84027224,0.0
1.04256270388,1.03602862635,9.53806842727e-06,-52664022.58,1.34105704399e-05,0.0,5886729.23298,678.794080725,647.034495738,67156947.5286,1684.27337141,38797454.7099,71197910.5225,4327.67778381,4319.79566052,0.0
1.19368142417,1.15551996781,9.70177732831e-06,5769300.71482,2.00782074567e-05,0.0,7370174.99576,687.494170247,656.693666319,65600162.1583,1873.9930375,53229424.0376,66877386.1099,4954.97159173,4943.28376525,0.0
1.0870665865,0.996622923622,1.01000373063e-05,-26779603.4354,1.61452920387e-05,0.0,5757194.82643,680.87299871,649.975460942,66823858.1955,1743.45380392,36037453.6721,69266144.1208,4512.41340056,4503.82067997,0.0
1.06456904599,0.655096612197,9.83691686227e-06,-36856595.6487,1.82560508486e-05,0.0,5757542.10389,679.847808623,648.421956118,66785336.7015,1711.54754208,34737443.0913,70001062.5424,4419.0261099,4409.85969384,0.0
1.13457116287,0.763706544737,1.03347873551e-05,-10796714.7588,2.43871860927e-05,0.0,5593327.84296,683.624930997,652.991180758,66362992.3022,1805.52484013,43760137.3759,67765940.7069,4709.60489707,4700.47671766,0.0
1.16387773117,0.92469061877,9.84887523554e-06,-623837.843833,2.19542546529e-05,0.0,5474017.4163,685.684996649,654.867726891,65979473.4369,1839.213123,49706445.9379,67946039.0772,4831.25646209,4820.7309052,0.0
1.12053968987,0.816484305653,1.01923433698e-05,-13927366.5586,2.105834087e-05,0.0,5600647.01043,682.82260012,652.037053206,66361371.6489,1785.14465586,41917862.098,68266966.3771,4651.36025265,4641.64481355,0.0
1.0692211613,1.22635384023,9.96458176864e-06,-34091083.6313,1.26178396738e-05,0.0,5817138.94866,679.728620604,648.735725249,66977118.1818,1719.19507138,34842635.6637,69991732.4019,4438.33704056,4429.83086073,0.0
1.20910352355,0.925000531365,1.00876910035e-05,10735454.8222,2.59852243731e-05,0.0,12041761.5393,688.32529501,657.603234201,65190569.631,1891.96133112,56526370.5219,66699268.0572,5018.98872626,5006.98800233,0.0
1.20886687221,0.705679690654,9.56756751287e-06,10186505.8037,3.04624290903e-05,0.0,11648641.8096,688.797654087,657.616181213,65283972.9864,1893.53180998,56242159.8673,67026909.028,5018.00638654,5006.32972179,0.0
0.996846847395,0.821678858299,1.0118172213e-05,-95382455.4107,1.51799643191e-05,0.0,5902927.76209,678.71618647,644.124328224,67121577.6479,1620.96913607,70249217.3287,70602967.2478,4137.91126354,4129.73480659,0.0
0.983124922793,1.03435470835,1.02277446393e-05,-94836606.5394,1.32697448557e-05,0.0,5945615.42669,680.182118131,643.245136267,67227731.889,1609.67066786,69768494.0694,70008305.9233,4080.95155451,4072.99480907,0.0
1.25039900383,1.09921383011,9.69061049145e-06,19570268.405,2.53380386173e-05,0.0,21146873.1407,690.973430819,660.244933873,64942330.5544,1941.169334,63762560.0189,65262465.7972,5190.4062649,5178.27768267,0.0
1.1336805974,0.815525025898,1.03077877913e-05,-11081231.026,2.33335810065e-05,0.0,5602487.26064,683.557360372,652.932706102,66391221.5563,1804.33462562,43619041.7062,67715865.7832,4705.90815981,4696.79407863,0.0
1.07242227911,1.2126539791,9.68531584946e-06,-33977471.8655,1.26547936575e-05,0.0,5830187.02827,680.107116811,648.940705592,67027963.3416,1724.11618513,34843609.7419,70110362.4729,4451.62488059,4443.25944911,0.0
1.19488026669,1.04923729298,9.72074434186e-06,6640372.20573,2.18402615607e-05,0.0,8193222.81889,687.576180226,656.797509788,65695999.5572,1877.04119507,53888092.221,66860214.1652,4959.94798703,4948.8857989,0.0
0.993109474031,0.884091734744,1.03386344617e-05,-95194958.5558,1.45227214669e-05,0.0,5907531.54891,678.577542018,643.882876393,67132948.4111,1615.98581833,70084098.4825,70315594.8917,4122.3974267,4114.28105182,0.0
1.08804341962,0.81060191271,1.01913161172e-05,-26124480.8342,1.8530032859e-05,0.0,5737631.87739,680.925770875,650.019391986,66766024.9623,1744.87257825,36127157.937,69155244.2695,4516.46823484,4507.86026435,0.0
1.05977198529,0.952560515521,9.84734347558e-06,-39681923.6189,1.47289131564e-05,0.0,5827959.29418,679.421626498,648.12365785,67001738.1828,1707.09439048,34846013.8675,69828074.417,4399.11351094,4390.75471152,0.0
1.00894360651,0.741699172402,1.00581790693e-05,-82059785.5022,1.55617819671e-05,0.0,5887513.0296,677.856575532,644.897914846,67081287.0478,1637.68557044,58795140.6351,70742321.1344,4188.12491062,4179.97120959,0.0
1.2101523562,0.915451954083,9.59553327354e-06,10333226.5139,2.54866303287e-05,0.0,11681371.3662,688.672947867,657.68668114,65320978.0414,1894.07710744,56330465.0802,67083522.7446,5023.34243059,5011.423685,0.0
1.08750505818,0.650213077856,9.63148598097e-06,-27570077.3105,2.03795887394e-05,0.0,5746883.56423,681.404572774,650.015655484,66790496.5988,1744.15851957,35962402.7335,69354528.002,4514.23349651,4505.53596985,0.0
1.04094527625,0.848890434312,9.96014066899e-06,-51310868.633,1.52980591803e-05,0.0,5825175.70067,678.55087596,646.918152291,66973589.3584,1680.51299332,38118011.8801,70842007.0058,4320.96384171,4312.23927512,0.0
1.12278050207,1.0283724047,1.02784857298e-05,-13748334.9286,1.83635874766e-05,0.0,5613306.87981,682.802380965,652.187519628,66395575.3927,1788.12806689,41965488.4857,67923881.9908,4660.66186409,4651.00814658,0.0
1.08290158149,0.79325414699,9.78024904094e-06,-29210341.9248,1.80385068511e-05,0.0,5768049.67955,680.954843398,649.71672499,66857640.1798,1738.17362912,35704912.5418,69343417.8566,4495.12446477,4486.59670267,0.0
1.08150552417,0.891200673371,9.90350834228e-06,-29349599.468,1.67778951512e-05,0.0,5773529.20697,680.745264531,649.625052714,66862538.5195,1736.25926744,35623701.3899,69330250.0037,4489.32943083,4480.82331594,0.0
0.916247844878,0.920739480609,1.01056469445e-05,-91769383.0186,1.38634144043e-05,0.0,6096792.46817,690.481337474,638.939112684,67589627.7932,1599.16860626,67068421.9206,67589627.7932,3803.34480409,3796.45189791,0.0
1.06313134121,0.968370290472,1.03988090542e-05,-35471916.972,1.51895882006e-05,0.0,5803053.35521,679.177971062,648.347555706,66934049.6255,1711.71651291,34629664.7602,69972602.3764,4413.05819736,4404.74061655,0.0
1.07450400441,0.808513980983,1.02907295245e-05,-30717224.5104,1.76751888993e-05,0.0,5764093.11183,680.081038596,649.152456341,66822580.2878,1726.78849809,35241341.7067,69211085.0035,4460.26612231,4451.77183584,0.0
1.0358503323,1.28849929934,1.01998861458e-05,-54271113.7988,1.13404225888e-05,0.0,5857449.36736,677.966638853,646.59504244,67063318.978,1673.74897785,39496350.6165,71147164.4871,4299.81472938,4291.25896036,0.0
0.967238043829,0.966068875927,1.00141956934e-05,-94118674.1011,1.42044802898e-05,0.0,6032376.42182,683.829093321,642.237120143,67484666.586,1615.71650581,69136281.375,69364674.086,4015.00511993,4008.24623246,0.0
1.30903014582,0.994624385363,9.93774313217e-06,29020209.7904,3.47127928825e-05,0.0,30513125.4709,694.865814217,663.984801568,63699815.5109,2005.24047457,69254203.162,70438314.9478,5433.7841353,5419.92195004,0.0
1.05451249768,0.670069616866,1.00179751797e-05,-42485273.8721,1.76269709328e-05,0.0,5797019.47799,679.164024828,647.774655391,66901841.0607,1699.49255848,35222910.3538,70447938.4837,4377.28137787,4368.66020043,0.0
0.973797483665,1.14575905949,1.00742232074e-05,-94523646.4711,1.23383409842e-05,0.0,6010049.68036,682.119920501,642.654646138,67410997.1838,1612.252195,69492786.0753,69725471.365,4042.23335469,4035.02759185,0.0
1.0834725506,1.08301233625,1.0490957258e-05,-26961044.8138,1.5188448193e-05,0.0,5761237.01287,680.355035762,649.745543507,66828069.3271,1739.00580463,35893099.8029,69157989.3059,4497.49455754,4489.05421462,0.0
1.15302758489,0.863283183515,1.03654117169e-05,-5428189.10905,2.45767783158e-05,0.0,5533937.02288,684.771904456,654.211699754,66164652.337,1828.80639697,46729399.1266,68397556.4212,4786.21750488,4776.76971173,0.0
1.12602583742,0.750668865435,1.02460720077e-05,-13115640.3378,2.34390642816e-05,0.0,5625270.53901,683.137470796,652.421885128,66444888.8773,1794.63069029,42456660.2426,67927828.2855,4674.13325113,4665.14081189,0.0
1.10273989811,0.899752576254,9.74304999047e-06,-20798066.6521,1.78950431023e-05,0.0,5650026.41081,682.145826291,650.977582209,66486873.9385,1760.74525688,38464685.0916,68465096.7218,4577.47331705,4567.38919292,0.0
1.08188383045,0.891041252226,9.84382804756e-06,-29416527.1175,1.67647695933e-05,0.0,5775009.12849,680.803109467,649.646529169,66878364.9939,1736.75170037,35652889.2632,69349527.87,4490.8997802,4482.38778513,0.0
1.15172354824,1.00800897271,9.85642535023e-06,-7740966.71628,2.13188119274e-05,0.0,5475483.0271,684.989731745,654.034816099,66007752.0616,1823.59117841,45434678.6485,68390833.7713,4780.80444874,4769.90672174,0.0
1.08124332311,0.844779205477,9.73291493242e-06,-30000634.3927,1.72065919732e-05,0.0,5782261.65062,680.67494724,649.471572019,66897980.0247,1735.95129687,35568030.2106,69377841.0608,4488.24103423,4479.73881251,0.0
1.15210495706,0.983695202009,9.67603820236e-06,-5431534.09512,2.09437761521e-05,0.0,5522804.01433,685.04545116,654.090068447,66150608.6793,1824.94011591,47233786.3426,68622012.6454,4782.38767676,4772.02147728,0.0
1.05196663238,0.961122230098,1.02252881141e-05,-43895109.3332,1.47810300587e-05,0.0,5848680.12995,678.700635369,647.627430617,67072947.1553,1697.83419427,35607949.6584,70464651.6861,4366.71349101,4358.96836392,0.0
1.03943749074,0.872985108943,1.01150862967e-05,-52846512.4836,1.51269740056e-05,0.0,5830071.12196,678.360924572,646.831152166,66984940.7776,1678.98599553,38752053.7735,70927591.7864,4314.70502406,4306.18019333,0.0
0.943672067352,0.665025350326,1.001115383e-05,-93209771.8491,1.60179860644e-05,0.0,6090695.16685,686.84637571,640.724488936,67626489.7389,1608.94372386,68336097.5364,68552334.0008,3917.18275158,3911.03776571,0.0
1.03713936048,0.904415895141,9.62533904722e-06,-57542575.2527,1.46693417959e-05,0.0,5902639.27638,678.603555082,646.711446628,67211813.5365,1678.17868714,41379434.7818,71221993.8751,4305.16548535,4297.72953474,0.0
1.02781562598,0.941188138264,9.78072355111e-06,-64307423.8224,1.40998971606e-05,0.0,5921946.39939,678.124049928,646.110747465,67256009.6106,1665.75345029,45501677.9822,70948965.0116,4266.46266344,4259.1592205,0.0
1.1382235874,0.920179297342,9.96046730507e-06,-8870198.11954,2.11378752285e-05,0.0,5550061.68076,684.04765565,653.196766054,66221133.8567,1807.25505145,45229165.5079,68057547.512,4724.7661113,4714.62862499,0.0
1.17740762154,1.18038481325,9.65791056962e-06,2283622.80448,1.84717038013e-05,0.0,5438343.73395,686.465307838,655.690063805,65885256.5212,1854.90595398,51371101.8659,67065045.8206,4887.41903701,4876.35289576,0.0
0.996180862807,1.04012670783,9.73581213432e-06,-95770606.4487,1.30656099108e-05,0.0,6003018.90874,679.138424081,644.107153188,67430127.4606,1623.04082842,70590584.0007,70930138.5559,4135.14676151,4128.29276453,0.0
1.03025602679,0.999662853462,9.94208375494e-06,-60271681.048,1.36612514799e-05,0.0,5912375.30295,678.035700741,646.273259186,67232531.1035,1669.01402977,42917022.3532,70958756.9838,4276.59276721,4269.25436479,0.0
1.16814684087,0.900852355588,1.02487988145e-05,1151394.3609,2.31245085877e-05,0.0,5402956.19223,685.746349867,655.113870296,65731989.0347,1843.1625608,50299122.6104,67360719.7145,4848.97753645,4837.98595538,0.0
1.06831527666,0.888169613452,9.80315113563e-06,-35218309.4587,1.56153192139e-05,0.0,5770632.01729,679.978765156,648.664916504,66828684.8477,1716.60406503,34627897.9366,70098427.8434,4434.57671342,4425.36674001,0.0
1.08252400973,1.06940301795,9.65503857329e-06,-29799212.3874,1.46374403866e-05,0.0,5797405.4269,680.709424297,649.556886031,66945217.9475,1737.45070127,35624444.4928,69451682.7589,4493.55716439,4485.03521493,0.0
1.12209041309,1.01598269983,9.94924049851e-06,-14277651.5274,1.84080059927e-05,0.0,5653051.19812,682.943625685,652.14038333,66523811.9153,1788.16682796,41708510.206,68782475.0834,4657.79730474,4648.45732731,0.0
1.13391027575,0.756226587226,9.92518490982e-06,-10227569.9878,2.33600704594e-05,0.0,5580912.49907,683.876658892,652.940364431,66316636.0892,1803.07989207,44372701.7487,67700715.7754,4706.86155464,4697.22776106,0.0
1.10791764793,0.973578925718,1.04977139671e-05,-17215761.4753,1.80040072422e-05,0.0,5651790.68196,681.80302189,651.268775146,66493121.6484,1769.12390936,39968069.9641,68926809.4866,4598.96615656,4589.56021973,0.0
1.13296136395,0.930850025184,9.68442653332e-06,-11691200.5921,2.02962317564e-05,0.0,5611525.71028,683.882778778,652.871101822,66418732.6856,1801.96505726,43435418.9108,67532417.3562,4702.92262176,4693.27576662,0.0
1.15103522371,0.984937884167,1.01883068048e-05,-6485550.51318,2.20448146439e-05,0.0,5562793.88937,684.622860105,654.041803218,66287445.8007,1826.2469979,46294348.4801,68644826.7782,4777.94721362,4768.52974672,0.0
1.09227346523,0.962434666073,9.82240716494e-06,-25631356.3533,1.66386195202e-05,0.0,5754756.82685,681.345297752,650.276499743,66818604.0597,1750.43716616,36398086.7968,69341047.5447,4534.02715417,4525.35290896,0.0
0.983742132774,1.01820372596,1.05590681557e-05,-94783377.0879,1.32556888926e-05,0.0,5929561.91417,679.219112561,643.282098638,67186498.2037,1606.68004487,69721653.9884,69961780.6295,4083.51359314,4075.54949293,0.0
0.994724742255,1.06068700442,9.75148763546e-06,-95422738.2402,1.3328795653e-05,0.0,5935405.52353,679.76731532,643.990559677,67212571.0537,1618.02595607,70284549.6752,70533878.6425,4129.1024051,4120.96260517,0.0
1.0070148926,1.00729089606,1.00395793413e-05,-88692831.3341,1.36156293861e-05,0.0,5889323.46211,677.924844413,644.771791599,67091998.5231,1634.23634597,64444639.0416,70777936.4839,4180.11881918,4171.69620242,0.0
1.02215498944,0.957428691243,1.06585983611e-05,-66332654.4653,1.40637401829e-05,0.0,5827479.21666,677.21748081,645.718078573,66957599.9847,1654.49500444,46784820.9411,70367023.0248,4242.96536117,4234.25176153,0.0
1.10741250817,1.05528866854,9.71056681499e-06,-19340594.4355,1.62496556762e-05,0.0,5696188.6467,682.300498332,651.27800091,66643477.8236,1768.51007673,39189136.5442,68794804.3433,4596.86932141,4587.4702043,0.0
1.10721945134,0.964284102054,1.04025275274e-05,-17664181.1059,1.79650393743e-05,0.0,5657815.25886,681.836995468,651.231652522,66508107.4793,1768.24519714,39792497.8964,68878717.9625,4596.06794251,4586.67354923,0.0
1.13897865052,1.03055361236,9.57765856425e-06,-11501505.0658,1.93085174733e-05,0.0,5555540.3611,684.364232047,653.25005894,66240319.7668,1808.0804076,43565216.3213,67726299.568,4727.90037831,4717.43214584,0.0
1.09297194414,1.09942433999,1.00485088154e-05,-25001155.7883,1.52552979738e-05,0.0,5750354.11919,681.149048712,650.304712587,66809290.597,1751.08615378,36535234.5986,69178626.0696,4536.92654013,4528.24145893,0.0
1.09191129138,0.853469633887,1.01456980204e-05,-24970311.0481,1.82316273767e-05,0.0,5731420.30642,681.128704899,650.236468774,66752621.0996,1749.89744108,36462991.2097,69065398.463,4532.52377052,4523.85530784,0.0
1.01501906904,0.684648918945,1.04528008868e-05,-70867939.5656,1.59688915572e-05,0.0,5875658.17293,677.362743426,645.281344774,67076521.3286,1647.08851929,50072267.1499,70475833.6703,4213.34415559,4205.51785371,0.0
1.09823023362,1.03922405064,9.78535651311e-06,-23796211.0706,1.61212263373e-05,0.0,5745392.52587,681.691727422,650.673785337,66797347.9169,1758.16024694,36972559.1405,69207456.7565,4558.75369976,4549.98592728,0.0
1.07255411723,1.1915765346,9.95531020216e-06,-33473019.886,1.30239356576e-05,0.0,5806897.42209,679.915209645,648.921583905,66952373.7096,1723.78660193,34932668.9651,69773113.351,4452.17214062,4443.61332799,0.0
0.979676109957,0.958334985303,9.89223101787e-06,-94846590.9781,1.38024485172e-05,0.0,6010116.05144,681.559622841,643.038365511,67420782.0314,1614.35921479,69776997.9543,70015836.2007,4066.63553243,4059.58815099,0.0
1.10193046798,1.21477854307,1.0147613411e-05,-21882857.7902,1.47162895874e-05,0.0,5727929.85459,681.638777311,650.949072013,66745051.2593,1762.66169779,37588454.701,68605117.3741,4574.11337259,4565.28740931,0.0
1.0434160894,0.810938289312,1.03410791086e-05,-48166722.264,1.58254039853e-05,0.0,5806411.53755,678.372173515,647.083231719,66921501.9664,1684.12415577,36797587.6146,70564656.6929,4331.2201871,4322.54286068,0.0
1.06883648114,0.956652856213,1.01859344361e-05,-33376601.1099,1.53997444829e-05,0.0,5792736.12591,679.632192112,648.695388013,66905581.9513,1718.88634185,34877512.0463,69730750.0509,4436.74023321,4428.24008612,0.0
0.983290151109,0.763037169743,1.02304021996e-05,-94793458.2439,1.53022777153e-05,0.0,5930978.42325,680.257495396,643.255460545,67183463.9416,1609.84073955,69730551.7818,69970108.6577,4081.63741725,4073.67804068,0.0
1.06966102585,0.789178474703,9.90022511965e-06,-34377091.7324,1.72641500763e-05,0.0,5801157.43296,679.96848053,648.768762676,66932332.6699,1720.76629109,34740754.8634,69994865.6684,4440.1629183,4431.83834279,0.0
0.978178468101,1.029856026,9.65562366217e-06,-94819410.6876,1.34670365387e-05,0.0,6027994.04504,682.585424161,642.944489849,67474775.7466,1617.77234228,69753040.1193,69990071.179,4060.41882109,4053.47391368,0.0
0.974758078863,0.853567290167,1.00527032753e-05,-94429153.8696,1.50531778796e-05,0.0,5974538.36428,682.337446799,642.71193106,67308220.6958,1612.97245583,69409725.3233,69643255.6704,4046.22078536,4038.71359228,0.0
1.02716301539,1.09361626819,1.02503369079e-05,-61656125.8063,1.26954131487e-05,0.0,5863636.6669,677.682304597,646.05180687,67069078.4686,1662.33697863,43706505.9581,70952658.3068,4263.75367688,4255.33819166,0.0
1.02007644655,0.814915682921,1.02326772808e-05,-69613123.7186,1.51737231967e-05,0.0,5859603.44844,677.646302573,645.597108909,67043870.727,1652.86942221,49161927.398,70830959.0048,4234.33732963,4226.03588932,0.0
1.13158353316,0.873892912834,9.89159055965e-06,-11705019.0823,2.11483901767e-05,0.0,5603265.545,683.684538152,652.780387533,66382247.8697,1800.21379254,43289753.2049,67484276.0957,4697.20324615,4687.60555852,0.0
1.12380492405,0.950173730986,1.02268547255e-05,-13252501.9083,1.95874337342e-05,0.0,5600244.38488,682.96114386,652.251797264,66348965.2583,1789.37311664,42342361.8793,67650924.072,4664.91423973,4655.1424564,0.0
1.12738450073,0.947054954588,9.70224029929e-06,-13042103.0228,1.95678508805e-05,0.0,5634473.50369,683.486334619,652.48728926,66481214.467,1794.79492644,42489263.3307,68234541.0182,4679.77306253,4670.21932166,0.0
0.898107055061,0.880567232927,1.04880570204e-05,-90907797.0637,1.33015800707e-05,0.0,6123153.6799,691.39140672,637.771353606,67692919.9481,1589.34376566,66310533.526,67692919.9481,3728.04238556,3721.69758548,0.0
1.11423972968,0.942090608497,9.56583801863e-06,-19072558.7808,1.84096595061e-05,0.0,5695638.98455,682.842495041,651.70038966,66663170.2264,1778.81035346,39182677.9298,69073670.9104,4625.2091179,4616.08609992,0.0
1.12273690344,0.946451524311,9.86710473877e-06,-14237020.046,1.93474812061e-05,0.0,5649207.48963,683.069205944,652.18322137,66514978.9625,1789.0870169,41718473.9245,68787817.9901,4660.48088618,4651.13038272,0.0
1.00776340826,1.1688431574,9.6371369758e-06,-90278729.3133,1.18928889838e-05,0.0,5989780.34005,678.182829475,644.847536548,67403122.3393,1638.69163257,65805897.1015,71492488.5142,4183.22590769,4176.20701855,0.0
1.2153180454,0.800611100835,9.84896961777e-06,12087679.1493,2.87574334968e-05,0.0,13342990.3671,688.928054479,658.047083295,65246023.263,1901.14915711,57655211.5392,66316343.3822,5044.78520646,5033.24256792,0.0
1.11921797417,0.863058623456,9.92646355882e-06,-15055200.4702,2.01681965956e-05,0.0,5651606.85556,682.842502715,651.951505512,66517483.0341,1784.60986654,41269663.472,69158396.6512,4645.87381078,4636.58054393,0.0
1.06200650814,0.872870842001,1.03992271841e-05,-36770817.1831,1.60052818419e-05,0.0,5799822.41116,679.160099461,648.271970445,66923023.3837,1710.46765209,34600316.2944,69985036.3053,4408.38901529,4400.09004049,0.0
1.07603246473,1.13540604167,1.03241660186e-05,-30463344.4468,1.40400740257e-05,0.0,5790810.50828,680.019269925,649.261814459,66918335.4615,1729.23259927,35271745.2162,69263423.0589,4466.61076109,4458.2855623,0.0
1.12885221204,1.00306570124,9.75984617677e-06,-12513348.4763,1.89832761969e-05,0.0,5628319.00455,683.527839145,652.595050936,66466043.563,1796.59973419,42749939.6023,67894056.2516,4685.86553218,4676.28753506,0.0
1.07033018109,1.03466562974,9.96169818344e-06,-33560753.0535,1.44835730854e-05,0.0,5803426.46469,679.849691845,648.796514419,66937085.4507,1720.78833964,34891103.7363,69868856.2644,4442.9405817,4434.41699992,0.0
0.99036036537,1.09840719923,9.97059575674e-06,-95238673.2547,1.2611663606e-05,0.0,5938987.20236,679.595102386,643.710613602,67218701.6957,1612.59666836,70122480.5168,70367897.8619,4110.98587665,4102.8337336,0.0
1.15679444165,0.812533919987,1.01359243426e-05,-4897004.2511,2.56970403211e-05,0.0,5526595.97935,685.177847882,654.450464634,66181615.8383,1833.75828969,47120092.8612,68391158.5355,4801.85372729,4792.34359939,0.0
1.03441580402,1.04450807743,1.05435183619e-05,-55761681.2493,1.35294592979e-05,0.0,5840004.65344,677.717196842,646.505871097,67018766.9458,1672.68538628,40209146.3199,70839348.8403,4293.86000249,4285.58985055,0.0
1.11663372315,0.877546951089,1.01822836086e-05,-14981951.7363,1.97794174521e-05,0.0,5623206.33866,682.533679815,651.773809519,66424751.262,1780.03219431,41246010.8422,69011135.2767,4635.1465848,4625.49586779,0.0
1.0963872831,0.913172979076,9.72026925282e-06,-24302885.2702,1.71822666929e-05,0.0,5717497.41796,681.692655969,650.526277806,66694946.0366,1754.56216522,36737500.9048,69285486.9598,4551.10361215,4541.87505378,0.0
0.973980289553,1.27935676722,9.96036922497e-06,-94628195.4438,1.12436497495e-05,0.0,6039320.83425,682.240157508,642.672637386,67506070.1143,1613.62177534,69584651.4327,69818465.0542,4042.99218193,4036.10951775,0.0
1.08649870109,1.0872638412,1.01855907568e-05,-26733408.1108,1.5022011389e-05,0.0,5761533.77891,680.740040157,649.938005747,66837975.21,1742.62540724,36033477.0488,69255212.4379,4510.05610822,4501.47224813,0.0
1.10592024806,1.19684685668,9.80356136178e-06,-19381220.134,1.4504881582e-05,0.0,5709344.21085,682.083905199,651.185492116,66682750.1564,1766.55514245,39139905.2783,68761506.552,4590.6749497,4581.30128321,0.0
0.971533072317,0.835629619134,1.03483856339e-05,-94287491.0656,1.49549207153e-05,0.0,6018534.57083,682.164937403,642.515684843,67460530.6808,1613.33580107,69285046.2713,69516272.3504,4032.83378319,4026.31119539,0.0
1.0545674217,0.849781043345,9.37781831905e-06,-46581631.2382,1.57498429268e-05,0.0,5814189.37841,679.665487813,647.793634812,66952908.8359,1698.49791707,36347615.5177,70728569.5323,4377.50936748,4368.55891292,0.0
0.948166301951,0.975533056355,1.00830031825e-05,-93423610.7797,1.3620242366e-05,0.0,6091704.18249,685.924717778,641.013546214,67637470.9825,1609.2598118,68524315.8467,68742914.9141,3935.8383194,3929.63113431,0.0
1.04370075589,1.03238792077,9.35066093602e-06,-52553969.9511,1.34818689467e-05,0.0,5854016.56647,679.112642545,647.105701173,67060424.0525,1683.92919818,38634456.1728,71280119.2008,4332.4018377,4323.63204521,0.0
1.04846142405,0.870709758965,9.83872566254e-06,-46587615.6147,1.5289209641e-05,0.0,5818056.25423,679.05978557,647.48240342,66954804.3943,1690.63902766,36243608.166,70391331.5576,4352.16337123,4343.46090249,0.0
0.970818939716,1.17080118489,1.03100414875e-05,-94325761.2203,1.21881228307e-05,0.0,6037867.34608,682.2468462,642.470156984,67517761.7049,1613.35496161,69318704.1203,69549491.4501,4029.86941876,4023.35657028,0.0
1.05543197487,0.698856046257,9.95189652738e-06,-42240808.9715,1.73642081953e-05,0.0,5799144.06956,679.248735137,647.831613689,66909146.8452,1700.69136201,35146371.4946,70352828.138,4381.09812769,4372.46075663,0.0
1.03143907316,1.05534266369,1.02284983764e-05,-59269492.6322,1.33837143654e-05,0.0,5848060.94881,677.874001649,646.317669875,67030010.5058,1667.87217922,42234477.575,70971005.1558,4281.50359269,4273.01949338,0.0
0.971520933795,0.863899588604,1.01042571079e-05,-94528094.948,1.47776359182e-05,0.0,6031677.87673,682.258918564,642.517873068,67487073.0848,1612.20531208,69496756.8204,69729629.2267,4032.78339618,4026.26673951,0.0
1.0246214049,1.09231794732,9.91256416485e-06,-67015865.0064,1.26692537498e-05,0.0,5932668.61543,677.863736467,645.906905118,67283656.6578,1661.43269078,47343509.6892,70994749.1228,4253.20345174,4245.94565955,0.0
1.07711434724,0.900122700166,9.94222962782e-06,-30964077.5424,1.63982038304e-05,0.0,5788457.6999,680.255209411,649.196132872,66913699.9933,1730.48863957,35268494.5727,69397735.6729,4471.10165539,4462.66367241,0.0
0.988474236745,0.921066446808,9.66298508405e-06,-95220718.3962,1.45281285048e-05,0.0,5996621.82771,681.123136771,643.605724243,67395747.0215,1619.91813571,70106394.492,70348485.7975,4103.15655673,4096.0636268,0.0
0.971626930886,0.894513871503,1.04393523391e-05,-94280558.5607,1.44629341679e-05,0.0,6017084.80361,681.866834676,642.521139358,67457600.3211,1612.33703315,69278974.6086,69509883.2903,4033.22339011,4026.6995218,0.0
0.997609184746,1.11513636392,1.04335763643e-05,-95454651.4404,1.25816894021e-05,0.0,5905832.39205,677.848858891,644.16732186,67136166.0735,1621.89752061,70312808.0386,70557543.2388,4141.07572588,4132.88719406,0.0
1.03282479692,0.914699006306,1.03428103983e-05,-57218149.8174,1.46886057257e-05,0.0,5832309.20319,677.874637539,646.404888559,66986648.1717,1669.81744384,41027277.206,70824648.5421,4287.25573201,4278.74924661,0.0
1.05759745775,1.01482967168,9.82939024932e-06,-43107778.8275,1.43113076916e-05,0.0,5800898.51397,679.362930588,647.960540537,66921667.299,1702.51065189,35317795.5062,70070445.0261,4390.08704712,4381.08634098,0.0
1.05969154433,0.888377812138,1.0053950379e-05,-39746106.1378,1.56163938243e-05,0.0,5797006.73712,679.324664659,648.114716278,66912484.2607,1706.2182791,34836015.6275,69726497.164,4398.77960051,4390.07363711,0.0
1.01633016705,1.07496198782,1.01134326916e-05,-74068108.3859,1.2917958137e-05,0.0,5887564.37426,677.640517229,645.363937953,67115286.7879,1647.67236423,52502855.7692,70798546.7521,4218.78652342,4210.54495232,0.0
1.00149185854,0.938261528022,1.01626007807e-05,-94828536.3858,1.3872497532e-05,0.0,5914663.69325,677.97356786,644.422557089,67163116.4055,1627.9396734,69767296.4683,70722309.857,4157.1927048,4149.18890232,0.0
1.07205631378,0.872514001684,1.01860953139e-05,-31881063.0007,1.65440237355e-05,0.0,5778848.42995,679.794976599,648.853567279,66869731.9252,1723.18963134,35109483.7851,69496578.4837,4450.1057585,4441.55506255,0.0
1.00309647287,1.06465070612,1.01860733321e-05,-92082456.91,1.27547717172e-05,0.0,5970186.70613,677.62900184,644.548386304,67347440.9683,1632.42185347,67352937.9342,70874668.659,4163.85345888,4156.90287402,0.0
1.0593616001,0.9117687409,9.94216559537e-06,-39463555.6581,1.51648129754e-05,0.0,5823042.29883,679.344937165,648.09939694,66987338.8194,1706.59462986,34791850.5107,69808981.7015,4397.41000202,4389.05759217,0.0
0.985974167702,0.96534344011,9.90663345365e-06,-95258082.7901,1.35347139444e-05,0.0,5996640.67544,680.102428268,643.443334699,67381869.3636,1612.54589975,70139369.5179,70381983.4167,4092.77877013,4085.64560281,0.0
0.94903747238,1.25132652588,1.01988378178e-05,-93399093.8781,1.13329239789e-05,0.0,6083325.15716,685.541282326,641.064268917,67612086.6372,1608.15738385,68502747.093,68721706.7547,3939.45454785,3932.95042418,0.0
1.04942713563,0.883730156672,1.0334473212e-05,-45118024.7465,1.54573256182e-05,0.0,5796360.39511,678.639713043,647.464791414,66902089.9195,1692.08494383,35800378.2757,70340608.2206,4356.17204,4347.39655069,0.0
1.15150791503,0.864364782637,9.95681105038e-06,-5368414.65364,2.34612189823e-05,0.0,5532636.27068,684.874148129,654.0663401,66182636.4904,1825.57952175,47136891.5848,68661233.8673,4779.90935529,4770.06141691,0.0
0.925521715818,1.0655618195,1.04668320975e-05,-92163150.962,1.24859547397e-05,0.0,6066587.67837,688.065676205,639.533880377,67513754.7906,1597.05698508,67415078.6921,67620713.1154,3841.84064236,3834.77820853,0.0
1.10402396304,1.02347829329,1.00027624255e-05,-21357409.0863,1.69845762369e-05,0.0,5717688.17564,681.937133843,651.080617121,66712064.3444,1765.7032588,37804106.6164,68659632.6112,4582.80347058,4573.94433828,0.0
0.973738951953,0.868401513801,1.02914274967e-05,-94393989.6923,1.4817509957e-05,0.0,6016561.44071,682.032172664,642.65789223,67457170.2273,1614.55859769,69378823.4276,69611254.717,4041.99038956,4035.4376784,0.0
1.13001563002,1.10128492514,1.00091490008e-05,-11119183.5437,1.77137073498e-05,0.0,5604716.52375,683.288953802,652.597764149,66385506.7229,1796.8204531,43787851.5951,67563263.6603,4690.69488021,4680.8228327,0.0
1.15928805816,0.905481366075,9.6263602881e-06,-3983079.95693,2.29833547453e-05,0.0,5517647.04158,685.554449541,654.553841427,66147048.2408,1835.35161118,47966389.8729,68441321.9754,4812.20472942,4802.10512662,0.0
1.124675607,1.11934799351,1.0087001473e-05,-13616350.9693,1.76375742916e-05,0.0,5666848.87084,682.954577487,652.331715152,66586547.7779,1792.4123771,42240788.7649,68413958.7994,4668.52844466,4659.55815991,0.0
1.16428874845,0.859237617549,9.52484552544e-06,-2385074.48289,2.41073807809e-05,0.0,5489757.39335,686.02557552,654.908915004,66056833.2585,1841.25831781,48847241.8473,68060471.9664,4832.96259482,4822.67306907,0.0
1.16141818096,0.768191185457,1.03527300697e-05,-1726578.79758,2.75946654148e-05,0.0,5492575.62257,685.330301974,654.725513706,66043004.9542,1838.98416963,48681909.9228,67948426.713,4821.04686917,4811.46484364,0.0
1.07414851518,1.12937075303,9.84388003782e-06,-31703679.9552,1.32970593055e-05,0.0,5782345.12991,680.091323162,648.996096732,66872192.4643,1724.4985985,35033817.1496,69596384.527,4458.79048651,4449.66614137,0.0
1.08112381729,0.83917990285,9.87026093331e-06,-29577418.8486,1.73664931025e-05,0.0,5772522.82799,680.760015333,649.595257267,66869950.0848,1735.80075202,35601468.305,69332634.3821,4487.74496557,4479.24478203,0.0
1.1482346089,1.20425489936,1.00101460996e-05,-7739258.56832,1.82111823844e-05,0.0,5600358.70412,684.412834939,653.830340467,66397277.4074,1822.56653284,45651855.3689,68637563.0912,4766.32186154,4756.95099736,0.0
0.951477912685,0.908407088875,1.0051495736e-05,-93553411.8669,1.41887788843e-05,0.0,6081845.99032,685.621883587,641.227065555,67614949.791,1610.69983543,68638658.757,68858723.9138,3949.58481556,3943.33334271,0.0
1.05657710843,1.09484874541,1.04553360884e-05,-39080179.6344,1.34312728541e-05,0.0,5824158.39232,678.736610491,647.919238503,66988196.0201,1703.09595507,34725276.7879,69687580.3035,4385.85157709,4377.6363363,0.0
1.10358804145,0.832687210538,9.93788525924e-06,-21641688.7321,1.93264493184e-05,0.0,5706841.17796,682.050074692,651.056356463,66676468.641,1765.32101122,37760373.9711,68576649.7679,4580.99396006,4572.14171512,0.0
1.17491351849,0.602526848304,9.93950780693e-06,2510812.78265,3.05516325444e-05,0.0,5388163.65969,686.535705653,655.534298475,65718289.1946,1853.57966923,51348403.2216,66975738.0899,4877.06601525,4866.45489659,0.0
1.05958196942,1.15921032463,9.59259468943e-06,-43265873.7602,1.28987791595e-05,0.0,5814539.51414,679.588403705,648.088764258,66962668.3782,1704.96094225,35422381.0843,70187253.5304,4398.32475506,4389.29107594,0.0
1.03374387091,0.962591493038,9.82600782496e-06,-59909537.9507,1.41523643635e-05,0.0,5858327.90132,678.368751475,646.47465916,67061959.7312,1671.32727405,42650074.7251,71154333.4548,4291.07080815,4282.63613795,0.0
1.10484819368,1.08235450684,9.91140053504e-06,-21375684.5898,1.61960611139e-05,0.0,5723728.30266,682.024919273,651.135170703,66729977.4458,1766.74131131,37869550.8756,68702222.2051,4586.22485197,4577.35269122,0.0
1.06274055057,0.807298855105,1.00571741435e-05,-36676688.3463,1.62885166666e-05,0.0,5769877.29285,679.517545306,648.302340246,66820256.1293,1709.37942115,34542404.6517,69981927.0547,4411.43602542,4402.31766132,0.0
1.17112833629,0.872768772557,1.00556094312e-05,1345225.02328,2.37671610871e-05,0.0,5429003.17322,686.034210594,655.310933178,65833634.3005,1848.22019172,50572566.4338,67493846.0513,4861.35372394,4850.70059209,0.0
1.06217004376,0.885923332215,9.77531356621e-06,-38034633.8596,1.53047463015e-05,0.0,5785345.27207,679.782140554,648.350146422,66861337.453,1708.50181738,34639166.7945,69931915.127,4409.06785165,4399.95898669,0.0
1.15976172461,0.902695052068,1.01274816502e-05,-2321875.33163,2.23069888963e-05,0.0,5481955.99653,685.286105265,654.609790956,66012521.5257,1834.67837714,48536951.4563,67915232.0045,4814.17091886,4803.83267499,0.0
1.08568378273,0.835158841655,9.8403791378e-06,-28026403.7989,1.77360640937e-05,0.0,5760803.48826,681.06187339,649.901472184,66829274.5092,1741.7858816,35876360.6501,69333050.9691,4506.67338211,4498.10223032,0.0
1.09741465377,0.970778945839,9.76628441994e-06,-23924564.1034,1.68509469673e-05,0.0,5737805.41051,681.689519009,650.613405628,66766647.605,1756.81283048,36919897.0713,69198184.912,4555.3682278,4546.51462319,0.0
1.18406761239,1.13397208849,9.95571689904e-06,4153085.54794,1.99936335091e-05,0.0,5854038.07125,686.723667245,656.066369716,65676678.668,1862.30694478,52176533.8579,66996858.0432,4915.06465903,4903.66160824,0.0
1.01351960327,1.03421741303,9.69268345878e-06,-82575442.9441,1.30585087786e-05,0.0,5966912.38714,678.016646797,645.20955221,67342637.734,1646.54707916,59301326.6336,70982036.9115,4207.11987317,4200.01979414,0.0
1.21674709168,0.931717891848,1.01264951572e-05,12843439.1228,2.65009665916e-05,0.0,14097470.8665,688.741940988,658.158471525,65295355.4808,1902.55323181,58209839.9172,66481921.3638,5050.71717756,5039.35307797,0.0
1.16154145142,0.785443174504,1.01766600565e-05,-3449266.31744,2.68512503712e-05,0.0,5503654.4773,685.457107217,654.739962551,66116829.3696,1839.67750359,47779709.4073,68129368.4255,4821.55856484,4811.97178525,0.0
1.11967718433,0.65473446276,1.0155668658e-05,-14159167.6981,2.39015859959e-05,0.0,5588570.12912,682.897291882,651.969997048,66319709.8521,1784.26900365,41751053.2685,68437230.8178,4647.77999215,4638.07814604,0.0
1.11155847823,0.897123412536,1.04193778591e-05,-16345404.1448,1.92235581562e-05,0.0,5637475.66171,682.07136798,651.464564489,66453156.0909,1773.94757959,40452238.0764,69149283.1799,4614.07924313,4604.61238705,0.0
1.25074296281,0.907210135008,9.68931197171e-06,19448310.6471,2.96588655963e-05,0.0,21103933.5601,691.219124796,660.249607784,64710190.6502,1940.93503336,63558261.1506,64975517.1377,5191.83403862,5179.23155224,0.0
1.16929646536,1.09463992359,9.62250987415e-06,-1209886.13018,2.06843100445e-05,0.0,5521929.27986,686.083632942,655.225424974,66172618.2428,1848.37993737,49401128.2939,68038102.9222,4853.74962771,4843.80470189,0.0
1.14964798379,0.999011101161,1.00419708103e-05,-7244212.21445,2.15098745133e-05,0.0,5576082.94964,684.610092036,653.946623656,66324428.2245,1824.55452356,45940165.5072,68768030.1459,4772.18878071,4762.79525792,0.0
1.09401158539,0.965865356509,9.9919290664e-06,-24778688.5534,1.6966745753e-05,0.0,5740086.8784,681.314298688,650.375533426,66779878.1385,1752.54093626,36582052.3267,69123197.4946,4541.24209095,4532.54070783,0.0
1.1299314823,0.779929024161,9.8001119833e-06,-13288875.1831,2.2705373033e-05,0.0,5543523.35765,683.807404388,652.646968338,66189379.521,1796.46727294,42244533.2869,67554257.8465,4690.34558303,4679.9498387,0.0
1.15533531021,1.18349397539,9.66217205371e-06,-5170586.59069,1.84944025848e-05,0.0,5585092.06974,685.097418932,654.319157389,66360745.2771,1831.15562075,47450894.6935,68850980.0414,4795.79687268,4786.19180654,0.0
1.13833167347,1.00370203287,1.01871161789e-05,-9606410.5496,2.00917162003e-05,0.0,5548793.49885,683.876268553,653.193905986,66206571.5319,1807.60990208,44490428.2302,67992427.7387,4725.21477657,4715.09522819,0.0
1.12302666935,1.17945781759,9.62477770262e-06,-14506330.3945,1.58558360509e-05,0.0,5649538.73626,683.164398574,652.191613636,66514121.4345,1788.08949009,41711175.1239,68929590.3033,4661.68370447,4651.82647151,0.0
1.11059414081,0.903483075719,9.80656464072e-06,-19543199.3192,1.87571759e-05,0.0,5693589.37019,682.486834184,651.472466502,66655075.6632,1774.06088823,38826435.7092,68913576.8907,4610.0762785,4601.01175229,0.0
1.00965290633,0.906597868488,1.01691036449e-05,-83927663.3794,1.44973992574e-05,0.0,5871626.72248,677.69002514,644.93223155,67043869.2819,1637.85969719,60302019.6379,70683716.5551,4191.06921418,4182.60339783,0.0
1.02948410824,1.15626385659,1.025821612e-05,-60934059.4753,1.24572657065e-05,0.0,5857142.84456,677.750146987,646.19981782,67053653.7773,1665.22485756,43251249.944,70847654.7416,4273.3885333,4264.93597549,0.0
1.04622267934,0.926421604951,9.55796263753e-06,-50109157.4386,1.46741145381e-05,0.0,5833168.00749,679.0841953,647.254350209,67001944.5077,1687.40471492,37597304.5516,71165481.651,4342.87034194,4334.05907473,0.0
1.05651913065,0.854917862485,9.84225990677e-06,-43558442.223,1.59591399103e-05,0.0,5788889.86202,679.494964209,647.979039379,66882163.1502,1701.21128834,35412450.2757,70217097.2005,4385.61091133,4376.62810157,0.0
1.02288347729,0.970225188768,1.03067720027e-05,-68992674.832,1.39541110385e-05,0.0,5837726.43092,677.581210305,645.767553688,66987912.2354,1655.30033926,48690920.666,70659144.8719,4245.98931423,4237.22192558,0.0
1.11591726957,1.15011929653,9.82411321047e-06,-18020202.5956,1.60928110666e-05,0.0,5694115.02153,682.648051005,651.780816601,66650947.0757,1780.7200155,39792006.9612,69229413.4317,4632.17258599,4623.02166801,0.0
1.1777558607,0.913416885009,9.87951780888e-06,2636581.16584,2.321991064e-05,0.0,5393095.8709,686.54087957,655.701949735,65731374.5491,1855.62201697,51348371.179,66946028.5563,4888.86457777,4877.77746361,0.0
1.07305318376,1.11960346573,9.95729376203e-06,-32393754.9427,1.37471212112e-05,0.0,5801872.24703,679.931708089,648.933895414,66937833.4586,1724.30386483,35111085.7173,69713169.5273,4454.24376579,4445.67887394,0.0
1.01751944115,0.842725677103,9.87801640929e-06,-75955187.1746,1.47014435872e-05,0.0,5940036.25295,677.88408336,645.468326129,67287652.0637,1652.08380288,53972939.792,70840494.6592,4223.72320021,4216.56646953,0.0
1.14929513082,1.04594737682,9.84024886259e-06,-7369344.45273,1.9925948705e-05,0.0,5537359.72501,684.724170779,653.886113857,66184900.0068,1821.84586648,45874949.1533,68668790.008,4770.72408803,4760.49284946,0.0
1.20400963867,1.09223470647,9.82259385734e-06,9390051.59593,2.19131068209e-05,0.0,10778266.1925,688.030931843,657.364546414,65561508.8188,1887.5428119,55675747.1512,66966727.327,4997.84401012,4986.59221736,0.0
0.982455419537,0.884831708398,9.60097199175e-06,-94980547.7528,1.47730601215e-05,0.0,6011833.32351,682.180978304,643.219792989,67432325.2969,1619.3195652,69895124.0678,70134226.3522,4078.1724465,4071.16608916,0.0
1.08667102909,1.02864698443,9.69716694857e-06,-27789229.9584,1.52768080309e-05,0.0,5775353.29095,681.133532705,649.964305076,66878403.561,1742.71088234,35935551.7528,69430566.56,4510.77144175,4502.08767398,0.0
1.01850968451,1.01596510392,1.01716060716e-05,-71596884.3003,1.34935371982e-05,0.0,5876138.76216,677.64240807,645.503552846,67088697.9106,1650.63480605,50620819.1532,70886674.1506,4227.8337004,4219.55731989,0.0
1.15112931096,0.63981734976,9.99381698136e-06,-5284952.12544,2.82384794678e-05,0.0,5504527.98918,684.975784883,654.039628171,66094715.0479,1825.41537605,47103498.909,68570011.6315,4778.33776979,4768.4961331,0.0
1.19113612885,0.978711603868,1.02075114599e-05,6696692.13541,2.34036768033e-05,0.0,8187824.50244,687.149551696,656.563486398,65509587.7789,1871.15899653,53524042.4081,66586627.2533,4944.40607086,4933.09550719,0.0
1.03264244704,0.904950440388,1.01296064854e-05,-57661602.5312,1.45513284787e-05,0.0,5844995.90767,678.044347739,646.390147638,67020098.6734,1669.73813318,41286600.2788,70964992.8693,4286.49879766,4277.99493913,0.0
1.18933123355,0.934865113423,1.02179633094e-05,5956135.91564,2.42179299396e-05,0.0,7460031.69483,687.085460196,656.431194777,65439371.9791,1868.65200609,53025658.6689,66602172.226,4936.91395047,4925.40739549,0.0
1.18623696292,0.993662034458,9.94477104902e-06,4583174.83769,2.25676124311e-05,0.0,6204378.97523,686.98201478,656.203138313,65568294.3484,1864.9857984,52370164.0284,66867015.5305,4924.06963308,4912.52592838,0.0
1.15107941739,1.02677431149,1.01236464317e-05,-4686424.46059,1.9560892654e-05,0.0,5532611.78771,684.491677059,653.936612281,66161974.485,1823.66221666,47372025.822,68691103.0009,4778.13066159,4767.94247786,0.0
1.06664108449,0.765002343112,1.04609138336e-05,-33615479.6318,1.764043147e-05,0.0,5779261.94125,679.378444882,648.553610293,66870526.7056,1716.44397223,34748416.3222,69630492.1647,4427.62714172,4419.25519002,0.0
1.11912870184,0.960904857997,1.00279706742e-05,-14792774.0381,1.89095144998e-05,0.0,5603117.73977,682.792937807,651.927039379,66360039.1255,1782.32993127,41378909.0922,68604907.543,4645.50324134,4635.4186063,0.0
1.09027985685,1.1698462121,9.71457253444e-06,-26509590.3386,1.40164892035e-05,0.0,5773647.24502,681.257791142,650.181303707,66878942.3812,1747.33538717,36210245.0235,69437260.2965,4525.75168578,4517.01101867,0.0
1.03369231326,1.11972065424,1.00165738084e-05,-57527585.1254,1.26346095205e-05,0.0,5907109.66823,678.037392107,646.483704132,67224289.0906,1673.53880888,41281860.3922,71056258.2312,4290.85679234,4283.46904378,0.0
1.23297535154,0.976407763787,1.0013968966e-05,16088717.6103,2.71364704986e-05,0.0,17575913.0163,689.809581119,659.198082934,65122768.3405,1921.46279274,61027148.3043,66810572.1366,5118.08068424,5106.439176,0.0
1.07217198082,1.00691061345,1.01141102165e-05,-32125391.054,1.4992270543e-05,0.0,5790496.69127,679.805086729,648.868032902,66904217.1415,1723.23757846,35086827.3257,69594007.8385,4450.58589238,4442.03337827,0.0
1.14834612968,0.863021887198,1.03932860369e-05,-6379820.68654,2.37044094705e-05,0.0,5513810.35224,684.439174756,653.856419746,66103500.5081,1821.34116684,46015609.6187,68526855.8694,4766.7847843,4756.88262919,0.0
1.1797959806,1.05912556608,1.03861234288e-05,3766302.89948,2.13855420104e-05,0.0,5681019.70481,686.232767377,655.802412008,65678456.9792,1857.70392213,51765270.8135,66946642.041,4897.33311547,4886.31536048,0.0
0.886612856968,1.07922988418,9.97770743146e-06,-90707336.8894,1.15339460824e-05,0.0,6182196.35819,693.700428207,637.031821097,67804317.9832,1587.26470185,66133545.8404,67804317.9832,3680.32996927,3673.87740954,0.0
1.06459490522,0.831369722341,9.53121350399e-06,-38028681.3384,1.58642106881e-05,0.0,5824404.49878,679.96372077,648.441742347,66994673.9627,1713.60560294,34717139.9977,70148548.6496,4419.13345157,4410.70063959,0.0
1.21274998408,0.935869636612,9.77416378998e-06,11036682.17,2.55314604741e-05,0.0,12360770.2027,688.713726645,657.845150916,65239322.471,1896.97813468,56891749.0552,66507232.1181,5034.12518392,5022.18536833,0.0
1.12447879622,0.702675239381,9.94198662611e-06,-13466723.0292,2.33123164095e-05,0.0,5557798.23127,683.373848159,652.290341566,66227459.0011,1789.56535452,42103859.5319,67778804.8286,4667.71148311,4657.53381488,0.0
1.06265424682,0.755368393342,9.80237670648e-06,-38448487.8785,1.70247632567e-05,0.0,5810249.51733,679.692175168,648.314182391,66952053.0602,1711.0651083,34722188.7533,69998688.2289,4411.07777855,4402.67404682,0.0
1.29072463696,0.895280829735,9.73387538362e-06,26566861.3687,3.38186697995e-05,0.0,28122438.6289,693.439274614,662.570544339,64119242.3779,1985.80676684,68277939.2284,69218015.0593,5357.79796802,5344.61183663,0.0
1.06334954401,0.746694069571,1.01449170093e-05,-36041900.448,1.70232909519e-05,0.0,5760244.15655,679.511624174,648.341744114,66782583.8628,1710.23720156,34521377.8619,69996095.3086,4413.96395719,4404.8354488,0.0
1.05851319719,0.673386613231,9.9924907668e-06,-39612633.8728,1.7716857408e-05,0.0,5808505.98057,679.348047142,648.04001552,66942423.4248,1705.64088865,34772843.951,69710078.8062,4393.88828154,4385.54907473,0.0
1.21620393659,1.06129221315,1.00259399193e-05,12007371.3479,2.36111886687e-05,0.0,13284017.2897,688.720616771,658.110029874,65253431.7794,1901.07931862,57627399.6833,66329953.9399,5048.46254079,5036.67873001,0.0
1.07793995444,0.921358561839,9.91162666304e-06,-30765904.5309,1.6189390601e-05,0.0,5788909.71938,680.317717732,649.250932485,66915890.2306,1731.55907693,35358945.6492,69343698.7182,4474.52875088,4466.07797525,0.0
1.0297608801,0.731034949412,1.00763370403e-05,-60574970.2378,1.59689921572e-05,0.0,5843235.46779,678.073080087,646.22058258,67010444.1081,1666.0231649,43022039.664,70855472.8097,4274.5374133,4266.08007578,0.0
1.09493775888,0.974257978358,1.02201986291e-05,-23779546.0624,1.71164835309e-05,0.0,5728223.36435,681.240299022,650.46528763,66734313.9336,1753.74077584,36826686.9006,68945753.6515,4545.08663711,4536.37072075,0.0
0.996614822407,1.01687895607,1.02404403264e-05,-95379162.9222,1.35741641938e-05,0.0,5909499.56458,678.396040305,644.108376938,67143063.6118,1620.586778,70246336.2018,70655352.7278,4136.94812781,4128.77560829,0.0
1.17310951736,0.930885925201,9.81399868561e-06,1605333.59587,2.24835184302e-05,0.0,5408519.35179,686.2907046,655.423450636,65774748.1607,1849.54943908,50885746.3235,67321141.4464,4869.57760656,4858.4638909,0.0
1.22101743189,0.727049987024,1.01319908788e-05,13342638.766,3.20308752412e-05,0.0,14560368.9946,689.317648015,658.41730051,64938759.5438,1906.61659018,58602025.627,66284647.6227,5068.44335978,5056.34943516,0.0
1.10418237111,1.06936602787,1.01442533534e-05,-21176293.8331,1.65897932447e-05,0.0,5711656.88675,681.825894966,651.082496131,66698848.3137,1765.68188454,37882629.811,68679381.3085,4583.46102248,4574.59950031,0.0
1.06310205089,0.852216768828,9.9336847571e-06,-37686360.7198,1.60020751574e-05,0.0,5810437.04271,679.57789133,648.342057804,66955806.218,1711.61614591,34646084.746,70047411.3295,4412.93661324,4404.52589174,0.0
1.16200703653,0.849145639193,9.71661979813e-06,-887229.064449,2.29472033939e-05,0.0,5444964.38226,685.732645589,654.741770586,65880881.8324,1835.76603192,49757693.2499,67949245.9478,4823.49120864,4812.56992922,0.0
1.14472384069,0.753185869882,1.04853767728e-05,-8234314.32705,2.57356955038e-05,0.0,5447001.11092,684.307629052,653.565910414,65891815.2666,1815.14602268,44798681.2071,68058404.1983,4751.7486627,4741.10209279,0.0
1.07443737437,0.872119424342,1.03116715824e-05,-30679279.5393,1.69189590941e-05,0.0,5767533.90195,680.037023256,649.148787407,66833417.5449,1726.64987221,35233856.5996,69218848.2951,4459.98954101,4451.49629426,0.0
1.19978323519,0.764197563613,1.04057788122e-05,9265213.37389,2.92310017682e-05,0.0,10601264.8559,687.671968224,657.081072211,65346286.6789,1882.41919674,55318232.2108,66667964.8326,4980.30020927,4969.15574439,0.0
1.06250814477,0.878588629349,1.03271785428e-05,-36812101.4542,1.59485540989e-05,0.0,5801888.99261,679.239535625,648.304242278,66928792.1151,1711.12850988,34608707.9629,70013669.495,4410.47130894,4402.16311704,0.0
1.04139204412,0.941351149044,1.00607486775e-05,-51554504.9317,1.45675929733e-05,0.0,5831696.17335,678.447817061,646.940821561,66993428.5448,1681.52492724,38205344.5129,70834906.2361,4322.81837514,4314.26203314,0.0
1.05060757098,0.760100631061,9.6504597816e-06,-45590451.878,1.61896927637e-05,0.0,5820186.06759,679.22520932,647.536064446,66961590.8915,1693.66872649,36043690.9666,70660306.4614,4361.07202714,4352.3341791,0.0
1.20926658437,0.985516429005,1.03662393649e-05,11042996.7476,2.50876914235e-05,0.0,12291578.1569,688.127608118,657.638956891,65221105.8511,1892.28421767,56734427.0218,66218233.7942,5019.66559172,5007.90638081,0.0
1.03986969235,1.00775496722,1.00019968187e-05,-51759949.2527,1.37716789812e-05,0.0,5836130.18276,678.414003785,646.857448716,67005620.4066,1678.97192381,38285434.6795,70831240.4582,4316.49909294,4307.79215449,0.0
1.10051607146,0.685285962393,1.02170792622e-05,-21978928.7732,2.17274897752e-05,0.0,5688322.24773,681.752127647,650.85614303,66622213.1472,1761.29399022,37472901.9839,68413263.8636,4568.24221263,4559.4385537,0.0
1.15236603037,1.13446104235,1.02247934209e-05,-6047054.37313,1.9733810746e-05,0.0,5570059.84778,684.603130932,654.123986846,66312392.4434,1827.74536739,46519332.469,68612981.7467,4783.47139207,4774.03254631,0.0
0.956064502437,0.694529929127,9.81054556562e-06,-93752391.6181,1.61515757573e-05,0.0,6070910.94357,685.833024952,641.523856519,67583750.1797,1614.92818766,68813872.4196,69036185.8445,3968.62374962,3962.31056165,0.0
1.2798641259,1.03048952277,9.56643516992e-06,24333272.2409,2.88708357321e-05,0.0,26040680.7849,693.006872575,662.082596965,64301846.2265,1973.21089771,67108941.4011,68045550.6329,5312.71598661,5299.43220861,0.0
1.25980862009,0.998446599943,1.00870558278e-05,21628415.1161,2.92955190499e-05,0.0,23557022.8722,691.467029222,660.847603907,64702594.8637,1951.5615738,65410774.6602,66194531.6388,5229.46558199,5217.2026756,0.0
0.999695650666,0.756137547788,9.85409551435e-06,-95857043.4167,1.53490051452e-05,0.0,5977260.18807,678.608830346,644.327549171,67358215.556,1627.92524597,70666915.4829,70829782.6373,4149.73664591,4142.83092339,0.0
1.11380332686,0.792117825632,1.02042641412e-05,-15906481.7273,2.07503942083e-05,0.0,5621322.71237,682.386591274,651.593924749,66415846.2523,1776.32904453,40756657.8571,69312334.5484,4623.3976098,4613.79446508,0.0
1.1823796001,0.942656878857,1.06365624564e-05,5506548.52252,2.38170169765e-05,0.0,6998839.26733,686.332439766,655.988428525,65539911.7017,1860.4063266,52595503.2372,66631130.9228,4908.05772002,4897.00597266,0.0
0.962663291746,0.942415416721,9.66688207797e-06,-94129697.7664,1.41348686382e-05,0.0,6046776.03776,684.888399215,641.94217861,67498383.1359,1613.98946781,69145887.9073,69373060.6488,3996.01532404,3989.05441843,0.0
1.20555295689,1.17254229426,9.94663018995e-06,9674106.4277,2.09723198469e-05,0.0,11043797.8808,688.02280196,657.407006052,65364421.8437,1887.49613713,55794798.064,66961703.3876,5004.25032405,4992.31602945,0.0
1.16321268756,0.9600560817,1.00242163091e-05,-856838.200704,2.1504037596e-05,0.0,5439796.47434,685.561544113,654.809937208,65853606.7309,1837.25043191,49434155.6629,67697827.8634,4828.49586606,4817.56528057,0.0
1.16039520976,0.79442094552,1.00523578509e-05,-2495270.79141,2.41343922684e-05,0.0,5431469.45118,685.508781561,654.638922702,65829268.512,1834.32414923,48285311.9664,67600370.1215,4816.80051571,4805.94535529,0.0
1.22130953438,1.11494975002,9.80548546125e-06,12897030.1804,2.2794063116e-05,0.0,14167642.0822,689.144866246,658.443405818,65237171.264,1906.95442647,58381299.7701,66496172.4333,5069.65587721,5057.69496913,0.0
1.12440830097,1.07676286876,1.00276401083e-05,-13324539.7945,1.76443110725e-05,0.0,5618454.09835,683.03749076,652.292355642,66420885.5316,1789.8981549,42394381.9107,67634016.6322,4667.41885733,4657.63823789,0.0
1.06384029848,1.04153923895,9.46148069045e-06,-38717866.0872,1.36330100395e-05,0.0,5841767.26018,679.89451684,648.39457096,67045271.1481,1712.43836002,34806023.2723,70131257.556,4416.00107899,4407.58005666,0.0
0.89643796685,0.769875924425,9.61465112448e-06,-91120867.2116,1.47608006382e-05,0.0,6184977.43132,694.281143323,637.672741568,67827045.1059,1599.5700937,66497567.1067,67827045.1059,3721.11400039,3715.03961202,0.0
0.966960874841,1.08560732436,9.91328783052e-06,-94190796.117,1.30235786777e-05,0.0,6012330.68272,683.683924137,642.211562102,67408529.2222,1612.25573225,69199786.4551,69429046.5492,4013.85459146,4006.46377306,0.0
1.20196258921,1.24165316975,1.05046902966e-05,8987997.34412,2.03400333084e-05,0.0,10318277.8043,687.437779951,657.169696586,65333883.3027,1882.71036937,55119621.2754,66764270.3199,4989.34670781,4977.51347981,0.0
0.98304735632,1.1121378825,9.97032511325e-06,-95155030.1655,1.21319187232e-05,0.0,6009710.01325,680.308808777,643.255002648,67417771.208,1611.34599385,70048582.7768,70289664.3219,4080.62957608,4073.53862499,0.0
1.14144422491,1.01233130568,1.02349617123e-05,-8664285.59858,2.01796738898e-05,0.0,5547068.30519,683.858791399,653.267364484,66213125.0244,1811.85145887,44957141.9838,68246244.6757,4738.1349776,4728.06393569,0.0
1.02280866265,0.875956974994,9.59057593172e-06,-72435153.8248,1.45724905432e-05,0.0,5939570.9516,678.233979585,645.802039385,67294495.6299,1659.09311107,51282043.6633,71097932.1489,4245.67875866,4238.44681935,0.0
1.30690815924,0.932014642299,9.5507239217e-06,28534663.9594,3.44823701334e-05,0.0,29960883.0925,694.905739478,663.823804723,63798399.1327,2003.82095221,69094605.5165,70278492.9641,5424.97576901,5411.17081402,0.0
1.00638860169,0.901659629467,1.04696994973e-05,-85055613.4979,1.4561686849e-05,0.0,5869729.88029,677.378509172,644.723869239,67039649.7855,1633.74061536,61358008.3692,70520435.2672,4177.51908562,4169.1899128,0.0
1.11446850174,0.874373711601,9.44804572479e-06,-17213183.822,1.88780093818e-05,0.0,5661076.07337,682.962100238,651.696450321,66544265.3526,1777.49102886,40143513.7801,69218861.1116,4626.15875072,4616.44652271,0.0
1.00352534962,0.957131166094,9.79520069564e-06,-95673306.3883,1.37416571232e-05,0.0,5931703.26155,678.480364208,644.556359636,67212643.6293,1630.90522576,70511872.1259,70836147.4182,4165.63372627,4157.67812534,0.0
1.16291984299,0.975065824553,1.00638810258e-05,-548460.817498,2.12058889063e-05,0.0,5442613.57085,685.493433638,654.791177168,65864429.619,1836.75414356,49472661.0739,67690477.9468,4827.28026825,4816.38222777,0.0
1.06531952401,0.942182147644,1.00275505514e-05,-36356319.3345,1.52052592855e-05,0.0,5806967.44112,679.591191097,648.486785749,66950458.1376,1714.48368854,34644436.4788,70164565.1843,4422.14134417,4413.69597506,0.0
1.07130357852,0.897837830923,1.01535003064e-05,-32359558.6177,1.61865013319e-05,0.0,5783837.04635,679.781892478,648.820081217,66882761.5372,1722.17919236,35050065.1845,69584398.2515,4446.98115444,4438.44228681,0.0
1.09517844009,1.03465328273,1.05862875886e-05,-22756280.4805,1.64823461509e-05,0.0,5700514.35934,681.0231742,650.501455601,66638204.0144,1753.32341346,37101602.7938,68514777.8174,4546.08570481,4537.07211938,0.0
1.21769097864,1.01434915612,1.01178408557e-05,12651705.116,2.48803487282e-05,0.0,13862610.7449,688.806024568,658.211125445,65204313.4153,1902.60164776,58076021.9072,66380600.8786,5054.63525233,5042.82474559,0.0
1.07979933362,0.95811118938,9.78111949154e-06,-30440362.8793,1.58320165721e-05,0.0,5791508.25078,680.506690252,649.374495565,66925476.816,1733.96873311,35455139.2497,69386028.6507,4482.24703386,4473.76741832,0.0
1.21979823938,0.986100916281,9.73610133756e-06,12589347.1924,2.50885789562e-05,0.0,13827773.3922,689.182105707,658.349372426,65231070.3708,1905.64883084,58112686.0405,66379474.0674,5063.38249167,5051.50511235,0.0
1.06146293708,0.629774544252,1.02067947548e-05,-37336216.0862,1.85355874742e-05,0.0,5789408.98431,679.368816647,648.233620113,66881939.8006,1709.63297459,34589808.9239,69915784.7843,4406.13265182,4397.74750368,0.0
1.10677548897,0.773175969008,1.06400449815e-05,-17584268.589,2.09043314424e-05,0.0,5641534.70933,681.735649664,651.200844976,66474645.228,1768.34588391,39829429.5869,68799292.7554,4594.22505471,4585.03468523,0.0
1.06550147121,1.06792301505,9.84973950217e-06,-37011679.1205,1.37797300247e-05,0.0,5821614.91977,679.684607368,648.498651168,66992983.0678,1714.62034682,34682322.6114,70211322.4796,4422.89660699,4414.44839241,0.0
0.98139229061,0.869945634481,1.03966159058e-05,-94867489.5108,1.47060936611e-05,0.0,5996307.67474,680.068797677,643.150405424,67400708.4711,1611.59969522,69795808.0877,70032630.505,4073.75939832,4067.11026029,0.0
1.05309799961,0.815934576433,9.73571515663e-06,-42641906.6405,1.55638263244e-05,0.0,5834106.89828,679.22223663,647.704229893,67006786.5327,1697.79491087,35289715.1085,70690676.8373,4371.40979638,4362.97198192,0.0
1.01010828227,0.936001619782,9.9208724835e-06,-84594534.6079,1.38099230894e-05,0.0,5961317.97642,677.774954564,644.986286599,67324505.8446,1642.0550901,60977850.1282,70842344.9058,4192.9594797,4185.90756482,0.0
1.04314049517,0.928430620847,9.94604743106e-06,-50860311.682,1.4731958716e-05,0.0,5831117.48138,678.614637584,647.041190731,66993428.1395,1683.83026395,37894076.0352,70950955.2478,4330.07619545,4321.49162511,0.0
1.04245197977,0.693243456637,1.00970343259e-05,-50246289.5968,1.70139721138e-05,0.0,5812506.5902,678.554147797,647.00037712,66937503.7561,1683.11464499,37580819.6933,70867503.2084,4327.21816803,4318.6447181,0.0
1.14103098397,1.10712079771,1.00805516436e-05,-9126905.89207,1.85816298776e-05,0.0,5564145.09028,683.90473841,653.263578188,66260103.7146,1811.2336617,44789846.7485,68194828.6317,4736.41961446,4726.33166247,0.0
0.945261402151,0.898336509482,1.01729976393e-05,-93279697.1257,1.39747492899e-05,0.0,6092269.56468,686.050020745,640.825912982,67635544.8788,1607.37959473,68397638.7687,68614826.408,3923.78008033,3917.61163125,0.0
1.08809060767,1.21468694217,1.00617719922e-05,-26600234.1877,1.37008859347e-05,0.0,5770500.84295,680.865959989,650.036753011,66865720.5161,1744.62867946,36102248.8909,69323896.4278,4516.66411244,4508.05540499,0.0
1.09619575368,0.94432845706,9.97677808236e-06,-23871448.2477,1.72826094993e-05,0.0,5735785.63373,681.481823157,650.536498835,66767672.7065,1755.55972984,36858468.0666,69093832.6242,4550.30857353,4541.57279051,0.0
1.15340251537,0.90699117345,1.0098526946e-05,-6005242.89547,2.34856963032e-05,0.0,5551794.7477,684.870267591,654.19263281,66255159.405,1829.37635219,46601760.0928,68578567.6568,4787.7738413,4778.31833121,0.0
1.20913623118,1.09486044972,9.90338426072e-06,10389024.3527,2.24114558902e-05,0.0,11709240.2468,688.290899561,657.61546984,65331184.5662,1892.17765284,56352565.5213,66971550.4087,5019.12449563,5007.23145065,0.0
1.09086656129,0.842590372262,1.01961174815e-05,-24707411.2021,1.84588326543e-05,0.0,5726979.14863,681.03537973,650.169323473,66725008.1715,1748.13563936,36519552.7684,69021633.1462,4528.18709591,4519.48038775,0.0
1.01700952663,0.834294671036,1.00679316271e-05,-73758191.0963,1.49955781363e-05,0.0,5873613.8522,677.79424633,645.406451662,67074606.337,1648.71949226,52261114.5497,70736001.756,4221.60654504,4213.35413018,0.0
1.21201135455,1.04236510043,9.92704494352e-06,11372408.5726,2.3475435241e-05,0.0,12707017.6973,688.450801364,657.817739721,65390048.723,1896.67188163,57107270.8857,66590325.0355,5031.05913274,5019.57611832,0.0
1.05322539209,1.1454930564,9.96934352001e-06,-43444405.3374,1.2705132579e-05,0.0,5832527.07724,678.959890571,647.704995932,67009393.0765,1697.41866113,35516136.8928,70571854.5776,4371.93860257,4363.3380911,0.0
0.932953838961,0.805202848953,9.59961125216e-06,-92871258.6094,1.47925281462e-05,0.0,6123175.26337,689.429448085,640.031449412,67683996.6414,1609.19836764,68038021.8849,68247820.2704,3872.69138553,3866.38015407,0.0
1.13649918811,0.93912067343,9.75766216842e-06,-10343083.8331,2.09314448069e-05,0.0,5629411.22498,684.001174943,653.119169741,66480526.1983,1807.73169833,44365053.2917,67916456.764,4717.60812984,4708.42568876,0.0
1.18162974888,0.972088014694,1.02388481379e-05,4534279.99382,2.27569994472e-05,0.0,6150619.24141,686.4845224,655.913373261,65617947.5784,1859.62478426,52257393.4003,66943561.9998,4904.9450876,4893.79196469,0.0
1.03688194861,0.567968709928,1.01325500489e-05,-53635361.5205,1.83922398827e-05,0.0,5807719.51463,678.470483256,646.726048427,66910464.2982,1675.65720611,39131094.3885,71042155.0018,4304.09696868,4295.52447878,0.0
1.06649580488,1.09686764889,1.00103950575e-05,-35925722.2247,1.36143953485e-05,0.0,5814684.51516,679.606785713,648.563166947,66976282.3117,1715.90368651,34676440.9944,70137484.2723,4427.02408606,4418.56031415,0.0
1.13728553517,0.839441331351,9.62200129384e-06,-10747936.3844,2.20178021304e-05,0.0,5599127.26731,684.239295168,653.160730904,66376999.4674,1807.93335973,43971188.5956,67763845.9481,4720.87225649,4711.25830689,0.0
1.02266577247,0.908049163779,1.00530978883e-05,-67846759.2442,1.43367967988e-05,0.0,5916286.89013,677.746639488,645.786520061,67227734.362,1658.54886684,47915017.0355,70889081.1935,4245.08562152,4237.76622898,0.0
1.0983795143,0.996057828314,9.96110757184e-06,-23203644.4965,1.68638827745e-05,0.0,5733897.4918,681.624547267,650.70216196,66765842.9201,1758.37726191,37084625.1989,69123139.3377,4559.37336386,4550.60324226,0.0
1.1891500472,0.913120720742,9.72957077035e-06,5408823.86606,2.39490022571e-05,0.0,7051628.99731,687.281183847,656.408837749,65705767.3632,1870.29463817,53137837.4531,66907095.3378,4936.16184593,4925.20084341,0.0
1.06229986682,0.987874836046,9.94697365234e-06,-38089825.2244,1.45353032958e-05,0.0,5820301.27396,679.472789843,648.29133587,66984698.6792,1710.45586717,34699670.1526,70027578.0536,4409.60674717,4401.20854528,0.0
1.27151155425,0.937356280841,9.56155579893e-06,23127338.0243,3.00347740811e-05,0.0,25116213.8175,692.584045918,661.593545476,64419650.6427,1964.17995424,66257908.0969,67211179.9259,5278.04446169,5265.03320158,0.0
1.01385789587,1.05354674929,9.85823461671e-06,-80598468.4256,1.28590426827e-05,0.0,5960473.38694,677.794842026,645.217311704,67325907.4595,1647.02478768,57682617.1762,70833412.8303,4208.52412576,4201.41926276,0.0
1.1121700022,0.809322198341,1.02376422419e-05,-16503370.0542,2.0507676257e-05,0.0,5638669.47047,682.265857219,651.51225172,66462109.5286,1774.75744273,40390081.6557,69179892.0945,4616.61767913,4607.23995091,0.0
1.08395580619,1.10687210933,9.86869365883e-06,-28624570.8095,1.44323336149e-05,0.0,5783123.13025,680.834680573,649.797527695,66895346.9059,1739.30059198,35770796.6883,69380612.3757,4499.50055149,4490.95632124,0.0
1.10638472881,0.856410626862,9.81679725661e-06,-18913463.2742,1.8609911678e-05,0.0,5656262.78771,682.283815026,651.20257267,66515992.5758,1766.35373376,39215624.7535,68770788.2777,4592.60300929,4582.83427547,0.0
1.05806676153,1.13618610104,1.02607305316e-05,-39172293.4244,1.30373624364e-05,0.0,5830736.9431,678.951863053,648.017336563,67007719.3317,1705.03577301,34759332.3845,69768884.2717,4392.03512711,4383.79549399,0.0
0.985095900174,0.895448007892,9.7408769343e-06,-95061716.8804,1.46436154783e-05,0.0,6000004.9979,681.405765757,643.388410679,67404410.1843,1618.4564078,69966584.9011,70206802.8284,4089.13308162,4082.08879997,0.0
1.12582495884,0.933032059991,9.81464446202e-06,-13287362.0601,1.96700806707e-05,0.0,5634916.5346,683.317349769,652.386009991,66484671.774,1792.8246807,42293475.4771,68318216.6001,4673.29940414,4663.7967873,0.0
0.973411980241,0.829342818281,1.0246780168e-05,-94569749.4811,1.49483425706e-05,0.0,6020133.97945,681.606470841,642.638578537,67457314.3225,1611.22800612,69533528.6413,69767008.0163,4040.63312998,4034.09068341,0.0
1.06322736937,0.903664650271,1.02513264779e-05,-36794949.5872,1.56988712065e-05,0.0,5804546.71117,679.326927762,648.351429923,66937914.3312,1712.06383275,34623087.0908,70053922.253,4413.45681025,4405.13749419,0.0
1.03454687656,0.761552690315,9.44474540477e-06,-58733162.6937,1.6002901655e-05,0.0,5909873.54816,678.675219725,646.544205795,67224471.7286,1674.70690863,42045964.4581,71230308.9194,4294.4040846,4287.00441117,0.0
0.980904424337,0.810761843172,9.91037969484e-06,-94872401.0284,1.48972124903e-05,0.0,6000229.91541,681.366544428,643.116924453,67392103.3175,1614.4336449,69799748.9949,70038958.0332,4071.73426542,4064.66763359,0.0
0.980478346039,0.899546385981,1.04740261349e-05,-94645880.543,1.41422089729e-05,0.0,5935027.17864,679.968239224,643.073323288,67195373.3335,1606.91225282,69600515.8036,69839118.9855,4069.96561441,4062.05342781,0.0
1.03845885587,0.836022542045,9.98755542026e-06,-52685620.0014,1.53216051702e-05,0.0,5829286.60832,678.415059241,646.750114912,66980988.31,1677.22225735,38653190.513,71034429.0505,4310.64271072,4301.95887326,0.0
0.998381689551,1.01852948363,9.91121235495e-06,-95560725.2124,1.34711522345e-05,0.0,5916094.67005,678.815377323,644.223993111,67159477.0074,1622.68230642,70406149.2821,70815079.6839,4144.28239333,4136.00285171,0.0
1.07136518369,0.78188899824,1.00163484296e-05,-32856580.7817,1.74877499349e-05,0.0,5781425.00678,679.952067278,648.841388683,66872797.3373,1722.34363455,34975651.288,69679859.1742,4447.2368775,4438.69851731,0.0
1.11473689512,0.790734365899,9.41178574623e-06,-17195308.9074,2.00183574259e-05,0.0,5654052.09949,683.048993837,651.712182314,66522691.7982,1777.93516289,40155007.4978,69206799.85,4627.27285164,4617.55608908,0.0
1.0481570365,0.804974466436,9.78318830582e-06,-47118937.5915,1.59372487738e-05,0.0,5819463.03677,679.006033039,647.385770709,66956627.1465,1690.27275255,36579323.3957,70433532.3784,4350.89985851,4342.2023388,0.0
0.976894610699,0.853856721012,1.01365721046e-05,-94736637.5393,1.49390719063e-05,0.0,6016751.8408,681.433964135,642.863223465,67451369.6589,1613.20902977,69680499.1718,69915880.8904,4055.08952901,4048.5020781,0.0
1.12520371651,1.01063476827,9.68464369041e-06,-13698089.8102,1.84146824669e-05,0.0,5649536.6778,683.318608556,652.343731754,66525658.9389,1792.00569088,42029331.3242,68645443.8528,4670.72062723,4661.22823663,0.0
1.17673726209,0.817056249251,1.01104474924e-05,1800205.25568,2.71190703473e-05,0.0,5420893.56905,686.42050796,655.65420098,65824928.1409,1856.91323308,50817916.3094,66892009.8049,4884.63637494,4874.34870832,0.0
1.07348372758,1.03630743929,9.89653179919e-06,-32761014.8278,1.46110028473e-05,0.0,5808538.26868,680.036783723,648.970832225,66967189.392,1725.61354183,34979490.6949,69827343.5593,4456.03095318,4447.64913152,0.0
1.06917359597,0.870176346659,9.86157873744e-06,-35273324.149,1.61309015802e-05,0.0,5798924.65688,679.956676599,648.737109719,66930608.9661,1719.57658657,34719172.0163,70074100.3345,4438.13959687,4429.63534125,0.0
1.12082478138,1.28293527736,9.44967754832e-06,-15545753.2188,1.44450251716e-05,0.0,5672122.4772,683.087525067,652.046903371,66575528.83,1785.22771946,41158650.8566,69497126.3818,4652.54366751,4642.72382362,0.0
1.05682613956,0.889416485179,1.02670810427e-05,-39700994.3759,1.54697638539e-05,0.0,5818422.81818,678.964681168,647.92988439,66968197.9348,1703.5470081,34792632.4064,69628367.4027,4386.88530531,4378.66623153,0.0
1.05559700707,1.22160336482,1.00434681426e-05,-41864613.4261,1.226029641e-05,0.0,5859100.00692,678.91815639,647.846584108,67104150.2547,1702.18438244,35249572.6978,70114817.4354,4381.78317635,4373.89037389,0.0
1.13211250489,1.14009365739,9.74319996632e-06,-12964114.1194,1.75100088249e-05,0.0,5575065.53383,683.766027317,652.79392208,66304371.3176,1798.80708514,42565210.28,67507011.6529,4699.3990078,4688.95240402,0.0
0.972727286818,0.89670996469,9.88858881163e-06,-94394921.044,1.46873791407e-05,0.0,6019697.90566,683.242939287,642.590496483,67449520.9274,1616.9597717,69379421.4122,69611606.5143,4037.79096758,4030.87532425,0.0
1.04503299862,0.758547599125,1.03503667216e-05,-47200930.3738,1.64117781413e-05,0.0,5799023.33225,678.456156684,647.18173353,66900917.7346,1686.32558283,36387301.9013,70132700.6599,4337.93197727,4329.2269091,0.0
1.13890142556,1.03716013274,1.00008616187e-05,-8836090.21414,1.95367158714e-05,0.0,5584658.44259,683.962304207,653.240405093,66336344.9581,1809.07071939,45259112.4773,68163010.5914,4727.5798175,4717.83749442,0.0
1.18481577431,0.900193278578,9.82647393736e-06,4096028.43683,2.40553216996e-05,0.0,5839513.63397,687.034882382,656.115263083,65584098.4672,1863.53089708,52182926.8963,66894368.7237,4918.17027916,4906.65274829,0.0
1.0189701005,1.18704622961,9.98622039254e-06,-73276792.3608,1.18130280993e-05,0.0,5948485.71867,677.664686118,645.553725156,67319511.4219,1653.87105487,51908056.681,70948995.6755,4229.74488718,4222.56756261,0.0
1.07881456375,1.06444661467,9.85095693406e-06,-30641126.2865,1.45777779823e-05,0.0,5798712.76363,680.354321996,649.309119311,66946753.8474,1732.59383492,35407691.9466,69390483.4496,4478.15925413,4469.69491789,0.0
1.11771059035,1.11994461578,1.00484368464e-05,-15303475.0888,1.66831228185e-05,0.0,5671391.12863,682.544797859,651.852402536,66578688.5384,1782.38960563,41152277.5161,69262474.8371,4639.61666054,4630.34786837,0.0
1.13013782918,1.25061587706,1.00669882563e-05,-11173670.2972,1.61171846327e-05,0.0,5633479.21532,683.270913274,652.696833988,66466544.9259,1797.67815627,43801884.7651,67686156.3736,4691.20212893,4681.72409057,0.0
1.18708539418,0.974024520024,9.96056718532e-06,5230326.36484,2.29202685347e-05,0.0,6875629.19548,686.976209277,656.279953767,65720541.8904,1867.46996461,52953436.3875,66984121.9273,4927.59147124,4916.67360849,0.0
1.14269421374,0.942969426566,9.62041803026e-06,-9442108.81835,2.09146351753e-05,0.0,5589290.28242,684.502704215,653.493858395,66355960.7738,1814.76356307,44942698.2013,68174005.3505,4743.32368123,4733.61883453,0.0
1.27237918698,0.862068167756,9.94702215067e-06,23518367.862,3.31343086779e-05,0.0,25384707.6709,692.542081089,661.63099288,64242107.0424,1964.33391846,66518594.7206,67458945.6188,5281.64600515,5268.50705979,0.0
1.14937438642,0.924111060378,1.01615760195e-05,-6997737.78383,2.28735238766e-05,0.0,5564517.52468,684.56317299,653.933654166,66290791.5724,1824.21865804,46038370.3851,68695034.3059,4771.05307803,4761.66226419,0.0
1.1433782766,0.998233847209,9.76650845942e-06,-7908296.31069,2.01098225385e-05,0.0,5556635.77788,684.379077281,653.486388453,66251669.174,1814.10112335,45854261.6321,68405423.993,4746.16322617,4736.03893208,0.0
1.15242796692,0.62252439464,1.02459418512e-05,-5789440.84923,2.97787064395e-05,0.0,5518238.87406,684.774961218,654.035886834,66153235.2798,1828.4512825,46576194.1231,68427802.0242,4783.72849068,4774.28864946,0.0
0.96563761941,1.00212670218,1.00036045434e-05,-94145720.0405,1.38342235489e-05,0.0,6053704.0228,683.909869161,642.138886385,67550990.8122,1615.4111077,69160114.8002,69387564.5212,4008.36175817,4001.91938413,0.0
1.12644548149,0.955187812522,9.76251068538e-06,-13269822.7673,1.94492877086e-05,0.0,5583283.00713,683.449847348,652.40836946,66316038.2467,1791.57553991,42283794.9792,68012487.1497,4675.87519366,4665.56515213,0.0
1.00064825619,0.872077788028,1.01007169836e-05,-95790486.8144,1.46708347646e-05,0.0,5894459.02741,678.270491405,644.365398613,67099447.9743,1625.84987668,70607022.7465,70607022.7465,4153.69091144,4145.37451717,0.0
0.985347414164,0.889097783476,9.94615727528e-06,-94988409.697,1.44545225208e-05,0.0,5938213.71178,680.519813858,643.387896946,67209867.228,1611.72572989,69902124.512,70144017.2425,4090.17711619,4082.10594411,0.0
1.04682459945,1.20324587879,1.02989272161e-05,-44557061.7889,1.21718201721e-05,0.0,5841498.06864,678.350839467,647.302803057,67030156.9527,1689.01634144,35744406.904,70509740.0384,4345.36891232,4336.96060155,0.0
1.1511411232,0.725224334321,9.89376294658e-06,-7059418.6609,2.66027734081e-05,0.0,5552135.03541,684.946387738,654.040740966,66251095.7724,1826.83358139,46077413.853,68707188.0963,4778.3868024,4768.967635,0.0
1.14558212718,0.705376097115,9.92084824747e-06,-8156208.24109,2.56490754095e-05,0.0,5512057.63226,684.500655712,653.525222171,66102437.9166,1817.59266166,45447389.2125,68360577.1126,4755.31140992,4745.14474725,0.0
1.10157450277,0.778157841141,1.04438858754e-05,-19622473.0018,2.01894463287e-05,0.0,5617985.00321,681.650013978,650.883099646,66379724.7688,1759.67371201,38759887.5992,68450456.7106,4572.635761,4562.76035595,0.0
1.07572791271,1.08548201768,9.81663447755e-06,-32100055.2114,1.41396420834e-05,0.0,5809210.97193,680.185704805,649.102100249,66972488.2331,1728.52117243,35117139.194,69764159.4266,4465.34656566,4456.93004734,0.0
1.22413923196,0.986492582013,1.02930344775e-05,14126659.2707,2.63122139372e-05,0.0,15456863.3632,689.149957346,658.62458948,65060146.0798,1909.89480982,59341749.1181,66541856.6673,5081.40195187,5069.47480227,0.0
1.12103415653,0.904354474505,9.86157498408e-06,-14595576.102,1.96654625046e-05,0.0,5599319.41966,683.049696887,652.051767065,66347541.6818,1784.88000285,41542314.5899,68487118.2107,4653.41278376,4643.29505312,0.0
0.973519416047,0.930216150464,1.02500086904e-05,-94587681.8705,1.42384523645e-05,0.0,6023661.49274,681.552027813,642.645498321,67468267.6124,1611.17141571,69549308.6027,69782705.3057,4041.07909601,4034.53518293,0.0
1.20482467228,0.72624794171,1.02298387544e-05,9514290.08186,3.06868715206e-05,0.0,10864769.0669,688.196691662,657.342587598,65123122.4089,1887.38817841,55514983.0697,66672983.314,5001.22721463,4989.33395976,0.0
1.13590033563,1.01473669115,9.85154650087e-06,-10647935.768,1.95064564242e-05,0.0,5600677.6071,683.923899346,653.066027697,66377846.903,1805.59614242,44078654.3946,67782676.0736,4715.1222932,4705.42665143,0.0
1.08974998714,0.859454338482,9.64331529454e-06,-26839713.191,1.74243628703e-05,0.0,5756966.00058,681.410526229,650.150554823,66825515.7248,1746.8878774,36144979.2713,69400294.5513,4523.55219662,4514.8198933,0.0
0.947791177063,0.819263457429,1.01791883753e-05,-93367670.1242,1.45647973422e-05,0.0,6082917.35372,685.744333407,640.988870085,67611556.7128,1608.19935932,68475155.1099,68693352.7852,3934.28117599,3928.078999,0.0
1.15825078166,0.987995871404,9.70442966847e-06,-4166425.34663,2.15781355696e-05,0.0,5526049.75089,685.392207826,654.48786313,66174346.6525,1833.89036583,47807049.53,68483471.7434,4807.89899467,4797.8169152,0.0
1.04174248818,0.8947597237,9.93321641571e-06,-51038569.9681,1.47257815088e-05,0.0,5824891.85048,678.554950163,646.946737979,66969469.657,1681.26773394,37988129.2854,70898312.8775,4324.27306844,4315.44812076,0.0
1.11078053543,0.802423326484,1.01340580999e-05,-17097144.2288,2.03059638301e-05,0.0,5610327.41075,682.33258061,651.435087395,66371399.1435,1771.54682744,40222011.117,69019546.5139,4610.85000257,4600.90909441,0.0
1.1113101154,1.26364282407,9.62917137772e-06,-18416152.665,1.42020746171e-05,0.0,5701911.32543,682.47902636,651.51119021,66666257.6724,1773.41432147,39679911.0502,69069597.4816,4613.04828903,4603.58555062,0.0
1.15197592099,0.967838012565,1.02292116413e-05,-4189491.93181,2.06888481006e-05,0.0,5517760.33228,684.511955868,653.987991601,66116920.5992,1824.80875982,47601731.9188,68038944.7353,4781.85204803,4771.64695438,0.0
1.08741080722,1.26824644436,1.01577364514e-05,-26551631.383,1.32377954628e-05,0.0,5770868.97057,680.741516468,649.991206033,66867287.8182,1743.68999487,36085522.7406,69295202.2823,4513.84226077,4505.24416762,0.0
1.22518460471,0.767707176287,9.68795742659e-06,13871706.9885,3.02888300953e-05,0.0,15293131.7936,689.740934519,658.69645162,65055504.2778,1912.31860599,59126686.4349,66481175.146,5085.74129415,5073.78787401,0.0
1.06737536647,0.911945103222,1.00542818018e-05,-35312071.8264,1.56600634703e-05,0.0,5798858.11749,679.69835714,648.620645947,66919341.138,1717.19456774,34681047.6918,70018761.2268,4430.67514622,4422.19760296,0.0
1.0107476431,0.864554811863,1.01598062682e-05,-78146222.6165,1.42410416196e-05,0.0,5888526.57164,677.497999625,645.011698782,67078863.9858,1639.74662496,55715342.6584,70676675.788,4195.61346651,4187.43913664,0.0
1.02027151532,1.14301467861,9.86536178848e-06,-72926602.2648,1.21824357409e-05,0.0,5948389.93379,677.821719089,645.641043431,67320901.5628,1655.61050289,51648379.7827,71003686.6654,4235.14706009,4227.95123889,0.0
1.01515416722,0.894151481442,1.02269443211e-05,-78086842.7958,1.4678288717e-05,0.0,5855313.1104,677.608574222,645.285970512,67013227.2152,1645.23592065,55640173.9507,70732083.8902,4213.90494813,4205.34875914,0.0
1.09097060869,1.0571612549,9.85903740072e-06,-26214028.5295,1.5498949675e-05,0.0,5761137.06531,681.21698524,650.205001518,66838185.5922,1748.51824813,36247575.1067,69347031.5791,4528.61899667,4519.9652619,0.0
1.22097424847,0.894682797956,9.75672518188e-06,12877308.1523,2.6971497789e-05,0.0,14161499.0125,689.323010942,658.422707748,65153146.6354,1907.00446869,58340761.7861,66381266.7251,5068.2641054,5056.30940849,0.0
1.07866744517,0.876759757964,9.57591811609e-06,-31657352.6638,1.6528057949e-05,0.0,5797556.0615,680.61523562,649.298579692,66937821.9384,1732.53421125,35224104.3966,69758051.422,4477.5485649,4469.08651033,0.0
1.06733526458,1.05250314231,1.0126812644e-05,-34449507.3475,1.39544195202e-05,0.0,5772094.29121,679.610152773,648.602394709,66826463.4843,1715.19221671,34654505.8147,69802313.4853,4430.50868327,4421.31367235,0.0
1.09065806094,0.6687817311,9.93661945997e-06,-25973506.1447,2.07407170252e-05,0.0,5729261.69254,681.318675914,650.179642298,66741313.4277,1748.44735939,36240710.6436,69216410.4485,4527.32161096,4518.67276736,0.0
1.10595276642,1.07714258781,1.03004478265e-05,-17990167.9321,1.63168278994e-05,0.0,5675041.52047,681.769467679,651.159684463,66574796.1129,1766.22998976,39642979.1892,68884701.6271,4590.80993341,4581.43686223,0.0
1.13028046409,1.07244289926,9.66544637997e-06,-12400086.5349,1.79629362562e-05,0.0,5634453.35051,683.642483905,652.690159168,66485957.2812,1798.39046538,42933624.2032,67837438.3713,4691.79420644,4682.19258152,0.0
1.05162525184,1.10528196095,1.05847201105e-05,-39955403.9783,1.30979743968e-05,0.0,5827745.15716,678.325266905,647.579123819,66997766.7339,1696.04381734,34780422.0928,69697448.5396,4365.29642039,4357.06582278,0.0
0.976784241023,1.10865245338,9.97920038001e-06,-94709058.7549,1.25695663134e-05,0.0,6023157.09015,681.859581995,642.852710359,67462970.5587,1614.18989548,69655885.7221,69891285.9847,4054.63138449,4047.70875402,0.0
1.17687269648,1.00213503761,1.01266311968e-05,1750797.36048,2.3389646744e-05,0.0,5442199.14283,686.288939245,655.661739725,65890996.9231,1856.79019894,50823427.8891,66963184.5816,4885.19856309,4874.90860061,0.0
1.22673772597,0.994597144443,9.87419221915e-06,14360661.713,2.56123734456e-05,0.0,15782679.3884,689.514354778,658.798021239,65160020.5821,1913.71794307,59555108.329,66673616.5478,5092.1883005,5080.35415718,0.0
1.04796281514,0.943899165261,9.70775075024e-06,-48663865.1444,1.46092205076e-05,0.0,5824255.66943,679.052034558,647.377891382,66976595.6943,1689.7273709,37052403.7207,70773719.3967,4350.09364565,4341.25371499,0.0
1.01544488295,0.953549794348,1.00078590874e-05,-74738276.3131,1.38470651796e-05,0.0,5893262.23441,677.791194896,645.311405788,67127574.5923,1646.89326948,53036273.0329,70760986.7946,4215.11170913,4206.9685064,0.0
1.03496394252,1.02185782892,1.02609834385e-05,-54594083.4067,1.35731224148e-05,0.0,5841865.40108,677.981423767,646.545101194,67014299.2513,1672.74955343,39636799.1865,71039278.2703,4296.1353254,4287.59391283,0.0
1.11064644896,0.973179546476,9.72822258839e-06,-19929959.2707,1.79594749555e-05,0.0,5699578.04751,682.521336775,651.479953841,66672482.1471,1773.98440805,38628434.3531,68918045.5723,4610.29340963,4601.22722966,0.0
1.17065571826,0.962664840939,9.86602576192e-06,1062189.73246,2.17575811433e-05,0.0,5428063.1956,686.084611903,655.279781041,65828228.6773,1846.6985643,50585230.3359,67613764.2184,4859.3918865,4848.43334598,0.0
1.02905753093,0.917585807023,1.02112874846e-05,-60267176.2358,1.43373346299e-05,0.0,5850373.81357,677.851045522,646.173611373,67031925.8645,1664.97260462,42825603.0083,70859647.4355,4271.61781089,4263.17181282,0.0
1.21943528047,0.764306083728,9.98200675381e-06,12972074.3929,3.02776521739e-05,0.0,14203896.4365,689.210373189,658.321960439,65080782.2769,1905.29211838,58346436.229,66307433.1079,5061.87584923,5050.03320497,0.0
1.14987140106,0.814126929228,9.72577191749e-06,-7234458.42054,2.38935288108e-05,0.0,5530142.61649,684.959797934,653.92523254,66172871.8971,1823.40131395,45906049.9242,68622868.4024,4773.1161858,4763.08220827,0.0
1.08870954211,1.0168042331,1.02365822372e-05,-25803247.73,1.60952289259e-05,0.0,5748236.62094,680.830403669,650.050711024,66801167.777,1745.57154804,36217027.7035,69169776.3244,4519.2333093,4510.61493324,0.0
1.12583225653,0.996063774535,9.8782405248e-06,-13435610.7316,1.89809191314e-05,0.0,5639057.0447,683.253261106,652.398228756,66489227.8061,1793.02824969,42239083.6456,68297941.1937,4673.32969686,4663.92872921,0.0
1.04860540665,1.0364449222,1.00139350517e-05,-45845274.1248,1.37274151377e-05,0.0,5856720.74693,678.687092054,647.428197037,67081909.173,1692.37818828,36119142.7203,70512446.6775,4352.761043,4344.78767027,0.0
1.0980874453,1.10138773475,9.8857778185e-06,-23580417.0339,1.54126897999e-05,0.0,5745777.47428,681.603455056,650.673614434,66799566.7156,1757.90709175,37022553.4957,69166000.7152,4558.16098544,4549.39545967,0.0
1.20792696258,0.857815377194,9.87703668211e-06,10224344.8866,2.69112744694e-05,0.0,11573207.3558,688.424414,657.542516692,65245021.8581,1891.17197174,56177290.2917,66962997.8522,5014.10482167,5002.23425041,0.0
1.02032001461,0.788508817232,1.01117884199e-05,-70179985.9889,1.52418511991e-05,0.0,5915221.41638,677.665935409,645.630412993,67218083.1149,1655.48758738,49593433.0449,70685811.6431,4235.34838065,4228.0627211,0.0
1.15386221722,0.928954101973,9.91727901697e-06,-5810999.0285,2.24564577725e-05,0.0,5517919.29115,685.050992263,654.208497922,66143851.0697,1828.11867439,46618680.8273,68565675.6222,4789.68206368,4779.58047955,0.0
1.12450181152,0.71756767068,1.02188185469e-05,-12972916.7869,2.31958176594e-05,0.0,5575057.20294,683.147042798,652.29829034,66271103.7193,1790.54523522,42436009.7007,67405945.0386,4667.80701962,4658.02341849,0.0
1.29077471976,1.11748789692,1.02357463657e-05,26937555.9801,3.03963914531e-05,0.0,28398563.9994,693.258617732,662.732040524,64138969.2572,1984.9793525,68384706.649,69487220.1853,5358.00586172,5344.92593566,0.0
1.23489881173,0.979925129653,1.00887432825e-05,16327012.0474,2.72665599097e-05,0.0,17850017.1715,689.935254456,659.256561706,64856120.8773,1921.57671528,61094156.2459,66720233.3793,5126.06496749,5113.59961131,0.0
1.03363318591,1.05249049161,1.01165161558e-05,-56913272.0554,1.32255783917e-05,0.0,5852294.68095,678.042002232,646.459041705,67044900.5096,1670.949761,40877060.2461,70980918.7016,4290.61135471,4282.09147752,0.0
1.03718200468,0.862654124462,9.83832435529e-06,-56294347.9224,1.50816140122e-05,0.0,5892603.34518,678.419683697,646.713968125,67180026.4159,1678.31469305,40635922.3565,71082823.2023,4305.34250143,4297.9059359,0.0
1.13459964625,1.10874316177,9.94009859304e-06,-10191267.7077,1.79573442045e-05,0.0,5618019.28165,683.699224918,652.986596227,66439622.033,1803.89195395,44393160.0576,67845482.1,4709.72313158,4700.18084114,0.0
1.04926437172,0.721297917968,1.05123303539e-05,-43003593.29,1.67555346595e-05,0.0,5794909.64838,678.478863938,647.444910014,66895209.6606,1692.49730759,35257208.0264,70236911.468,4355.49640701,4346.95936789,0.0
1.09966672684,0.908883780291,1.05071242174e-05,-20095341.0077,1.82541325926e-05,0.0,5634281.36766,681.422156564,650.76838759,66428140.303,1757.04855808,38563699.0677,68385804.1498,4564.71658311,4554.87412381,0.0
1.13789172455,0.959836075913,9.64726836521e-06,-10559430.6237,2.02330841333e-05,0.0,5606366.29849,684.19261804,653.19694465,66400012.9963,1808.57344815,44069032.6011,67837279.4247,4723.38854861,4713.76460275,0.0
1.13834927032,0.685725141885,9.99741273559e-06,-8879491.10369,2.54331006609e-05,0.0,5550787.72051,684.136937572,653.207626867,66230597.4277,1808.80076602,45219701.8647,68019545.719,4725.2878211,4715.5546883,0.0
1.1585240224,0.95111919152,9.74136675959e-06,-3918883.03015,2.22629080299e-05,0.0,5519530.23577,685.410131902,654.503964796,66136261.1037,1834.25493547,47906340.2812,68301655.1089,4809.03321698,4798.94652267,0.0
1.26478586958,0.837750556661,9.7201791012e-06,22476329.6698,3.35742997527e-05,0.0,24358521.5752,692.118004751,661.169898012,64646358.3223,1958.64944573,66008558.3314,66872119.6867,5250.12614463,5237.91920925,0.0
1.15510214634,1.15736288211,9.68704667521e-06,-5160887.84992,1.88682022104e-05,0.0,5582368.38943,685.081537038,654.305578122,66353785.4121,1830.87214069,47452359.9989,68834840.3484,4794.82900946,4785.2277365,0.0
1.19512080677,0.984970686255,1.02460545953e-05,7439154.28353,2.37656267388e-05,0.0,8875761.3174,687.402921408,656.800585331,65357986.1654,1875.12906126,53964988.8069,66434793.6098,4960.9464689,4949.23627539,0.0
1.17092695153,0.921214022079,1.00052229954e-05,1044990.36306,2.26518964261e-05,0.0,5407000.78805,686.063996023,655.291885819,65759077.719,1846.89450492,50383437.1057,67409981.5687,4860.5177758,4849.4492776,0.0
1.17907003325,0.969721937247,9.88706202925e-06,2904742.01959,2.23211961616e-05,0.0,5394529.42946,686.575456538,655.780818002,65738046.1807,1857.13538358,51503725.3029,66978493.8812,4894.31970802,4883.20901916,0.0
1.21206511923,0.806203818459,1.03808429937e-05,11745301.362,2.9276610863e-05,0.0,12978268.5606,688.481767507,657.836414919,65090181.56,1895.94767542,57273688.5877,66118493.8459,5031.28230992,5019.4715119,0.0
1.23562744833,1.03736203303,9.64764297253e-06,16356343.6346,2.52870834956e-05,0.0,17807441.7968,690.119381306,659.371021015,65187208.3216,1924.89990727,61268271.7414,66943353.1584,5129.08953802,5117.39682009,0.0
1.15111372043,0.953553832817,1.02554113873e-05,-6292454.05942,2.26438877743e-05,0.0,5556362.57065,684.601567289,654.044550986,66269320.0777,1826.33992798,46336444.5152,68581156.4555,4778.2730535,4768.85600918,0.0
1.15568075335,0.919384499209,1.00888526183e-05,-4315053.84848,2.34905581848e-05,0.0,5543295.51531,685.05780744,654.381683829,66212288.8092,1831.97306524,47643955.4509,68513090.2309,4797.23080716,4787.74155546,0.0
1.09424450606,1.0340190254,1.00320711684e-05,-24590112.081,1.61646996576e-05,0.0,5742857.15963,681.274867302,650.395736715,66789428.1038,1752.80039003,36624448.4912,69100466.2749,4542.20894466,4533.50390754,0.0
1.130884547,1.11152000399,1.02222273788e-05,-11549813.1874,1.78851342956e-05,0.0,5593326.60385,683.236418577,652.654538435,66339851.4661,1798.25536336,43344506.9765,67523329.5951,4694.3017546,4684.41121923,0.0
0.901324088808,0.882227083953,9.54284878365e-06,-91333171.5581,1.43190238864e-05,0.0,6180605.31304,694.002889567,637.987654787,67819663.9666,1602.63686252,66684416.5697,67819663.9666,3741.39629264,3735.25462451,0.0
0.935653819362,0.81480213944,9.88284081346e-06,-92950377.0202,1.44790346391e-05,0.0,6123163.26222,688.161749558,640.208521479,67707572.192,1607.44499844,68107668.4271,68320246.093,3883.89900417,3877.85777219,0.0
1.07904441531,1.0541884715,9.88837929336e-06,-30408274.2642,1.47333661923e-05,0.0,5795868.09104,680.345519901,649.324496259,66938884.6502,1732.90321569,35464600.4002,69383842.1577,4479.11336795,4470.64546644,0.0
1.06240836738,0.714918459268,1.00557094852e-05,-37555696.3985,1.75570671537e-05,0.0,5798823.06118,679.50088007,648.297447904,66920807.6376,1710.81708988,34634944.968,69981756.85,4410.05713299,4401.65851954,0.0
0.978160147035,1.02153358587,1.00490841927e-05,-94666276.2875,1.34352199128e-05,0.0,5963325.07736,681.407441493,642.927698914,67271606.6616,1610.4735717,69618482.7581,69855955.4083,4060.34277034,4052.46491984,0.0
1.27837907845,0.854541981553,9.94068656344e-06,24442623.1082,3.42831005999e-05,0.0,26151995.3518,692.918824563,661.978599602,64137324.3868,1971.32579183,67094522.9348,68022940.8395,5306.55155465,5293.28995371,0.0
0.932619136433,0.930753794914,9.93995053206e-06,-92834693.4111,1.35841384496e-05,0.0,6132657.56819,688.334062365,640.012989309,67727845.5367,1605.6622752,68005814.2519,68217066.526,3871.30203533,3865.30079277,0.0
1.08761984933,1.09317387567,1.01401223096e-05,-26503580.2785,1.50008695856e-05,0.0,5760871.41157,680.825203555,650.003129718,66836641.0024,1744.09090911,36090783.0059,69263481.882,4514.70999457,4506.10863804,0.0
1.12736480226,1.08255669598,9.59187471446e-06,-13723108.638,1.77992901363e-05,0.0,5676106.74706,683.467392688,652.49657066,66615758.7758,1795.91604603,42192227.1041,68765947.3291,4679.69129418,4670.54786365,0.0
1.05350216131,1.07366305004,9.92100382289e-06,-44831662.0184,1.35484666349e-05,0.0,5811726.72921,679.080577348,647.719666216,66948585.1405,1697.03511678,35763595.7213,70433111.6291,4373.0874716,4364.15604896,0.0
1.07551065497,0.803857226485,1.00704348523e-05,-30910756.5302,1.75569099336e-05,0.0,5769509.69123,680.114572297,649.08522755,66845750.2034,1727.77893776,35303973.6215,69365116.4601,4464.44472878,4455.84115084,0.0
1.13326073734,0.822349020857,9.96670572953e-06,-10744733.1834,2.26146373919e-05,0.0,5614809.639,683.729231364,652.907701129,66431029.7022,1803.32853143,44070690.0528,67733794.6236,4704.1653207,4694.95588023,0.0
1.16917842808,0.936588342256,1.00221300589e-05,1274381.7408,2.22367831566e-05,0.0,5447538.7105,685.872543188,655.192611733,65886224.1209,1845.50820649,50638565.4534,67570052.7132,4853.25965496,4842.64937821,0.0
1.08671087439,0.951949129735,1.01368937453e-05,-26795874.3389,1.66362116541e-05,0.0,5753605.71956,680.845495269,649.952083242,66812914.0449,1743.01983211,36025175.1601,69237385.8869,4510.93683959,4502.34966948,0.0
1.09621732142,0.912595526444,9.81953868897e-06,-24309786.8228,1.75325589873e-05,0.0,5740170.40469,681.593385183,650.526099992,66778878.8059,1755.63981252,36763609.6955,69182372.3466,4550.39810121,4541.66197932,0.0
1.04899006232,1.08112087347,9.58064471522e-06,-47234815.0282,1.30290995027e-05,0.0,5853184.9305,679.098667896,647.447903287,67060533.8939,1691.73216847,36610242.0862,70921905.6234,4354.35774869,4345.8236939,0.0
1.07865013906,0.881452985911,9.85200414052e-06,-30647402.2752,1.66599472546e-05,0.0,5786871.23082,680.420050705,649.298168499,66910040.555,1732.51942376,35392593.8393,69349504.1483,4477.47672724,4469.01494105,0.0
1.0059409242,0.782401268912,1.03900975942e-05,-86206711.0178,1.54865119105e-05,0.0,5867573.64398,677.560074738,644.697978053,67031124.2803,1633.195602,62320455.6538,70590383.9048,4175.66077635,4167.33886342,0.0
1.14366736531,0.83656214739,1.03714430716e-05,-7039818.4522,2.4020414013e-05,0.0,5560023.33188,684.058482915,653.527543945,66246298.4069,1816.41228,46025988.023,68461105.8627,4747.3632334,4737.98710009,0.0
1.04718685518,1.04305043978,1.04078386037e-05,-45985377.6058,1.38035386529e-05,0.0,5809356.99337,678.396411548,647.314260731,66938679.2635,1688.98794702,36155571.8925,70287009.2188,4346.87263585,4338.13378319,0.0
1.15364272372,0.88783409569,9.89657363632e-06,-5859633.50221,2.31287163349e-05,0.0,5515321.61296,685.085394429,654.196809994,66135706.3507,1827.91839148,46550945.2426,68581934.3358,4788.77094616,4778.67308505,0.0
1.19126591924,0.899796198097,9.80357291752e-06,5595849.10963,2.46126885294e-05,0.0,7211914.63855,687.473514476,656.5336903,65500933.8935,1871.35007321,53067584.9495,66794036.1725,4944.94483077,4933.27523398,0.0
1.14180097057,1.1339257304,9.94889377841e-06,-9237482.5116,1.81350326122e-05,0.0,5570321.83534,684.027269772,653.319035272,66277055.5457,1812.23802244,44817996.5588,68216564.3942,4739.61582884,4729.51304057,0.0
1.11676409961,1.11369148063,9.97959431104e-06,-15717905.1908,1.66247998421e-05,0.0,5677368.5964,682.537066882,651.796159946,66594141.547,1781.19406258,40947928.7053,69412880.7491,4635.68777748,4626.4343397,0.0
1.09966672684,0.908883780291,1.05071242174e-05,-20089481.6587,1.82541441327e-05,0.0,5634272.72396,681.422151698,650.768364622,66428216.4732,1757.04856592,38557854.7128,68385302.1564,4564.71658311,4554.87412381,0.0
0.961938257013,1.13555571237,1.02610323909e-05,-93888143.7827,1.23996267148e-05,0.0,6045579.24412,683.683406333,641.894770062,67519392.742,1611.20917652,68933310.789,69158405.6392,3993.00570486,3986.32143321,0.0
1.01669053905,0.885022818901,9.88288223002e-06,-76917494.6209,1.43300891362e-05,0.0,5943940.84793,677.845954685,645.410027451,67295410.1693,1650.95735275,54730156.0067,71263259.2121,4220.2824276,4213.13745284,0.0
1.09186361054,0.79721874444,9.95974881703e-06,-25539148.1008,1.88490346857e-05,0.0,5735268.43647,681.289549835,650.239925391,66761376.9486,1749.89514668,36357296.0683,69197813.1656,4532.32584735,4523.65813144,0.0
1.25846990732,0.821419248224,9.9561005284e-06,21083376.4222,3.32042002496e-05,0.0,22959076.3191,691.681404188,660.73419981,64483290.3515,1949.40021769,64870166.239,65651970.6371,5223.90858529,5211.12035479,0.0
1.01800805838,0.925313848982,1.01468953747e-05,-72233247.7767,1.42478096461e-05,0.0,5873133.92759,677.691333128,645.469842507,67077608.9505,1650.01806692,51102037.0103,70793636.7514,4225.75145034,4217.48308665,0.0
0.971879545147,0.786583514571,9.82495170805e-06,-94618633.8121,1.52779463076e-05,0.0,6037812.69365,682.846033026,642.542126281,67496091.014,1613.90412275,69576248.8251,69810351.0847,4034.27199191,4027.67055771,0.0
1.14917221617,1.19504966038,9.69717251917e-06,-7641615.97602,1.77275387266e-05,0.0,5572289.03974,684.684359416,653.860617998,66300438.6691,1822.07744702,45763240.3384,68695332.8976,4770.21386932,4760.19171779,0.0
1.1445005062,0.816313611131,1.01801774135e-05,-8252871.34724,2.43169584804e-05,0.0,5571641.70793,684.236640913,653.558918176,66305612.0651,1818.14677583,45275381.5548,68332124.3863,4750.82160124,4741.50882596,0.0
1.0040112945,1.19467634949,1.00316860191e-05,-92417048.4302,1.18298326377e-05,0.0,5909143.8671,678.008233982,644.580926013,67148152.1428,1630.09723132,67642831.6457,70785672.7622,4167.65088347,4159.27734483,0.0
1.00060628944,0.845690486541,9.87280475804e-06,-95968673.1458,1.46434518608e-05,0.0,5978273.20956,678.461489166,644.382641799,67362882.0508,1629.10769225,70764777.2517,70828589.9944,4153.51670747,4146.59825655,0.0
1.08123826817,0.950031111058,1.02163800712e-05,-28380386.0478,1.62894328866e-05,0.0,5753516.61138,680.494697082,649.612246063,66795111.2733,1735.18015342,35575112.5962,69200177.4671,4488.22005117,4479.52603202,0.0
1.11947182673,0.686728304081,1.00976544233e-05,-14317194.3625,2.31173979061e-05,0.0,5596692.25937,682.895412063,651.960281902,66345322.0126,1783.97814328,41677985.291,68569007.7069,4646.92755276,4637.23007498,0.0
1.17500376918,0.902221780514,1.00184203534e-05,2208622.67305,2.33744387862e-05,0.0,5395271.20884,686.295528559,655.529815038,65737425.6765,1852.14133999,51043749.3983,66971280.2596,4877.44064587,4866.40283777,0.0
0.972594641675,0.827696207945,9.98584818455e-06,-94353252.9045,1.52458310591e-05,0.0,5981327.62804,682.820236732,642.573347268,67323949.5345,1613.07777834,69342896.6295,69574913.4338,4037.24035759,4029.76373958,0.0
1.05835560812,0.871544676164,9.96730560403e-06,-39860351.9336,1.55335523312e-05,0.0,5821914.14028,679.278611634,648.025881828,66982839.6394,1705.2839235,34845751.0697,69730955.7028,4393.23412931,4384.89864743,0.0
1.22469768425,0.86231094425,9.76297179193e-06,13646409.8324,2.80949905227e-05,0.0,14960642.7072,689.610570047,658.655129082,65028259.641,1910.8743633,58944677.9179,66430131.9377,5083.72008732,5071.49507822,0.0
1.10911119459,1.06775785254,1.02336005102e-05,-17526109.3933,1.67375827878e-05,0.0,5671300.43701,681.98688789,651.351328128,66573324.6779,1770.53852634,39996068.7729,69041381.8489,4603.92056874,4594.59309666,0.0
1.17140170707,1.029639953,9.63240455784e-06,634795.151561,2.0413510983e-05,0.0,5461406.78075,686.212536781,655.33482945,65955972.7441,1848.39338032,50438425.8387,67778327.7667,4862.48848605,4851.724826,0.0
0.937897461072,1.09091572614,9.89368624315e-06,-93078201.603,1.24732309228e-05,0.0,6129150.85297,687.7310104,640.352962714,67731221.2859,1607.80428193,68220169.8664,68433792.6233,3893.21236091,3887.14148906,0.0
1.0290643752,1.02635653143,1.0027263487e-05,-60632213.518,1.33705329679e-05,0.0,5913089.75991,677.906819648,646.195423179,67233811.2768,1667.40811882,43061752.1646,70968830.4942,4271.64622146,4264.32489868,0.0
1.00771539749,0.827674382855,9.99797269553e-06,-88228776.2835,1.51784313995e-05,0.0,5878410.97739,678.041969702,644.818220799,67059094.7495,1635.27886906,64046079.8294,70769269.7706,4183.02661498,4174.59253555,0.0
1.17272144263,0.896851208118,9.85113783757e-06,1468356.49336,2.31227066111e-05,0.0,5445521.4984,686.211770241,655.412998987,65889709.9525,1850.56422971,50877713.5737,67603097.6224,4867.96670836,4857.39380413,0.0
1.19462928904,1.15102733426,9.93085885177e-06,6344255.61542,2.04817633536e-05,0.0,7865925.22652,687.453856939,656.777657574,65523495.5349,1874.86339761,53417331.4277,66683503.2686,4958.90617881,4947.20079466,0.0
1.14519520986,0.862600400854,1.02159955528e-05,-7518500.3564,2.29857680173e-05,0.0,5514022.73677,684.329715066,653.603308336,66114371.1887,1816.71364841,45566278.858,68445385.0196,4753.70531613,4743.54446878,0.0
1.15764835456,1.00372595435,9.68833577612e-06,-4329831.1261,2.12340238828e-05,0.0,5533683.40275,685.2294919,654.361456834,66199464.2283,1833.12825699,47753652.1946,68546484.1553,4805.39831978,4795.32641191,0.0
1.11166772335,0.984365542331,1.03099512458e-05,-16301261.6588,1.809043023e-05,0.0,5648175.12092,682.097148327,651.474177577,66502094.1997,1773.74100191,40485983.9037,69231670.992,4614.53271963,4605.06444152,0.0
1.00753062476,0.951102205886,1.00021709083e-05,-88382874.8268,1.41437819556e-05,0.0,5885870.99887,677.994076019,644.80700453,67081717.2566,1634.95190396,64177768.3227,70797544.3963,4182.25962338,4173.82856807,0.0
1.25200250194,0.984612646471,1.02689714762e-05,20259329.2485,2.95232589176e-05,0.0,22093536.4046,690.924047592,660.324742852,64657975.6697,1941.55544122,64242048.5831,65066463.2693,5197.06238555,5184.6205451,0.0
1.09335528715,0.704867566013,1.00221564206e-05,-24816734.6011,2.04696278502e-05,0.0,5720844.79937,681.371753377,650.329384115,66719224.0321,1751.95425011,36528159.3311,69065690.1046,4538.51779696,4529.82595228,0.0
1.08251912706,1.14212550196,1.03805683902e-05,-27678877.4774,1.44067008149e-05,0.0,5772128.55223,680.363258966,649.690797478,66858496.6244,1737.7142459,35812197.2117,69217643.7406,4493.53689643,4485.11125017,0.0
1.06663867112,1.00715522422,1.00111414912e-05,-35038369.682,1.46273196518e-05,0.0,5808738.99134,679.636036139,648.57284482,66957723.9885,1715.95433666,34711358.5929,70101379.8518,4427.61712382,4419.15141025,0.0
1.07992095015,0.906895554147,9.94813792235e-06,-29782363.2722,1.65142097414e-05,0.0,5776939.059,680.605910464,649.515379835,66871218.9034,1734.16801295,35522597.9569,69324609.4017,4482.75186407,4474.27036079,0.0
1.11465265938,0.876795117013,1.044192515e-05,-15444590.0785,1.98361853277e-05,0.0,5624156.86899,682.2359503,651.642986545,66417856.3496,1777.93776205,40921161.9099,69027004.4392,4626.92318909,4617.40497364,0.0
1.10940027792,0.930683875543,1.02361062968e-05,-17399193.5978,1.85928752631e-05,0.0,5658401.18515,682.072825712,651.367990474,66534748.6114,1771.03401457,40015671.0404,69023521.681,4605.12055365,4595.78896945,0.0
1.19232747301,1.0546498877,1.00605670311e-05,6070795.27885,2.20370138532e-05,0.0,7592333.55065,687.293926381,656.625415779,65473373.2754,1872.10128188,53169795.6098,66649956.1273,4949.35134046,4937.6952079,0.0
1.157299737,1.01484668282,1.00467878956e-05,-2085560.0771,1.98945458472e-05,0.0,5478409.28114,685.127335998,654.451585037,65973010.9099,1830.10437546,48858058.2584,67879047.9954,4803.95120829,4793.25042994,0.0
1.05590179891,0.890747685982,9.82173227171e-06,-43967822.9721,1.55369748669e-05,0.0,5793769.46595,679.467929408,647.944177113,66895988.418,1700.35680288,35520167.0025,70283538.4444,4383.04836728,4374.07579662,0.0
1.19639382118,0.891920377342,9.65939530244e-06,6535191.12001,2.49710397356e-05,0.0,8105743.99099,687.91578198,656.88762175,65449545.654,1877.70711813,53672201.7071,66686071.3123,4966.23075172,4954.46601084,0.0
1.08607304468,0.991015003372,1.00090396605e-05,-27398428.1082,1.60730087881e-05,0.0,5763279.77123,680.890191436,649.918457291,66840084.1988,1742.16396268,35930694.1298,69314751.8513,4508.28920847,4499.71198726,0.0
1.15767012161,0.894326730368,9.96163685873e-06,-4803887.99318,2.37921789096e-05,0.0,5534989.38606,685.301214736,654.50661496,66198921.2303,1834.58074278,47233264.6895,68484201.1983,4805.4886748,4795.86959548,0.0
1.08806604383,0.791519011732,9.90088981239e-06,-27001598.1431,1.85700937433e-05,0.0,5748304.75303,681.163049305,650.041569726,66794940.3078,1744.93776144,36026434.9044,69296322.2051,4516.56214794,4507.95382412,0.0
1.09773793488,0.814578073355,1.02039525381e-05,-22893849.3254,1.93248800262e-05,0.0,5708630.99436,681.519748801,650.673686516,66678869.7251,1757.53599479,37120073.1306,68718311.779,4556.71016769,4547.95025156,0.0
0.991803241046,1.18088553634,9.90297386885e-06,-95331534.2303,1.19177330995e-05,0.0,5943954.4246,679.530035716,643.804994559,67232849.4795,1614.13599398,70204218.8696,70453735.9715,4116.97525358,4108.79980134,0.0
1.09777243959,1.12268683486,1.01675311891e-05,-23059465.4671,1.54232949404e-05,0.0,5733294.51722,681.402217805,650.673069455,66754022.6827,1757.31311619,37101515.0564,68884409.486,4556.85339674,4548.09293787,0.0
1.00531735625,1.1959332939,9.82094771641e-06,-91484225.2731,1.16396133459e-05,0.0,5989463.83233,677.981485545,644.688097939,67400656.8096,1635.43232204,66835003.2415,71018333.0017,4173.07234579,4166.0878367,0.0
0.999751783671,1.14245651619,1.00273303237e-05,-95665474.5644,1.22427399021e-05,0.0,5916558.05045,678.377795278,644.308432349,67164797.4042,1624.4507633,70498406.5421,70726370.3779,4149.96965402,4141.66784359,0.0
1.1207867988,0.965122536183,1.02191477218e-05,-13914342.9402,1.90981004444e-05,0.0,5611526.22776,682.742807772,652.052817298,66395161.788,1785.27417182,42008540.9774,68220383.8644,4652.38600182,4642.66640449,0.0
1.06831527666,0.888169613452,9.80315113563e-06,-35264573.032,1.58945034363e-05,0.0,5815763.08148,679.931084787,648.684752339,66977999.3674,1718.9616099,34687981.7103,70191378.6407,4434.57671342,4426.27457517,0.0
1.07305318376,1.11960346573,9.95729376203e-06,-32387863.4605,1.3747469027e-05,0.0,5801918.12643,679.931291573,648.93367937,66937812.1258,1724.30463051,35111232.4425,69712169.4219,4454.24376579,4445.67869646,0.0
1.0481570365,0.804974466436,9.78318830582e-06,-47118948.3963,1.59372479811e-05,0.0,5819466.71379,679.006022814,647.385761931,66956629.5529,1690.27275204,36579353.7127,70433530.4273,4350.89985851,4342.2023388,0.0
0.961938257013,1.13555571237,1.02610323909e-05,-93888142.8905,1.23996266366e-05,0.0,6045579.16117,683.683405582,641.894769819,67519392.7096,1611.20917627,68933309.8801,69158405.1527,3993.00570486,3986.32143321,0.0
1.13131602984,0.710433107278,1.0020500185e-05,-10633281.4492,2.39231574507e-05,0.0,5560371.2348,683.610198741,652.688923245,66251169.5686,1798.93885044,44046980.242,67553694.8677,4696.09283987,4686.1987637,0.0
1.07076897788,1.04538221894,9.87642044448e-06,-34541041.9406,1.42925338062e-05,0.0,5806028.9973,679.95641012,648.835434733,66945139.261,1721.53211422,34790571.8921,69967523.3909,4444.76202718,4436.23273887,0.0
1.07388158332,0.744822345443,9.97330704821e-06,-31850907.9127,1.81274801147e-05,0.0,5773813.76698,680.110085083,648.973816312,66853459.3644,1725.68563784,35143327.9238,69568121.069,4457.68245236,4449.1045276,0.0
1.03416651526,0.812771804966,1.00743087507e-05,-57613083.4474,1.54922798625e-05,0.0,5840122.08466,678.202060346,646.493639544,67008502.0639,1672.03925099,41266692.1579,70962047.0206,4292.82520484,4284.38375358,0.0
1.06427734841,1.05497427256,9.40814859592e-06,-38392280.0496,1.35134733417e-05,0.0,5834933.9702,679.95193854,648.419325451,67020530.8881,1712.40846693,34792336.8812,70140709.4144,4417.81527325,4409.20182634,0.0
1.11181465482,0.897089248048,9.71669659903e-06,-19608573.8571,1.89770651172e-05,0.0,5690930.15007,682.62540172,651.548856926,66648323.51,1775.56173628,38829498.7681,68954698.342,4615.14263216,4606.05865166,0.0
1.09737320174,0.873437453459,1.00064557448e-05,-23583107.0663,1.83421640349e-05,0.0,5722961.80367,681.584439517,650.631831397,66733002.5458,1757.02395758,36936399.78,69029932.0761,4555.19616042,4546.44198055,0.0
1.11219392873,1.03984676702,1.04310963737e-05,-15465873.3336,1.69326399533e-05,0.0,5604266.75184,682.038959903,651.475332401,66336219.4055,1772.6235907,40857622.2686,69165789.8551,4616.71699816,4606.50221893,0.0
1.04243220279,0.917324499835,9.91456194042e-06,-52551100.6212,1.4791871707e-05,0.0,5879447.37519,678.526909109,647.017667975,67149032.5208,1685.30775213,38734348.5658,70898311.1255,4327.13607378,4319.62363737,0.0
1.12090438758,1.09816172786,9.54272437429e-06,-17479102.0449,1.70728510111e-05,0.0,5699198.71682,683.119003079,652.075857049,66681122.8481,1787.9491766,40010866.7084,69432108.3729,4652.87411284,4643.84827833,0.0
1.11691659334,1.02946793847,1.00559958339e-05,-15361680.5812,1.77902203667e-05,0.0,5615932.24102,682.593997855,651.784335242,66396217.3678,1779.39576044,41107007.0076,69074110.6801,4636.32077895,4626.27451222,0.0
1.04008874499,0.893743106312,1.00286229949e-05,-51453857.6599,1.48494272934e-05,0.0,5827447.46666,678.445270857,646.871214272,66979837.773,1679.35257903,38145702.1467,70772915.3503,4317.40838045,4308.69785303,0.0
1.08556224182,0.904790207047,1.01491447482e-05,-27123664.9026,1.70929173605e-05,0.0,5752993.95829,680.794432546,649.882201258,66809122.1868,1741.55336218,35940478.0241,69240912.3126,4506.16886579,4497.59960872,0.0
1.07094585234,1.08938907163,9.93538613751e-06,-33408775.3713,1.39219904947e-05,0.0,5806344.48251,679.876787106,648.831101357,66947065.418,1721.5512253,34920963.8966,69863933.5292,4445.49623306,4436.96445863,0.0
1.21722988847,0.913394569113,1.02420096491e-05,12495482.1993,2.69863499634e-05,0.0,13727575.984,688.787017152,658.185158374,65166274.7795,1902.55627638,58020368.375,66312011.5767,5052.72126704,5041.00895382,0.0
1.04543100605,0.955986662756,1.01994914047e-05,-47765067.0563,1.45644243282e-05,0.0,5816000.20972,678.527785335,647.210791243,66951998.1968,1686.69817275,36662076.3913,70422621.6187,4339.58410611,4330.8725433,0.0
1.01585183871,0.788425897615,1.01504939657e-05,-75346153.5049,1.51008597247e-05,0.0,5924958.51461,677.573783794,645.349200901,67235107.1127,1649.54409596,53488511.7033,70681267.3567,4216.80098249,4209.57939393,0.0
1.18290549718,1.14543758568,1.02068976282e-05,4688288.36508,1.99462288087e-05,0.0,6288358.03471,686.457655564,656.003793066,65727527.1666,1861.52998834,52439344.239,67012153.8634,4910.24071879,4899.27034399,0.0
1.18518422757,1.24250473823,1.03990473429e-05,5563168.0565,1.88798670063e-05,0.0,7076257.36207,686.470761666,656.163653122,65616197.0051,1863.37382476,52756593.7505,66751065.5238,4919.69972864,4908.48314843,0.0
0.968902147569,1.0454463497,1.03875315883e-05,-94206924.396,1.32158616571e-05,0.0,6032614.60415,682.324770934,642.346359968,67500057.7632,1612.05770806,69214140.6289,69443945.2863,4021.91281456,4015.42607617,0.0
1.08458960314,1.02488070232,1.02076373442e-05,-27289495.5215,1.5664915108e-05,0.0,5761433.00604,680.647512761,649.820811087,66835475.1742,1740.18102777,35861587.6395,69249173.7384,4502.13144263,4493.57734198,0.0
0.920943724166,0.860405479334,1.02597472017e-05,-91996931.2029,1.39899508975e-05,0.0,6076722.36063,689.295322159,639.240262605,67532445.9731,1597.93813122,67268772.5243,67532445.9731,3822.83739901,3815.84409481,0.0
1.16091039233,1.20081369062,1.00556614946e-05,-2564322.55968,1.76102594681e-05,0.0,5475652.70106,685.271642938,654.671740039,65965996.5107,1834.40578896,48317677.3598,67738094.7377,4818.93903856,4808.07468817,0.0
1.14368131697,0.634941224944,9.89047146125e-06,-8643617.10661,2.69126473015e-05,0.0,5510308.28526,684.487649505,653.418831381,66093907.4769,1815.31318033,45074593.6541,68179895.0742,4747.42114674,4737.28777405,0.0
1.1235235161,0.920642083472,1.0049657821e-05,-13458758.2283,1.97849066937e-05,0.0,5606346.4244,683.056859572,652.234420816,66381440.9181,1788.91070021,42311238.0795,67975605.5536,4663.74611533,4653.97949827,0.0
0.956584210961,0.998028074237,9.79008092503e-06,-93826641.7513,1.38330592372e-05,0.0,6084217.92899,685.698389178,641.557343153,67624826.8759,1615.04217091,68879143.8436,69102098.1194,3970.7810597,3964.46087926,0.0
1.228379203,1.03901512739,9.72175975895e-06,14613391.7454,2.46343363125e-05,0.0,15982662.194,689.650701301,658.912523763,65234084.1205,1916.32095253,59781458.0263,66673969.2772,5099.00207165,5087.32943932,0.0
1.12917697998,0.821886385223,1.00590382974e-05,-11926721.7757,2.18074739962e-05,0.0,5579424.05041,683.37867393,652.536916196,66308450.8018,1796.26099471,43226047.7436,67336529.5808,4687.2136439,4677.35244085,0.0
1.10610352794,1.02474624879,1.01261111043e-05,-20673252.3804,1.73568294053e-05,0.0,5702969.52354,681.961701621,651.195751,66675651.1114,1768.24226515,38120113.8076,68755016.2043,4591.43574448,4582.54384007,0.0
1.13122938309,0.940817610237,9.86994232665e-06,-11775347.756,2.01839654977e-05,0.0,5609519.27687,683.649992173,652.75700027,66396324.9617,1799.67386191,43310231.2063,67472603.8041,4695.73316921,4686.11583326,0.0
1.20752271145,0.581431922605,1.02522646089e-05,10844621.3805,3.62555585908e-05,0.0,12126316.2698,688.545186755,657.500412819,64956366.4041,1890.80166219,56476334.4019,66368545.7994,5012.42677523,5000.48265956,0.0
1.15309801859,1.03377342915,9.7077121489e-06,-5371042.99509,2.03126979579e-05,0.0,5551387.45906,685.031549392,654.170251286,66248796.6085,1827.26438846,47283293.8864,68783460.7061,4786.50987517,4776.54311857,0.0
1.0342673266,0.799163180617,1.01087528412e-05,-56312673.3458,1.55287223031e-05,0.0,5836138.93279,678.173976067,646.501750837,66996081.2407,1671.9667752,40549260.1362,70861015.4857,4293.24367272,4284.71353609,0.0
1.02007775157,0.99394323325,9.65290950032e-06,-75062357.1471,1.35256099863e-05,0.0,5949655.68457,678.088394858,645.62651519,67319773.9344,1655.36371144,53290777.0351,71031069.2609,4234.34274677,4227.14968076,0.0
1.04695628225,0.920373367767,1.00169733667e-05,-49141208.3891,1.49907944652e-05,0.0,5865686.5418,678.668153879,647.327742569,67116971.38,1691.37653275,37263474.1226,70559651.6188,4345.91552762,4338.33745179,0.0
1.17197101421,1.11406806037,9.70392828124e-06,1002516.67847,1.91197103663e-05,0.0,5449562.00745,686.155566622,655.364361146,65910534.3496,1848.2423207,50684905.43,67750005.3162,4864.85167999,4853.86965155,0.0
0.987883191865,0.851071882401,1.00002036459e-05,-95075177.0982,1.47276405962e-05,0.0,5928233.10824,680.00756103,643.549906921,67183792.5584,1611.67137146,69978552.1953,70222601.3864,4100.70312943,4092.59114002,0.0
1.13004269249,1.08542733447,9.82906425085e-06,-12244624.8651,1.78708802501e-05,0.0,5630039.84395,683.515729958,652.676275644,66458792.8278,1798.06000399,43001227.9698,67596853.3749,4690.80721653,4681.23505491,0.0
1.06366123861,0.841044717633,9.86729199499e-06,-37737829.0222,1.61305917079e-05,0.0,5810964.18084,679.663847274,648.379527808,66956759.3347,1712.36018357,34680065.9705,70069845.6385,4415.25780147,4406.83834825,0.0
1.0128586431,1.06891347965,9.9220177044e-06,-81189694.7335,1.26995360068e-05,0.0,5961213.6022,677.715715629,645.161377995,67327498.467,1645.6854844,58161929.5003,70840087.2427,4204.37622751,4197.28549146,0.0
0.994249803923,0.901894942056,1.01304570454e-05,-95290242.0078,1.45396096833e-05,0.0,5913165.20228,678.941692803,643.957774069,67149021.1167,1617.43964619,70167961.1569,70421644.8309,4127.13093608,4118.99624827,0.0
1.16305022416,0.793461067318,9.89480777111e-06,-2135422.22589,2.63634664308e-05,0.0,5505194.5694,685.712045035,654.836130718,66108165.8153,1840.96932005,48873543.2499,68194486.6967,4827.82148049,4818.09039632,0.0
1.13924244605,0.756162737686,1.03058775178e-05,-9136190.47058,2.43762592305e-05,0.0,5523039.62256,683.857301414,653.143513919,66138022.9274,1809.29905139,44640351.7384,68025909.5067,4728.99539355,4718.96202082,0.0
1.03155877591,0.665195545512,1.00900304556e-05,-58868878.016,1.66656381948e-05,0.0,5834374.08258,678.144116557,646.327882893,66984581.1612,1668.46065953,41986405.6789,70961117.1391,4282.0004788,4273.51412754,0.0
1.17154128213,0.935218096438,9.80236734187e-06,-143366.239862,2.4216702292e-05,0.0,5502539.55505,686.181424894,655.367918956,66114543.6999,1851.76926903,50013610.0152,67842563.7386,4863.06786212,4853.307641,0.0
1.10376874908,1.08686468366,1.02176477051e-05,-21137562.3412,1.63809575568e-05,0.0,5711028.70215,681.749080975,651.055338067,66698561.1968,1765.14828091,37903657.1145,68673932.8382,4581.74407743,4572.88909097,0.0
1.17531390652,0.818728829539,9.70628127292e-06,2017559.15601,2.46227222579e-05,0.0,5400404.15048,686.562129429,655.562871379,65765905.4659,1852.81885492,51175314.2854,67004125.813,4878.72802596,4867.69935637,0.0
1.0512189414,1.18197198454,1.0311434922e-05,-44373197.7409,1.26253947848e-05,0.0,5812263.13975,678.614510508,647.569780491,66954477.8086,1694.23951673,35602116.9228,70398318.8586,4363.60982575,4354.80498964,0.0
1.06112711158,0.790711141519,1.00204736889e-05,-38307747.1527,1.65981452753e-05,0.0,5808182.53754,679.429733474,648.214379956,66946467.88,1709.04208648,34675723.8329,69929737.0602,4404.73864017,4396.36000647,0.0
1.10910335022,1.1116302884,1.0042269642e-05,-19802838.3563,1.62797271005e-05,0.0,5707202.31118,682.144034837,651.378291081,66690850.4206,1772.18527624,38593200.3867,68908315.3464,4603.88800676,4594.9478161,0.0
1.23118122787,0.889250790229,1.00997453045e-05,15629095.2686,2.88148717257e-05,0.0,17086974.2209,689.603424359,659.000854854,65106221.2326,1919.59729832,60600019.4567,66726544.6057,5110.63327689,5099.00294412,0.0
1.15043456547,1.09490809133,1.01340108179e-05,-5377047.99204,1.96931548007e-05,0.0,5553792.15209,684.434710974,653.905673271,66230282.986,1823.84745707,47060580.3903,68692514.9917,4775.45388127,4765.6254517,0.0
1.01576706082,0.818236811823,9.51496886826e-06,-80573669.7177,1.49961121665e-05,0.0,5947736.05424,678.26283184,645.347253388,67290423.2184,1649.05581726,57674914.9507,71125603.735,4216.44906946,4209.14040384,0.0
1.09639004385,1.07680329696,9.8359512657e-06,-24255640.8813,1.5537843492e-05,0.0,5751211.86674,681.520504839,650.539431867,66813406.4543,1755.71651505,36795232.3918,69206201.3059,4551.11507202,4542.37623611,0.0
1.07339913299,1.07895214997,1.00891658272e-05,-31707362.2229,1.42428852771e-05,0.0,5793120.98645,679.856940712,648.941758251,66914597.6278,1724.79141554,35141206.2233,69557245.3109,4455.67980104,4447.10946749,0.0
1.0664779882,0.958983471201,1.01413583911e-05,-35375047.847,1.51466809487e-05,0.0,5800602.34562,679.566166387,648.562589969,66924815.8993,1715.98562485,34670072.6384,69997056.4948,4426.95012902,4418.48663598,0.0
1.05496354307,0.949254312699,9.89591997881e-06,-42800814.983,1.46901369242e-05,0.0,5815742.30843,679.292956311,647.890147976,66958783.4823,1699.86619334,35307188.2103,70548029.6459,4379.15366728,4370.52382601,0.0
1.11965273724,0.80856227775,1.02869201721e-05,-14444740.0793,2.12268784811e-05,0.0,5604695.81047,682.715594212,651.981715513,66363238.5117,1784.44258854,41541576.8245,68404743.9807,4647.67851228,4638.07706735,0.0
1.13362552714,0.897174100355,1.00784351481e-05,-11057744.2563,2.1147312186e-05,0.0,5570186.21561,683.618716475,652.831787949,66269534.1556,1802.03836832,43641299.4637,67618637.5003,4705.67956316,4695.74173232,0.0
1.23281600223,0.958617926413,1.0092013541e-05,15941300.4207,2.75268166317e-05,0.0,17434709.8267,689.65022318,659.097542177,65114344.3736,1921.40084496,60890411.0708,66763958.5095,5117.41922526,5105.75947114,0.0
1.09561439746,0.876085704291,1.00711950543e-05,-23968581.1921,1.82070273589e-05,0.0,5725673.35024,681.420987496,650.505180774,66740018.2438,1754.73374706,36799678.8765,69010113.2805,4547.89536386,4539.16806711,0.0
1.18109503854,0.971718142351,1.02168256654e-05,4314843.52844,2.28446633652e-05,0.0,6117266.37535,686.457535366,655.892629058,65688085.486,1859.62277123,52205058.4065,66983450.58,4902.72550498,4891.78828304,0.0
1.16394044808,1.21206289117,1.02256800572e-05,-1437786.20722,1.78528668598e-05,0.0,5455083.49886,685.337911496,654.853461235,65908914.2285,1837.95798224,48868489.9773,67625072.5978,4831.51679998,4820.58543198,0.0
0.982554707885,0.714478045281,9.71966003271e-06,-94931090.3457,1.60579864833e-05,0.0,5999500.94244,681.898830661,643.225140604,67395743.5584,1618.24777255,69851473.9208,70090727.7704,4078.58459243,4071.57681062,0.0
1.2531537306,1.1459509895,1.00756012984e-05,20201399.3703,2.5723054075e-05,0.0,21960775.19,690.966644571,660.39279643,64728140.0595,1942.5983483,64212628.6813,65060780.8642,5201.84113572,5189.26176413,0.0
1.22064140496,1.20249743525,1.006779803e-05,13097258.3809,2.16928738779e-05,0.0,14327938.1037,688.898882564,658.397405791,65212287.3366,1905.49592487,58484884.8412,66544446.7456,5066.88247199,5054.90556512,0.0
1.06501966518,1.0000995667,9.58368850689e-06,-38290370.618,1.43724356868e-05,0.0,5828309.31642,679.89005985,648.468062577,67008302.1558,1713.97445251,34763145.6608,70167448.8177,4420.89663016,4412.4559497,0.0
1.04884991452,0.645280094717,9.77755280853e-06,-45950737.3223,1.73016898845e-05,0.0,5811968.15896,679.090121608,647.425415683,66935604.6245,1691.43220529,36092544.5251,70471365.6884,4353.77599517,4345.06692455,0.0
1.12913069004,1.04880217538,9.85056780855e-06,-12405760.641,1.83420368508e-05,0.0,5628826.71966,683.462659496,652.616607779,66455924.635,1796.92252057,42829313.4092,67716747.5807,4687.02149436,4677.46438769,0.0
1.11787146855,0.941420865707,1.03900816974e-05,-14743403.7436,1.92833717263e-05,0.0,5617898.09118,682.461469248,651.863977078,66402823.3099,1781.98249892,41339308.9809,68597474.4129,4640.28446595,4630.71178685,0.0
1.1669710776,1.1593997053,1.00539400273e-05,-841064.191759,2.01481405981e-05,0.0,5520778.89316,685.627389324,655.073934878,66143186.647,1845.25823696,49478862.1883,67875894.7519,4844.09694312,4834.30164318,0.0
1.01302664699,0.712646338253,1.03092719369e-05,-75412769.4657,1.56533412656e-05,0.0,5888652.62422,677.486617868,645.149433912,67101933.0237,1644.37970403,53521991.8173,70524792.4805,4205.07361166,4197.27778084,0.0
1.19099418296,0.948061092013,9.73962502911e-06,5341167.57059,2.35218375375e-05,0.0,6977605.71997,687.445838635,656.51416966,65544172.3329,1871.0329501,52947531.3311,66842152.9675,4943.81685347,4932.17874848,0.0
1.07076897788,1.04538221894,9.87642044448e-06,-34540946.5435,1.42925275326e-05,0.0,5806016.79641,679.956406728,648.835431956,66945133.793,1721.53211634,34790644.0774,69967573.6731,4444.76202718,4436.23273887,0.0
1.11094586251,0.849044963654,1.00144098411e-05,-17076437.6061,1.95056733112e-05,0.0,5622795.11939,682.401412849,651.453191689,66406757.763,1771.89084337,40246573.474,69030426.2804,4611.53627528,4601.59328125,0.0
1.03624330153,1.12240876666,1.01686988313e-05,-54184704.4023,1.2647841343e-05,0.0,5848928.01725,678.065781539,646.61789766,67037376.1562,1674.36445683,39440702.4557,71150132.3295,4301.44594465,4292.88517001,0.0
1.03002361792,0.863353640932,1.0428625999e-05,-59576966.2442,1.51164060133e-05,0.0,5810347.36514,677.723759178,646.217000933,66915488.6528,1664.87632242,42354335.2091,70557980.3381,4275.62803799,4266.74116524,0.0
1.06031631463,0.861599893965,9.96562604219e-06,-38914576.7917,1.57508070685e-05,0.0,5816774.41179,679.400311281,648.163200505,66970132.6943,1707.90569642,34741863.2902,69879942.237,4401.37302203,4393.00574448,0.0
1.00803509854,0.854298433883,1.04285570735e-05,-83693854.3834,1.49733807041e-05,0.0,5864592.28395,677.424115525,644.830939988,67025591.9007,1635.953471,60212440.3114,70492681.8062,4184.35369404,4175.99779842,0.0
1.12027802774,1.17140529224,1.03717338139e-05,-14201472.4977,1.64359384173e-05,0.0,5629828.85843,682.515819497,652.022943556,66442969.7938,1784.83286989,41687726.2055,68267208.3767,4650.27409315,4640.66221949,0.0
1.1458227981,1.07586476124,9.53693326545e-06,-7414038.61101,1.87993783665e-05,0.0,5560308.073,684.60585407,653.632570777,66256307.5328,1816.6121577,46233036.5085,68627950.6839,4756.31043491,4746.04312961,0.0
1.2385982315,1.18664070033,9.92535043809e-06,17120046.7462,2.30566664071e-05,0.0,18702303.2301,690.008762655,659.479710097,65068701.2751,1926.90155099,61818784.5542,67056772.6056,5141.42125896,5129.39024435,0.0
1.16078199588,0.647858807601,1.01419863048e-05,-1887973.94873,2.76761897497e-05,0.0,5444996.57274,685.521393133,654.671000191,65900252.727,1836.30490066,48686005.547,67787104.0776,4818.4060649,4808.05032223,0.0
1.13536324395,0.882252822483,9.99372073798e-06,-9786749.50136,2.14954444994e-05,0.0,5585067.30224,683.837326927,653.031747075,66334269.7078,1804.76955229,44680180.4249,67864561.9005,4712.89282564,4703.23496636,0.0
1.09488505269,0.795305697335,9.65693674795e-06,-25015863.9642,1.87327779857e-05,0.0,5736293.85723,681.674094158,650.426863784,66770185.2514,1753.67343994,36567935.7118,69233549.8794,4544.86785372,4536.05435799,0.0
1.06037824474,1.15215137492,9.87079464966e-06,-39327660.6804,1.278116317e-05,0.0,5838010.1893,679.362313036,648.167541326,67033698.8815,1707.77060353,34810854.8778,69916964.1842,4401.63009392,4393.26259185,0.0
1.12068135673,0.836471605823,1.01841919482e-05,-13919416.477,2.07769794866e-05,0.0,5602272.83412,682.825915788,652.04591524,66366708.878,1785.29836065,41980007.8651,68273604.6609,4651.94831179,4642.2295723,0.0
1.02607702657,0.771907180787,1.00506600428e-05,-65493397.3451,1.57846645967e-05,0.0,5849378.13922,677.983451448,645.975810198,67024743.9664,1660.8899692,46251972.6498,70910736.8932,4259.24573729,4250.84803581,0.0
1.16366025659,0.863890686822,9.73375213021e-06,-892836.347131,2.28668042576e-05,0.0,5474126.23572,685.784366875,654.857111019,65976693.7273,1839.10837182,49642660.0102,68033054.3445,4830.35372511,4819.83194166,0.0
1.12510092295,1.03028923395,9.68641462859e-06,-13845654.5357,1.78316958655e-05,0.0,5602930.05721,683.351964438,652.317010557,66370589.2593,1789.87353777,41951855.8644,68278631.6614,4670.29393117,4660.0244386,0.0
1.00183771459,1.11906662104,9.83896467587e-06,-95774267.3068,1.25050601174e-05,0.0,5940031.85815,678.624239182,644.448545468,67238028.3792,1628.33636352,70594336.3455,70995535.4584,4158.62835326,4150.69926186,0.0
1.16221437496,1.2410324472,9.7632974382e-06,-2835865.6051,1.83593443526e-05,0.0,5558985.69754,685.462109842,654.78480184,66270231.561,1839.49531866,48582470.5213,72551114.2227,4824.35187046,4814.63445378,0.0
1.14398868885,0.832151048839,9.91234119322e-06,-8604865.00072,2.30175376799e-05,0.0,5533491.43352,684.336768415,653.433478355,66166336.2434,1815.38191346,45127712.0702,68284012.8944,4748.69704742,4738.55841008,0.0
1.13392475044,0.9067119482,9.44382630969e-06,-11833103.8929,2.0427772772e-05,0.0,5570311.61871,684.172528533,652.920640219,66283273.4912,1801.5545811,43195958.6483,67535632.5226,4706.92163908,4696.55470617,0.0
1.18089598049,1.16137071024,1.033702335e-05,4544798.15878,1.97797781357e-05,0.0,6149109.35272,686.23164197,655.875222008,65761584.4174,1859.19356918,52298403.3767,67035216.955,4901.89921501,4891.0790201,0.0
1.00614909527,1.08876724839,9.57907130078e-06,-93133311.8065,1.23674263111e-05,0.0,5966599.43258,678.412074013,644.733986028,67313039.6288,1634.95170749,68272332.9758,71069091.1356,4176.52489447,4169.01094676,0.0
1.13424733883,0.942665038467,9.44170913937e-06,-11760214.4242,1.99441912972e-05,0.0,5627430.39454,684.103530935,652.958548409,66470841.0479,1804.01895811,43234562.9371,67639836.2156,4708.26070348,4698.69686255,0.0
1.22213450875,0.86184667926,1.00110438852e-05,13349756.5609,2.82255985255e-05,0.0,14568108.724,689.30395575,658.490009841,65029929.1709,1907.74821674,58647988.6229,66387268.122,5073.08034582,5060.96546723,0.0
1.12723393512,0.814878529254,9.8906628299e-06,-12966095.8184,2.17063747116e-05,0.0,5618821.82003,683.428917662,652.492691877,66429279.941,1794.9992126,42450804.9791,67989117.9733,4679.14806468,4669.72420915,0.0
1.21640773124,0.826220848546,9.79550673663e-06,11913603.9336,2.8156031757e-05,0.0,13205651.3643,689.046732481,658.106460653,65176919.5459,1901.84231885,57548173.333,66204444.3614,5049.30849238,5037.43798813,0.0
1.12234953993,0.83432595354,1.02604149787e-05,-13524653.8627,2.10560986665e-05,0.0,5593874.93168,682.903966589,652.157969895,66327988.5085,1787.63029735,42154513.2151,67846369.8634,4658.87294025,4649.12660771,0.0
1.15490087967,1.05328622446,9.88438636754e-06,-5818638.80079,2.06817573412e-05,0.0,5565835.93197,685.016603538,654.287779957,66289070.4426,1830.95988314,46783234.2265,68691473.5589,4793.99355151,4784.41946149,0.0
1.08092007896,0.919782323006,1.00872202922e-05,-28968817.925,1.65313998758e-05,0.0,5769349.33728,680.576559102,649.594008879,66852002.7448,1735.46749041,35639050.4609,69278355.6948,4486.89924776,4478.40222942,0.0
1.21568469573,0.949175677083,9.61230191562e-06,11892625.1881,2.51916228546e-05,0.0,13254059.4751,688.937536312,658.05939434,65364747.7681,1901.44452092,57564907.706,66401585.3165,5046.30717198,5034.73043844,0.0
1.16509182357,1.12539981079,9.84649360339e-06,-775960.381837,1.87474335513e-05,0.0,5461228.8804,685.673776121,654.930922754,65937242.7297,1839.48300958,49581199.6298,67841092.2763,4836.29615964,4825.33190834,0.0
1.24586095138,1.09232502035,9.9172029849e-06,18638208.4775,2.54815484711e-05,0.0,20270392.7435,690.612261231,659.95200997,64873121.5523,1934.97661317,62974211.3619,66087970.0849,5171.56880918,5159.23053452,0.0
1.15536312533,1.01510390049,1.04874898318e-05,-3052637.38837,2.05244896989e-05,0.0,5452139.91243,684.781072189,654.316460411,65896615.4807,1827.39569973,47753255.6176,67786716.7598,4795.91233324,4785.13413714,0.0
1.24082841436,0.968762068467,1.00936563465e-05,17908033.8824,2.81208986159e-05,0.0,19497976.8425,690.298935992,659.657287275,64914470.4991,1929.72756334,62380362.1141,67057780.6146,5150.67874801,5138.64272936,0.0
1.09681704404,0.783727764433,9.66101137249e-06,-24349563.0018,1.90776117927e-05,0.0,5729369.236,681.80065375,650.560109029,66738402.4727,1756.214406,36751242.6028,69202697.8794,4552.88754981,4544.04342748,0.0
1.14721729187,1.04854968018,9.99815238488e-06,-7583670.99896,1.98789603651e-05,0.0,5537347.1516,684.481015626,653.737828161,66185830.1872,1819.14497464,45673152.3956,68577861.9072,4762.09897855,4751.90504857,0.0
1.08723189384,0.926138874721,1.03623662273e-05,-26063977.7417,1.72415731829e-05,0.0,5745691.7004,680.706079544,649.964861771,66784212.5156,1744.06074169,36129190.6279,69132785.464,4513.09959133,4504.60194764,0.0
1.02113350706,0.7543140794,9.76720815697e-06,-72730823.7027,1.55623858577e-05,0.0,5931473.02817,678.060904733,645.69714866,67269769.0894,1656.94711757,51495244.9975,71002078.3682,4238.72518781,4231.51710418,0.0
1.1877980776,0.920007144572,1.04484900301e-05,6222972.03917,2.46599216406e-05,0.0,7686704.43336,686.864130079,656.337175767,65415513.5592,1866.47138102,53041920.1337,66512869.1582,4930.54982012,4919.07387591,0.0
0.957495191049,1.01913376833,9.92489492043e-06,-93838850.6997,1.35540916883e-05,0.0,6077615.11733,685.18266096,641.615329277,67609190.7346,1613.85087693,68889932.5832,69113244.1106,3974.56253804,3968.23024406,0.0
1.13744481879,1.02184060289,9.93629906171e-06,-9107843.77376,1.95059143804e-05,0.0,5564286.93884,683.964919878,653.157939401,66263057.7125,1806.16165008,45042605.4501,68017297.7668,4721.5334428,4711.40776839,0.0
0.960657854064,0.885711031572,9.6701165433e-06,-94040928.53,1.45129568116e-05,0.0,6049409.42389,685.1639007,641.813068863,67501802.7692,1613.43511919,69067755.2198,69293990.4168,3987.69075222,3980.75644436,0.0
1.07450048806,0.911977159006,9.79679266571e-06,-32639421.3799,1.60025028639e-05,0.0,5801863.5155,680.21024803,649.031230571,66946853.7975,1727.04113878,34996855.1538,69822681.8866,4460.25152594,4451.85399175,0.0
1.19012282175,0.960499033075,9.95844014936e-06,5721068.91045,2.34550193339e-05,0.0,7276499.94604,687.250709856,656.462792148,65507941.6926,1869.56948967,53050107.6459,66768698.0346,4940.19983308,4928.58606107,0.0
1.06256552944,0.986515336855,9.78831840068e-06,-38610035.4827,1.44891459693e-05,0.0,5825689.52108,679.606456475,648.309415346,66998764.0572,1710.77673043,34764307.4161,70037957.938,4410.70951271,4402.30716548,0.0
1.10362494871,1.02413490459,9.98251514636e-06,-21516633.4099,1.69257046043e-05,0.0,5719900.93491,681.932756803,651.058763409,66717663.3677,1765.18274236,37746838.5887,68629892.4,4581.1471621,4572.29433413,0.0
1.11666107807,0.701986219108,1.03030801513e-05,-15136004.5969,2.27778766902e-05,0.0,5604988.76726,682.570629814,651.774771145,66359281.607,1780.77865381,41099105.0022,68849870.4528,4635.26013507,4625.70852302,0.0
1.15157841922,0.705536471094,9.9389420255e-06,-5320729.94275,2.66696176562e-05,0.0,5515018.15562,684.995253883,654.070118249,66127936.9096,1825.89017082,47129588.8925,68609030.842,4780.20201818,4770.35290611,0.0
1.16306113751,1.09195070451,1.02052730336e-05,-1350552.36162,1.9342846114e-05,0.0,5479726.75833,685.325374007,654.812490409,65985483.6734,1838.04663031,48979616.6417,67685527.1459,4827.8667818,4817.37274745,0.0
1.19342204351,0.821265039335,9.8961920168e-06,6456949.94999,2.62787226621e-05,0.0,8001562.57614,687.59155748,656.708858767,65514743.0988,1874.92371072,53542950.0054,66639391.6657,4953.89490261,4942.62822559,0.0
0.981250016471,1.01847540178,1.03478510212e-05,-94896455.409,1.35743298228e-05,0.0,6005260.91171,680.175377124,643.141371275,67426594.2884,1611.98993118,69821213.4656,70058339.7018,4073.16881837,4066.52163547,0.0
1.18089631872,0.666424866206,9.92148531469e-06,3548017.71072,2.92298725547e-05,0.0,5609264.07452,686.930836341,655.889192068,65568140.0622,1859.89400786,51826726.3684,66838943.8221,4901.90061901,4890.75713638,0.0
1.18391471115,0.769495315251,1.0390814419e-05,4958651.03721,2.75007115273e-05,0.0,6470363.67314,686.707395879,656.071211169,65544278.9949,1863.44562919,52391890.1752,66714401.8036,4914.42996598,4903.44567433,0.0
1.08731731541,1.08378581266,9.64481174854e-06,-27717079.9674,1.46566935569e-05,0.0,5779736.62216,681.180975069,650.005047805,66891553.8157,1743.52702395,35973707.6278,69457326.9704,4513.45417627,4504.75960754,0.0
1.13524242563,0.92226869087,1.00526076948e-05,-12016763.6437,2.11898662872e-05,0.0,5527721.80002,683.914071632,653.004846029,66154615.7763,1803.17918692,43147165.5415,67483540.3802,4712.39130879,4701.91333197,0.0
1.10317189367,1.07490072857,1.0236377109e-05,-21267018.7529,1.65032853229e-05,0.0,5710909.5312,681.700191668,651.019286279,66697132.9719,1764.37472711,37850492.9044,68646742.6799,4579.26653062,4570.42097171,0.0
1.27029465318,0.588344482931,9.83475736728e-06,23456893.3396,4.38063842409e-05,0.0,25314638.3515,692.921102219,661.51214063,64083130.5566,1963.9595012,66499222.9465,67483994.7097,5272.99310535,5259.97409326,0.0
1.0632720081,1.02885404436,1.00181323528e-05,-37359691.4843,1.41552667576e-05,0.0,5818019.10333,679.451734331,648.353521288,66980684.2328,1711.72571058,34666353.9346,70087631.8361,4413.64210562,4405.22873063,0.0
0.991845496711,1.14388332214,1.05328889347e-05,-95153034.4809,1.22258811309e-05,0.0,5918162.58153,678.158669077,643.800879664,67166658.5099,1614.17301906,70047149.3546,70351678.4031,4117.15065685,4109.05456105,0.0
1.07976864203,0.965621773029,1.03217619507e-05,-28810181.4766,1.62046399614e-05,0.0,5770254.51598,680.330298501,649.526134096,66860974.0338,1734.26119424,35586238.9462,69212022.1274,4482.11963307,4473.7370678,0.0
1.00297393284,1.00987639439,1.06065031437e-05,-87140632.7514,1.35780555895e-05,0.0,5879016.47609,677.215506452,644.507508195,67064795.6024,1629.154849,63095188.4674,70561854.7424,4163.34479522,4155.069656,0.0
1.17030131868,1.08053790713,9.9536430256e-06,734458.150147,1.98056757148e-05,0.0,5431805.09496,685.944256889,655.253108523,65832991.1066,1845.93380425,50257209.8313,67509809.0444,4857.92077384,4846.86353014,0.0
0.952007841406,1.17867919466,9.71921300312e-06,-93693927.7811,1.21514191857e-05,0.0,6107779.94687,686.399341818,641.263158245,67688397.367,1614.23103633,68762212.1516,68982946.6215,3951.78454968,3945.52582721,0.0
1.04305303628,0.682070268111,9.48745015962e-06,-53181682.6959,1.72704779136e-05,0.0,5815025.01303,679.137442522,647.063413499,66938677.5418,1682.75838668,39014526.3319,70915031.8547,4329.7131536,4320.77993784,0.0
1.11850379616,0.917763694667,9.85161342028e-06,-15190200.1445,1.93182982094e-05,0.0,5668675.80271,682.807384583,651.909009193,66571162.7751,1783.77315094,41244180.3887,69313793.6566,4642.90925786,4633.72268541,0.0
1.02386701389,0.795009534963,1.00578017531e-05,-66239406.2888,1.53183615057e-05,0.0,5907754.90554,677.792429877,645.853713828,67204979.5963,1660.20705132,46794129.3548,70882813.7632,4250.07197466,4242.73528213,0.0
1.21124038927,0.811048030829,1.02256689004e-05,11368334.421,2.87922425904e-05,0.0,12626106.5336,688.489833344,657.769113504,65157101.8636,1895.1424926,56999585.3839,66148005.1944,5027.85885586,5016.06326967,0.0
1.04856750362,0.697473872951,9.50255431634e-06,-49121460.4973,1.71746947631e-05,0.0,5813682.93832,679.360944065,647.421509123,66945290.1792,1690.69567733,37226866.2506,70967985.9634,4352.60370753,4343.75242615,0.0
1.16522810792,0.958043099513,1.01668849926e-05,194599.813045,2.1791559281e-05,0.0,5426030.30388,685.577503913,654.931822715,65817934.1385,1839.54772983,49959766.0477,67566662.1017,4836.86187598,4825.92256602,0.0
1.15802528105,0.759606127524,1.03080028594e-05,-2370248.91106,2.49095324672e-05,0.0,5464094.64732,685.154330135,654.49677019,65940995.5899,1832.49621064,48244688.9159,67810637.3447,4806.96294164,4796.66026788,0.0
1.16424427441,1.0004402015,9.69122488285e-06,-2054454.44213,2.22169373633e-05,0.0,5532619.10436,685.777420361,654.913734739,66191025.8012,1842.24367171,49021417.6529,68362212.1786,4832.77798308,4823.02740928,0.0
1.03117718576,1.05043691734,1.00303991376e-05,-60493003.2987,1.32703914534e-05,0.0,5862154.71159,678.057898404,646.313035062,67071304.2077,1667.90410993,42996211.983,70954284.7073,4280.41649809,4272.02296123,0.0
1.08388900402,0.878210700676,1.05605253784e-05,-26568761.7953,1.76844185879e-05,0.0,5743300.48724,680.408289389,649.768055118,66775174.9432,1739.68483996,35940323.7992,69075752.8333,4499.22325569,4490.77723698,0.0
1.06768110499,0.986087667086,1.04377183806e-05,-33295848.7446,1.52937796642e-05,0.0,5791085.12998,679.361449739,648.610301631,66907795.0891,1717.66529555,34821732.853,69622480.3679,4431.94426681,4423.5561758,0.0
0.992413370329,0.968410257307,1.00202801078e-05,-95282235.1422,1.3856258845e-05,0.0,5923708.39437,679.258560219,643.842687388,67174883.2914,1614.85430247,70160816.3042,70412596.342,4119.50790024,4111.32258347,0.0
1.12237573454,1.06134867175,9.91730173464e-06,-14233309.9707,1.73623055885e-05,0.0,5610072.87835,683.010772393,652.141278254,66383331.8209,1786.49015869,41698913.4195,67552517.9274,4658.98167408,4648.85663514,0.0
1.02642326029,0.976020808538,1.00028349963e-05,-63533591.5579,1.38852574156e-05,0.0,5911651.07258,677.864876276,646.018405188,67222120.6331,1663.51017639,44948622.9021,70853508.4951,4260.68295346,4253.30938885,0.0
1.19687578571,1.01342365676,1.05110871385e-05,9028926.94698,2.37957103627e-05,0.0,10369321.1391,687.221766645,656.90567272,65487811.9778,1878.47859051,55168680.7727,66704196.4004,4968.23138648,4957.23935736,0.0
1.14231053604,1.06802160875,1.0071867177e-05,-8878055.05154,1.92599254671e-05,0.0,5556077.16616,684.004191887,653.331794427,66237317.477,1812.89765533,44988556.4188,68276736.3819,4741.7310351,4731.61959937,0.0
1.06814323985,1.12868243582,9.9477996643e-06,-33784822.8828,1.33984337241e-05,0.0,5806676.75963,679.713954933,648.665195405,66939177.4592,1717.2239965,34874788.041,69965572.3738,4433.86258862,4425.1862633,0.0
0.981537968291,1.16114997642,9.9791763236e-06,-94948026.7626,1.1943811875e-05,0.0,6014039.40471,680.952849251,643.157329026,67436632.8169,1613.71021417,69866304.5343,70105881.5806,4074.36410638,4067.28851273,0.0
1.0635105903,0.992477995519,9.9409982767e-06,-37553513.573,1.45422464654e-05,0.0,5817956.81735,679.54076524,648.369702436,66979538.11,1712.06703317,34677727.997,70091727.0436,4414.63246034,4406.21535985,0.0
1.14059110023,0.692321495978,1.06579122548e-05,-8354835.78318,2.6995978096e-05,0.0,5547669.72331,683.763854683,653.305074923,66198582.0741,1813.12831601,44905647.603,68132589.7266,4734.59365705,4725.36994512,0.0
1.15684292711,0.786946681426,9.92129497785e-06,-3355319.99236,2.37778616397e-05,0.0,5485050.82381,685.322327106,654.43337305,66009303.5292,1831.08823546,48152600.3442,68240840.8118,4802.05499043,4791.67544874,0.0
1.05338472575,1.14636008277,1.02557802578e-05,-42258420.6171,1.28403126863e-05,0.0,5821685.02436,678.84375535,647.782057975,66983033.4196,1697.91776299,35180854.0863,70429070.2958,4372.59999659,4364.08745886,0.0
1.20851070215,1.01465794049,1.0055055817e-05,10510974.081,2.39727902638e-05,0.0,11912057.8927,688.193548294,657.58424159,65360996.6241,1892.1848612,56477685.62,66908117.0189,5016.52792462,5004.97447504,0.0
1.15689159859,1.16593782289,9.83140874488e-06,-5454957.37602,1.90290506233e-05,0.0,5571710.22212,685.111245458,654.411986558,66309168.8098,1833.3760496,47011107.0248,68690763.9831,4802.25702575,4792.65060298,0.0
1.02424394625,0.586066474318,9.58010984977e-06,-70607965.4785,1.75564915866e-05,0.0,5918850.69104,678.382303082,645.891590554,67234837.4014,1661.18031045,49921878.1533,70892091.6759,4251.63662088,4244.38421516,0.0
0.991424970026,1.07699682118,1.02564312239e-05,-95184782.4516,1.29310334861e-05,0.0,5925979.35096,678.895361921,643.777061793,67185615.8791,1613.66551434,70075078.337,70324299.9805,4115.40505058,4107.3156971,0.0
1.12342660073,1.01033308713,9.81904942027e-06,-13929166.7382,1.83977207357e-05,0.0,5649128.44565,683.119163846,652.226739153,66524275.7546,1789.6812682,41888125.5671,68713587.2168,4663.34381963,4653.88065758,0.0
1.10523621829,0.658605900541,9.66462794347e-06,-19991424.0176,2.171406086e-05,0.0,5668816.16554,682.431730155,651.150594846,66554091.2027,1766.12302065,38756872.9212,68579050.5736,4587.83554212,4578.47328096,0.0
1.15335233992,0.90481583203,1.03215779254e-05,-5464547.25789,2.37862544868e-05,0.0,5538827.40458,684.794358572,654.231721063,66219368.6826,1829.18743986,46727365.7563,68432154.9026,4787.56556301,4778.11254819,0.0
1.10768368006,0.981457725621,1.00953068338e-05,-18042057.6449,1.75918812596e-05,0.0,5646784.74225,682.097338681,651.264534487,66481253.4168,1767.72881701,39582011.9291,68889683.4348,4597.99495593,4588.20483075,0.0
1.10377283423,1.16637510783,1.00900700139e-05,-21490864.9404,1.53224333664e-05,0.0,5722172.37692,681.800683624,651.062629612,66729325.5233,1765.09971772,37791031.4282,68682146.4585,4581.76103489,4572.90598389,0.0
1.09075383575,0.889506523003,9.76562614048e-06,-26306801.8798,1.73222596312e-05,0.0,5756368.25488,681.357174569,650.203059124,66820254.135,1748.52050885,36261037.521,69369616.1999,4527.7191722,4519.06865972,0.0
1.1643056869,0.808213967239,1.00277525871e-05,-471651.582469,2.43285767095e-05,0.0,5416064.4119,685.734785813,654.876851,65781265.916,1838.83150349,49634813.3735,67622073.4159,4833.03290632,4822.08274402,0.0
1.14879559442,0.893983243916,1.0236278707e-05,-6950578.31524,2.34310283517e-05,0.0,5560407.39486,684.493696671,653.894781254,66278110.6493,1823.48074182,45974412.6516,68641975.4539,4768.65051244,4759.26897982,0.0
1.31200400214,0.920129729267,1.06476294367e-05,30047457.6877,3.93169093179e-05,0.0,31346381.5264,694.797728231,664.148069016,63436379.364,2007.25639754,69514799.5421,71080213.0967,5446.12861288,5432.25468898,0.0
1.03161277985,0.754594930788,1.00595031736e-05,-59927556.1648,1.59404444934e-05,0.0,5842739.91153,678.153175905,646.336881246,67013520.2395,1668.69238312,42625767.6349,70980505.3725,4282.22464916,4273.82413727,0.0
1.18869515735,0.651568272347,9.85556541004e-06,5899483.36183,3.04994743399e-05,0.0,7519954.31494,687.417405262,656.384786688,65558906.3469,1869.94894307,53399486.2438,66831066.9472,4934.27359816,4923.3095161,0.0
1.06853018711,1.03192928286,1.00421645806e-05,-34871270.2543,1.43972178884e-05,0.0,5804327.1709,679.721277861,648.696342937,66938560.2617,1718.61819735,34732038.8429,69961369.0502,4435.46880669,4426.97409432,0.0
1.09637598128,0.719853371967,1.00081886057e-05,-23865042.967,2.05026917634e-05,0.0,5713501.96981,681.581518496,650.555565659,66701805.7807,1755.86512333,36830950.9642,68996255.9738,4551.05669829,4542.31819414,0.0
1.17160946515,0.93248595642,9.82195218516e-06,1384759.42876,2.21440592878e-05,0.0,5424444.34209,686.17694609,655.340204244,65835062.3469,1847.90181896,50763380.8676,67525083.3127,4863.35088984,4852.38058676,0.0
1.0595987547,0.996611106418,1.02989139602e-05,-38302202.5932,1.45746592629e-05,0.0,5816749.07095,679.060684539,648.115741159,66968412.106,1707.17963719,34680693.8224,69862653.3861,4398.39443076,4390.13263221,0.0
1.16336376389,1.2088166831,9.89248785925e-06,-1541170.5579,1.78035119309e-05,0.0,5499899.97887,685.49678873,654.838081775,66064356.3467,1838.45588021,49122869.2102,67984935.2905,4829.12298391,4818.58002219,0.0
1.1255894776,0.857052968758,9.91465370762e-06,-13385626.2599,2.0924720135e-05,0.0,5627135.22772,683.281808188,652.381181688,66452789.0633,1792.83168319,42235006.0313,68240924.6947,4672.32192152,4662.9239114,0.0
1.04968553398,0.999623540525,9.74956653812e-06,-45740267.2627,1.38365927796e-05,0.0,5833621.2753,679.004847522,647.477051077,67003012.0182,1692.28003321,36102297.6532,70627349.89,4357.24465155,4348.52198395,0.0
1.12545851384,0.921040520597,9.54267028128e-06,-14343509.0523,1.98769132424e-05,0.0,5671886.75774,683.449372985,652.368938089,66598077.4803,1793.61179435,41881926.8213,68994787.4263,4671.77829095,4662.66515481,0.0
1.11744409836,1.12961127752,1.0244499369e-05,-15222910.1835,1.65296098031e-05,0.0,5644510.81508,682.416620369,651.82674583,66482203.2603,1781.24756043,41055551.2141,68978466.3235,4638.51045229,4628.94482904,0.0
0.926705274496,0.747463582779,1.0536705631e-05,-92139389.8824,1.48328337536e-05,0.0,6045226.82347,687.893248901,639.609118381,67448857.4112,1597.11469321,67394226.5108,67600157.0866,3846.75359443,3839.67320785,0.0
1.14119142461,0.812543368691,1.03185766526e-05,-8795818.73088,2.40807881347e-05,0.0,5569928.8895,683.955311616,653.349952026,66293658.3007,1813.57176005,44938694.7516,68166022.1557,4737.08560356,4727.74623924,0.0
1.11780039096,0.896901759685,1.00440179062e-05,-15210852.706,1.9684865575e-05,0.0,5653364.4305,682.661764554,651.858367193,66522834.7928,1782.71114944,41155160.8354,69202789.048,4639.98942287,4630.71824302,0.0
1.2430926893,0.784469052724,9.54255844893e-06,17773875.975,3.16641230559e-05,0.0,19271663.9011,690.865549361,659.744767714,64809035.8587,1932.88088876,62289110.4214,66923986.0675,5160.07775328,5147.67358668,0.0
1.1047334449,0.67837239285,9.96665638576e-06,-21136630.0017,2.20389041554e-05,0.0,5687758.25528,682.179949174,651.122655222,66620930.0829,1766.98634943,37894807.1275,68599570.2278,4585.74852978,4576.87818331,0.0
1.22091184096,1.2006769528,9.7937385369e-06,12761622.6846,2.13236321662e-05,0.0,14023665.4101,689.068572168,658.418222045,65276584.4003,1906.37863842,58286278.5899,66509358.5888,5068.00505183,5056.05151088,0.0
1.07499168421,0.95272174143,9.95209649729e-06,-31884216.598,1.56777813247e-05,0.0,5796825.02199,680.09894002,649.052209674,66935120.7446,1727.65912636,35098033.6856,69657803.3696,4462.29048116,4453.88535193,0.0
1.05755390812,0.834576802365,1.03008983667e-05,-39206947.8277,1.60802055989e-05,0.0,5812466.0498,679.003980949,647.982723128,66951316.4784,1704.5514227,34742902.2441,69681697.4659,4389.90627261,4381.67599305,0.0
0.964621063726,0.822165968099,1.0143749197e-05,-93964963.8252,1.51274301772e-05,0.0,6027167.06867,683.845328725,642.067824565,67467311.6486,1613.66180725,69000938.4424,69227807.0431,4004.14203553,3997.42003677,0.0
1.11439249742,1.03630125389,1.00319610964e-05,-16252851.8479,1.7510315487e-05,0.0,5675999.06563,682.408842256,651.656986952,66587179.1767,1778.17953887,40672166.298,69332425.3156,4625.84325679,4616.62732112,0.0
1.06200198662,0.802329658725,1.01228373973e-05,-37467990.0168,1.65636118276e-05,0.0,5802857.92514,679.392606793,648.270867835,66933357.6056,1710.22267428,34625631.3635,69979002.9861,4408.37024646,4399.97669161,0.0
1.16742495022,1.08523342254,1.01640066732e-05,802989.011133,1.98686738374e-05,0.0,5461907.31834,685.594149848,655.081533022,65933147.7927,1843.11492779,50314396.2745,67578183.3739,4845.98096836,4835.39378783,0.0
1.15278133236,0.965834717216,9.49792855775e-06,-5807547.68538,2.1223325529e-05,0.0,5554144.93106,685.17171071,654.139069541,66250648.8926,1827.01064065,47157326.3248,68918899.5709,4785.19531063,4775.20755937,0.0
1.07388158332,0.744822345443,9.97330704821e-06,-31848435.8026,1.81274821114e-05,0.0,5773859.38053,680.110160373,648.973888381,66853481.6143,1725.68586312,35142608.2294,69569231.0091,4457.68245236,4449.1045276,0.0
1.15400609341,1.13110263127,9.88937866127e-06,-5886826.8246,1.91517478654e-05,0.0,5539590.43371,684.955375655,654.218251704,66209713.1646,1828.06585745,46628192.4934,68652450.2679,4790.27929374,4780.17526891,0.0
1.17992761249,0.964845929199,1.00815943213e-05,3426326.76482,2.2714639425e-05,0.0,5472393.14941,686.511444448,655.824915619,65676887.3241,1857.99561462,51675106.3775,66958965.054,4897.87951945,4886.75343612,0.0
1.10124362723,0.683494642765,9.78240532787e-06,-19558989.9377,2.05278439417e-05,0.0,5687562.20301,682.058943385,650.901219392,66597073.4292,1760.85698177,38953960.3119,68518959.4561,4571.26229663,4561.98407244,0.0
1.14225926771,0.841317744116,9.77239446218e-06,-8430797.66509,2.26836956271e-05,0.0,5573516.43649,684.385167995,653.442204222,66308778.2159,1813.9934181,45608309.7436,68273797.8,4741.51822026,4731.82538699,0.0
1.06133977756,0.869356371187,9.80393887324e-06,-39604990.5559,1.59259273644e-05,0.0,5835717.74689,679.546745966,648.23742803,67039196.1854,1709.99168965,34985928.7757,69922777.5607,4405.62141665,4397.64118695,0.0
1.05543558864,0.601484164638,1.00031158604e-05,-41096383.059,1.83712901438e-05,0.0,5809461.09475,679.20842616,647.832429451,66939694.2811,1701.60614715,35047137.9748,70227026.3894,4381.11312844,4372.82318482,0.0
1.07802370163,0.879165746118,9.81365592977e-06,-31072503.3334,1.66191052951e-05,0.0,5789899.23118,680.409025958,649.256723674,66917630.5674,1731.69681453,35292444.4688,69411248.8688,4474.87638547,4466.42431174,0.0
1.16068996123,1.02417847941,1.02671912592e-05,-4372868.16559,2.22501297613e-05,0.0,5418612.00758,685.361539126,654.649506093,65810669.8053,1834.48158637,46969646.914,67795115.6597,4818.02402907,4806.96391891,0.0
1.18248954959,1.13333416591,1.04055711599e-05,4578249.05193,2.04981966012e-05,0.0,6163686.19602,686.384339198,655.970691818,65545486.8171,1859.64859826,52161237.3934,66813724.8948,4908.51412035,4897.02802098,0.0
1.02300782672,0.912976184266,1.00723806683e-05,-68201823.325,1.4472646471e-05,0.0,5863857.39562,677.84156572,645.788372571,67062477.8946,1656.69533506,48146952.1523,70825459.0361,4246.50548871,4238.15691932,0.0
1.12369354717,0.878079029214,1.00125988184e-05,-14001760.3347,2.09299546357e-05,0.0,5654762.76489,683.048718067,652.266493559,66546138.2307,1791.3725108,42031116.1776,68581636.8233,4664.4519143,4655.49706462,0.0
1.2008325144,1.08306865651,1.02578410017e-05,8534354.76871,2.24386441354e-05,0.0,9898514.98755,687.661068417,657.140747958,65323276.0282,1881.86285256,54792411.0102,66650425.397,4984.65576727,4972.82345017,0.0
1.1774792132,0.917249857867,1.0162881236e-05,2998101.10251,2.34814913053e-05,0.0,5379228.42777,686.347489371,655.6738418,65673410.3487,1855.0113562,51415451.1035,66919150.3844,4887.71621399,4876.63406008,0.0
1.09313135725,0.71190667626,1.02315265308e-05,-24248902.8736,2.05059933624e-05,0.0,5713193.87896,681.228816017,650.330935844,66685441.9414,1751.61956934,36627076.3732,68894389.4181,4537.58826394,4528.90068391,0.0
1.07509649237,1.19985787821,1.0317144755e-05,-30470729.3085,1.33429476934e-05,0.0,5786885.39574,679.943896183,649.194584585,66894168.6407,1727.27031128,35298735.7136,69284513.572,4462.72553983,4454.22200573,0.0
0.978859682969,0.977659851933,1.00197438226e-05,-94757711.249,1.37701838628e-05,0.0,6009169.38451,681.512980293,642.985605118,67423845.81,1614.34923456,69698769.8196,69935659.0818,4063.246544,4056.29318564,0.0
1.12404531865,0.890544560693,9.55710862347e-06,-14469067.9296,1.98110289839e-05,0.0,5628294.14256,683.423898611,652.261154513,66450890.0933,1789.91775782,41743291.3162,68817786.2392,4665.91211772,4656.11223559,0.0
1.08145393279,0.766699674622,9.69287438729e-06,-30018820.2976,1.82254544052e-05,0.0,5777731.54426,680.749330811,649.485197726,66883779.8616,1736.29218439,35543123.0291,69370104.8939,4489.11527501,4480.6099619,0.0
1.08893307469,0.825270292537,9.92475304615e-06,-26642673.0017,1.81857377592e-05,0.0,5747387.20827,681.175716896,650.091579333,66793988.7121,1746.04412911,36110262.9326,69289087.3461,4520.16119304,4511.539324,0.0
1.13166866687,1.11787625157,9.75174001079e-06,-11835685.431,1.75311353595e-05,0.0,5628883.77731,683.654534157,652.784992157,66472200.8073,1799.96881372,43269659.4488,67539783.7641,4697.55663618,4687.9316846,0.0
1.15285922638,0.660321664995,9.8397605124e-06,-7282493.43546,2.8268566762e-05,0.0,5422979.5885,685.375858243,654.122142265,65845123.7295,1825.61632258,45651467.8886,68294624.9103,4785.5186487,4774.60040555,0.0
1.10584198512,1.12245942405,1.01478455112e-05,-20704726.4793,1.60409552019e-05,0.0,5710366.25805,681.888622512,651.181464314,66698436.8752,1767.81418034,38121734.9427,68768502.9808,4590.35008023,4581.4623145,0.0
1.05219115917,0.722339239887,9.98377132414e-06,-43979373.2405,1.70685096661e-05,0.0,5796128.73982,679.074216595,647.636525116,66897870.3512,1695.75226394,35527650.2279,70492667.3147,4367.64550171,4358.88229917,0.0
1.0782137071,0.964846016287,1.0239938432e-05,-29399228.6373,1.592661974e-05,0.0,5762003.44298,680.286988801,649.409176681,66830025.7642,1731.2058956,35420360.8184,69234508.7549,4475.66509817,4467.01888603,0.0
1.05556636538,0.878498397622,1.02684497779e-05,-41082644.5926,1.56206767185e-05,0.0,5802036.58057,678.921447962,647.827633407,66916644.9921,1701.0182162,34945926.2695,69564958.8698,4381.65598269,4373.10869995,0.0
1.017910257,1.14755396126,1.00850712396e-05,-72912960.135,1.23412111728e-05,0.0,5888657.83825,677.673350843,645.465448398,67124152.8359,1649.72768354,51637554.9763,70764556.7249,4225.34547681,4217.07867579,0.0
0.986470930897,0.700755723091,9.89472384318e-06,-95235624.3976,1.55319630119e-05,0.0,5983504.40647,680.152831607,643.475311699,67341522.7217,1612.86672663,70119554.2674,70362376.9979,4094.84083415,4087.70045591,0.0
1.1312603362,1.12077040983,1.00419813928e-05,-10934204.772,1.77798256976e-05,0.0,5623577.26749,683.414826757,652.773175282,66437297.8482,1799.32420909,43941455.1043,67719071.5392,4695.86165557,4686.39395371,0.0
1.05222417618,1.12592855003,1.02346648343e-05,-44180392.4507,1.31490721501e-05,0.0,5806661.93463,678.863169112,647.713899351,66937656.0934,1695.60321768,35570062.3534,70355679.7955,4367.78255532,4358.9612379,0.0
1.11301738203,0.846430926091,1.01265348524e-05,-16240815.6413,1.98641481852e-05,0.0,5609759.06756,682.421157566,651.552881217,66371568.4687,1774.53855743,40629734.5627,69186034.2333,4620.13515281,4610.15548619,0.0
1.13534929645,0.966944889573,9.60861782194e-06,-11279335.3967,1.98609687666e-05,0.0,5617591.32906,684.058082438,653.034249822,66430238.3052,1805.32313375,43627577.7021,67678192.3108,4712.83492956,4703.25288121,0.0
1.07635904817,1.06781272872,1.03907770635e-05,-31727826.5078,1.49773434188e-05,0.0,5710414.73784,680.107661429,649.254982085,66658037.7614,1726.51186949,34882493.3331,68936304.2182,4467.96640895,4458.32460933,0.0
1.10530865678,1.17421248547,9.89051999618e-06,-19251979.8486,1.48118151333e-05,0.0,5699305.79464,682.004125223,651.142494538,66647910.7447,1765.45090884,39141391.2692,68743649.8325,4588.13623429,4578.67590954,0.0
1.16476238194,0.843556953019,9.7449572112e-06,-2157532.81139,2.52693724734e-05,0.0,5511736.43232,685.876662285,654.944603867,66127853.4207,1843.16154502,49002830.8688,68228843.4208,4834.92864743,4825.1695425,0.0
1.18434314352,0.916845651022,9.94480403551e-06,4858005.04999,2.38504426017e-05,0.0,6449135.35584,686.823831573,656.098954914,65762359.2772,1864.41684899,52687729.1549,67050097.4208,4916.20838875,4905.44930857,0.0
1.05062884015,1.01948521109,1.01146034047e-05,-43082766.4503,1.38604426594e-05,0.0,5833010.63584,678.735553097,647.5429881,67005803.242,1694.31050798,35375992.0378,70546303.2278,4361.16031546,4352.76309475,0.0
1.17878574503,0.988230864971,1.00749329608e-05,3281133.284,2.19128200095e-05,0.0,5390761.78477,686.412643723,655.753614396,65706561.2249,1856.52881838,51596684.4278,66982431.2082,4893.13962762,4882.04411102,0.0
1.19477439907,1.08751866134,1.00838229831e-05,7279917.68883,2.14959595169e-05,0.0,8759626.07611,687.366536737,656.80190447,65558645.4565,1875.71910699,53975954.9363,66625305.2705,4959.50853054,4948.21984843,0.0
1.1179098142,0.922610491687,1.02255991337e-05,-15112702.4048,1.92851132292e-05,0.0,5626829.0062,682.559574384,651.85713893,66427921.3366,1782.05414719,41165910.8592,68853506.8607,4640.44363874,4630.87117764,0.0
1.07547240248,1.1796937761,1.00140457459e-05,-31177504.0132,1.33440366868e-05,0.0,5796724.22558,679.997698556,649.082145825,66928573.0133,1727.44691242,35285745.902,69527786.1516,4464.28594269,4455.68296747,0.0
1.19724578078,1.0846724783,1.04709751381e-05,8346099.71413,2.22507847975e-05,0.0,9705051.5024,687.254854452,656.931179954,65485983.8021,1878.60553936,54604896.7597,66639397.502,4969.76723602,4958.56491259,0.0
1.07789594881,1.02085504511,9.64463384661e-06,-31763287.9944,1.49153306512e-05,0.0,5806484.37144,680.461037938,649.247358576,66964686.3934,1731.41470616,35201600.4372,69769356.3436,4474.34608351,4465.89598994,0.0
1.1007667438,1.015667166,1.04034070583e-05,-20072847.705,1.69767855614e-05,0.0,5644476.08081,681.505329681,650.8390049,66459579.2103,1758.38047967,38634632.9825,68461278.1925,4569.28275351,4559.4213031,0.0
1.01472377735,0.715443104766,1.00569071542e-05,-77685167.7082,1.57025872576e-05,0.0,5927683.34882,677.69878007,645.280372459,67234834.0689,1648.05962822,55327254.7371,70843378.2688,4212.11839978,4204.9129489,0.0
1.11981831966,0.868621664561,9.93242308135e-06,-14785959.0698,2.00895598341e-05,0.0,5597030.60846,682.948151662,651.972516942,66338764.6777,1783.33680732,41445112.32,68609506.7163,4648.36584491,4638.26923691,0.0
1.10341306215,0.679317207457,9.67424184082e-06,-20557962.7663,2.11394537111e-05,0.0,5676609.11422,682.305696502,651.039473794,66575202.0416,1763.70616757,38483026.4843,68503517.2713,4580.26762098,4570.93453637,0.0
1.01710278675,1.0108659283,1.00668401871e-05,-74742891.6726,1.3375958105e-05,0.0,5934497.54033,677.620585155,645.427347997,67267103.8851,1651.09297361,53029841.976,70790616.6233,4221.9936678,4214.75399913,0.0
1.02912053793,0.697332220859,1.01006777139e-05,-60991028.0689,1.62374163743e-05,0.0,5841846.36087,678.03901747,646.179067951,67005017.35,1665.19937012,43275712.0779,70841717.8641,4271.87935295,4263.43233932,0.0
1.1045978069,0.941435409058,9.67782786018e-06,-20593226.4919,1.76478591092e-05,0.0,5647833.49874,682.279993949,651.092904217,66482951.6436,1763.0293524,38635197.6536,68562697.0302,4585.18549644,4575.06736797,0.0
1.18094367825,0.941235020249,9.72429829762e-06,3429947.85322,2.27546392436e-05,0.0,5620038.83555,686.761184898,655.908399873,65828657.7768,1860.29308985,51980795.0144,67097290.8787,4902.09720842,4891.28719665,0.0
1.09212720884,0.799066851002,9.50466368544e-06,-26414242.4806,1.8324441977e-05,0.0,5751314.36404,681.662154509,650.292905556,66809120.9253,1750.06297061,36279571.3573,69423437.2993,4533.42004389,4524.65019151,0.0
1.07220700915,1.27969181678,1.03453934102e-05,-31669808.6809,1.25378963775e-05,0.0,5797061.86413,679.71585662,648.990546263,66920569.8573,1723.42722278,35112908.8494,69424136.973,4450.73129498,4442.27282139,0.0
1.09762158262,0.942169859186,9.73693213881e-06,-23891649.9357,1.71543484321e-05,0.0,5736494.96404,681.729014462,650.625270926,66762680.0049,1757.10546512,36890674.9999,69215261.6349,4556.22718946,4547.37030054,0.0
1.06753795802,0.982335964986,9.9238446569e-06,-35766714.2236,1.48466873198e-05,0.0,5808037.35998,679.774313547,648.630739487,66956224.3599,1717.35318237,34701497.437,70129798.4733,4431.35006374,4422.86997377,0.0
1.11692289474,0.997300251621,9.80197137375e-06,-15880036.3318,1.79008193937e-05,0.0,5632496.35529,682.777914659,651.795556765,66445673.3832,1779.80276402,40979877.6222,69434389.2626,4636.34693607,4626.39674418,0.0
1.03507211464,0.715114313261,1.01050519423e-05,-55547304.9527,1.63235075065e-05,0.0,5829479.78961,678.244836777,646.55628918,66977668.1771,1673.09342023,40136551.3695,70919120.5301,4296.58434787,4288.04118381,0.0
1.04425392256,0.884918383963,1.00942683021e-05,-49061187.2068,1.51941039546e-05,0.0,5820510.97057,678.59171483,647.142219657,66964592.9728,1685.36442354,37126430.2636,71020936.3826,4334.69803255,4326.0954666,0.0
1.1791091679,0.999222565055,1.0194922207e-05,3407325.57469,2.21771174109e-05,0.0,5462527.25051,686.365104244,655.770035362,65682285.8648,1856.83821904,51610600.2638,66938727.8383,4894.48215595,4883.37076477,0.0
1.10629956577,0.668318228,1.01798683268e-05,-18349849.1707,2.25216379343e-05,0.0,5591962.2506,682.175754856,651.166098185,66315349.075,1765.41852058,39417809.3141,68709313.6745,4592.24949751,4582.19740675,0.0
1.01525261157,1.01056281797,1.00041894089e-05,-74950870.1425,1.33668162235e-05,0.0,5897066.59218,677.769036635,645.296434919,67138108.297,1646.61002585,53198394.6442,70780365.1891,4214.31359063,4206.1732693,0.0
1.1688248311,1.23008517112,1.00426598978e-05,-1523977.95951,1.94265361628e-05,0.0,5415011.37136,685.841316894,655.15420307,65818412.3553,1843.94214907,48737141.9215,67666182.4979,4851.7918739,4840.46876217,0.0
1.05766859215,0.781214789516,9.70454277176e-06,-43589195.1534,1.68044371668e-05,0.0,5788638.14611,679.579859538,647.971336307,66881119.0746,1702.766037,35454107.3768,70266198.5417,4390.38232601,4381.3804388,0.0
1.09800887804,1.11260057063,1.01835749294e-05,-22924263.6032,1.55759522732e-05,0.0,5731442.14377,681.414471498,650.694079916,66748923.913,1757.6423512,37154275.7903,68781590.523,4557.83485274,4549.06991525,0.0
1.05601489012,0.959744641879,9.66815737701e-06,-44661700.4524,1.4772192048e-05,0.0,5807026.62124,679.455608425,647.878953756,66934296.8928,1700.401187,35735460.2564,70454756.2542,4383.51780889,4374.54336284,0.0
1.03648774548,0.959721934415,1.0395052132e-05,-52658654.7956,1.44436124669e-05,0.0,5821042.48548,677.947816676,646.625470918,66959493.573,1674.42289563,38591589.3986,70784568.0251,4302.46063149,4293.80798243,0.0
1.10166117783,0.945874470903,9.83246021614e-06,-22520583.6501,1.76344606601e-05,0.0,5726195.25403,681.950459793,650.932162804,66745836.4422,1762.71941272,37386669.8259,68770585.5742,4572.99554917,4564.17372166,0.0
1.12088075132,1.01460303072,1.00438008682e-05,-14159190.1064,1.82569585415e-05,0.0,5626940.49362,682.825322464,652.052210831,66440527.3404,1785.41630729,41856813.1426,68508171.4637,4652.77599873,4643.05482023,0.0
1.19132438004,0.977522749874,9.81758216018e-06,6071170.48266,2.29542261259e-05,0.0,7634046.61153,687.341358746,656.554547232,65662621.2878,1872.35408344,53450993.8388,66876068.5951,4945.18750155,4934.06169386,0.0
1.01898626623,0.996888233896,9.84964695639e-06,-74468833.3596,1.34656758663e-05,0.0,5944389.83323,677.871432391,645.55616253,67304083.2041,1653.94894002,52824990.6639,70949725.7776,4229.81199112,4222.63443693,0.0
1.09851438057,1.05179159585,1.02680898197e-05,-22553509.0623,1.64495701227e-05,0.0,5721739.73088,681.412922097,650.726115842,66722103.7857,1758.34287369,37275289.1945,68495417.7844,4559.93319375,4551.16042544,0.0
1.13594431617,1.07143537729,9.88801722012e-06,-9769308.00813,1.86384336085e-05,0.0,5603729.67817,683.854816564,653.070984365,66389821.8396,1805.3249713,44678794.7935,67926940.3119,4715.30485642,4705.61171201,0.0
1.07818373836,0.975905209024,9.81326041929e-06,-31024674.3306,1.55553679813e-05,0.0,5795674.79658,680.380044941,649.267336939,66935733.2162,1731.83526786,35315533.5433,69373928.623,4475.54069793,4467.08614339,0.0
1.10690847892,1.06336545512,9.37694811735e-06,-20430248.7746,1.59785691778e-05,0.0,5666934.43012,682.550062078,651.244005875,66551091.5754,1766.05060502,38721048.9544,68686395.7883,4594.777096,4584.61818767,0.0
1.10151899722,0.970192827695,1.05167527881e-05,-18810528.4417,1.76231440443e-05,0.0,5656162.24848,681.437746722,650.881553162,66502680.6446,1759.99224253,39106240.0768,68627479.5977,4572.40535746,4562.91239052,0.0
1.10369677535,0.875300198957,1.02731722463e-05,-18794264.6166,1.8654957643e-05,0.0,5642978.00408,681.801058687,651.01862551,66465990.6306,1762.66302211,39189401.5779,68670226.4206,4581.44531448,4571.72321599,0.0
1.230139811,0.994201871083,9.86022380053e-06,15355170.8027,2.60369318981e-05,0.0,16772820.8431,689.718615296,659.025531618,65159438.7518,1918.02279138,60389750.959,66790030.4075,5106.31035546,5094.60514027,0.0
1.24966459194,0.702073048695,9.862596131e-06,19521246.3794,3.55889252116e-05,0.0,21234595.2028,691.28797554,660.17763035,64553253.1589,1939.87997506,63566041.0823,64651385.1581,5187.35772114,5174.7756819,0.0
1.12307853575,0.89586878702,1.02876926917e-05,-13332919.5683,2.02991201696e-05,0.0,5595402.58132,682.911548223,652.205185931,66335674.8551,1788.4822947,42307246.4563,67655296.4933,4661.8990019,4652.14038554,0.0
1.12082458343,1.07044946242,1.01674118822e-05,-14009630.5519,1.75579001303e-05,0.0,5623505.11219,682.722549429,652.056084248,66432196.131,1785.2485545,41947844.0312,68348749.4611,4652.54284582,4642.82261261,0.0
1.00996082151,0.970167999134,1.01585891746e-05,-83692320.8411,1.39685263146e-05,0.0,5874968.84877,677.676505887,644.952921032,67054477.655,1638.22607383,60101193.9711,70652854.1269,4192.34737009,4183.87650561,0.0
1.10236085564,0.914892215597,1.02959559347e-05,-19149573.7056,1.80377413437e-05,0.0,5649936.92608,681.692676524,650.942723704,66485536.2502,1760.90998811,39012470.4876,68608564.5089,4575.89991176,4566.19907215,0.0
1.18470083317,0.886017286641,9.88596580536e-06,4482862.50492,2.41424217959e-05,0.0,6118856.57707,686.964469005,656.109950947,65607024.7289,1863.73307801,52419040.2657,66947591.3444,4917.69315849,4906.38980265,0.0
1.18480459291,0.924415992266,1.03615193588e-05,5557639.12836,2.41508356494e-05,0.0,7071404.11962,686.644549114,656.132538262,65586190.8312,1863.99129611,52808351.957,66775309.1509,4918.12386517,4907.1277731,0.0
1.24614790519,1.03433196347,9.87896480826e-06,18692372.1036,2.66582825231e-05,0.0,20304541.0929,690.696689592,659.969826957,64859664.5051,1935.49206245,63009516.6894,66065638.5335,5172.75995444,5160.41631324,0.0
1.14839326178,0.900736891792,1.00767686701e-05,-7453791.57346,2.30737593025e-05,0.0,5570379.5825,684.542423931,653.847899828,66306157.2702,1823.0442344,45807980.8998,68583616.8839,4766.98042965,4757.60702312,0.0
1.11649379655,0.981290170537,1.01874064128e-05,-15287757.2709,1.8392653631e-05,0.0,5636965.80376,682.452461102,651.763696289,66472674.0207,1779.8998201,41091693.0166,69089563.755,4634.56574948,4625.01632939,0.0
1.05966593419,0.909169672077,1.02088964584e-05,-38606964.1659,1.54142500175e-05,0.0,5815152.44782,679.163596102,648.120554104,66961937.6654,1707.31414742,34712805.2277,69835063.4197,4398.67329282,4390.4090012,0.0
1.06878275996,0.822431228328,1.03256509173e-05,-33184431.6461,1.70915288836e-05,0.0,5782917.38137,679.569265946,648.679356542,66882510.9301,1719.24127398,34835677.1142,69627882.0297,4436.51723659,4428.1120359,0.0
1.140063948,1.17562827229,9.78957328907e-06,-9064248.41918,1.73855580926e-05,0.0,5610600.3552,684.089426362,653.328963974,66419417.4455,1810.8082153,45247063.698,68209007.733,4732.40544815,4722.74863117,0.0
0.930353526975,0.803282929403,1.03459775266e-05,-92331431.7081,1.46358165328e-05,0.0,6045914.28889,688.048399701,639.845478395,67457509.2395,1600.68997678,67563236.9783,67770934.6105,3861.89749047,3854.76164707,0.0
1.12174368026,0.959273686457,9.68439948657e-06,-14661156.5246,1.87122309504e-05,0.0,5631949.50666,683.158447035,652.106278133,66459131.9606,1786.65117955,41568198.5215,68974085.4345,4656.35801676,4646.52257639,0.0
1.1148750326,0.955833319853,1.06150387576e-05,-15054391.2441,1.90029500663e-05,0.0,5618655.90926,682.112666232,651.666604939,66404546.2711,1778.06348051,41124099.7105,68723793.2741,4627.84626032,4618.32434949,0.0
0.962721190067,1.18821458227,9.98893985251e-06,-94067721.4264,1.21054332637e-05,0.0,6070928.67382,684.245649151,641.951265107,67600236.1202,1614.56614664,69091396.5932,69317337.2968,3996.25565997,3989.85280837,0.0
1.16274566392,0.941463044345,9.91503222804e-06,-2223611.5334,2.34280551963e-05,0.0,5520994.28708,685.585540591,654.814799961,66156464.7987,1840.37160607,48773735.1118,68247444.3694,4826.55725093,4816.83114772,0.0
1.18777819784,0.830386175595,1.02014144283e-05,5831405.15845,2.63069588051e-05,0.0,7362787.53524,686.987081266,656.330118373,65601588.7418,1868.55976736,53114455.3323,66797468.8392,4930.46729923,4919.63226744,0.0
1.16459141648,0.854816824267,9.95374484741e-06,-258593.271535,2.32401458257e-05,0.0,5459604.54427,685.705627872,654.909698609,65935979.7392,1840.15384603,49840846.3805,67737478.9367,4834.21896981,4823.68644264,0.0
1.05168797635,1.22776297609,1.0122800783e-05,-45555442.4054,1.24249812402e-05,0.0,5806011.1192,678.773815558,647.598126971,66935751.9382,1693.9613298,35963591.4372,70105852.4369,4365.55678983,4356.47904146,0.0
1.08609194673,0.831183262418,1.02379412042e-05,-26637325.3018,1.81261517055e-05,0.0,5742515.78164,680.787808145,649.910808414,66779799.3164,1742.30122045,35992367.7656,69173927.4531,4508.36767088,4499.79015491,0.0
1.16483522131,0.792111958084,1.00934399167e-05,76374.5175036,2.47709792678e-05,0.0,5407942.47797,685.726971011,654.907219763,65758506.4579,1839.32610886,49921333.9008,67571506.4534,4835.23100366,4824.27291139,0.0
1.3143927221,0.772756334519,1.01714085612e-05,30063629.2055,4.25499475423e-05,0.0,31447819.9733,695.334281961,664.311629179,63424507.2399,2011.65090004,69681322.827,71114136.0985,5456.04418944,5442.1839778,0.0
1.10692516592,1.17116571949,9.61233672457e-06,-20086397.582,1.50057492007e-05,0.0,5662707.40498,682.333404571,651.233914231,66531774.7717,1765.81554845,38875936.2488,68745792.4745,4594.84636373,4584.68869338,0.0
1.07431360677,0.998674838481,1.02375977763e-05,-31076254.8976,1.51748369547e-05,0.0,5755969.352,680.040343662,649.12802862,66799376.2416,1725.09617065,35094241.1054,69274671.2601,4459.4757817,4450.51403927,0.0
0.961674928392,0.804458083009,1.01088818296e-05,-93848425.3934,1.52256377698e-05,0.0,6035416.62035,684.372833051,641.878286413,67484677.6963,1613.34573201,68898439.8782,69123382.1874,3991.91262776,3985.23205429,0.0
1.02343920603,0.795388932997,1.00136849887e-05,-67446447.382,1.52039305653e-05,0.0,5917347.14663,677.830752206,645.836249078,67235513.1576,1660.02017717,47633336.0749,70930476.0959,4248.29614423,4241.05521672,0.0
1.0278479176,1.03326869166,9.78530015384e-06,-64231274.153,1.32707290266e-05,0.0,5926409.94859,678.088541692,646.111725123,67269678.1122,1665.74672883,45449771.6242,70964214.4684,4266.59670596,4259.29280089,0.0
1.07735768656,1.02648603184,9.99467457058e-06,-30172827.6623,1.49508445985e-05,0.0,5784774.6684,680.181590538,649.209224715,66888063.9163,1730.05730456,35408503.0076,69372235.3636,4472.11175691,4463.47856716,0.0
1.10311501008,0.915988039661,9.98290857191e-06,-21636678.1744,1.82461060256e-05,0.0,5713263.73862,681.947612376,651.025611607,66696356.1571,1764.62755136,37704743.1398,68578730.0577,4579.03040684,4570.18486828,0.0
1.05019767366,0.960655549931,1.03626852529e-05,-44476589.1724,1.46048821338e-05,0.0,5807614.55483,678.618433512,647.516426318,66940073.1354,1693.56370974,35644773.0663,70394071.443,4359.37054336,4350.76067749,0.0
1.17472323524,1.11900936451,9.42485293118e-06,1318253.78815,1.88363044412e-05,0.0,5463313.7597,686.472330766,655.54343299,65955567.0526,1852.14350869,50936557.0107,66984184.4782,4876.27614948,4865.3632273,0.0
1.02445917868,0.825345414989,9.84844173173e-06,-67799486.5201,1.50164260312e-05,0.0,5922660.68166,678.018084453,645.907283055,67251177.1128,1661.35199925,47894367.6704,71016889.0094,4252.5300507,4245.27457374,0.0
1.00860342143,1.0065418066,1.01795770706e-05,-85661119.4074,1.36063877012e-05,0.0,5879898.69249,677.660683586,644.870086353,67067802.0764,1636.39260681,61863183.0058,70680512.5,4186.71280236,4178.2641828,0.0
1.10691364964,0.702745780285,1.03968566664e-05,-17368546.2098,2.18358405057e-05,0.0,5632968.44889,681.956317572,651.209318442,66448251.965,1767.86695918,39912178.82,68853758.6811,4594.79855966,4585.40961376,0.0
1.10331502808,0.862923840993,1.00794650755e-05,-21559502.896,1.90831136789e-05,0.0,5701098.39486,681.919953535,651.033724001,66663953.6881,1764.77029258,37697844.2297,68591318.7683,4579.86068156,4571.01286216,0.0
1.04364144819,0.976189464353,9.79181069778e-06,-50612568.9371,1.41631859785e-05,0.0,5833479.76553,678.738585196,647.072750068,67001856.2264,1683.98272824,37835494.2192,71049901.9972,4332.15565144,4323.38683336,0.0
1.01262488639,0.974821786923,1.0375639878e-05,-78595622.8826,1.36605100843e-05,0.0,5934668.7824,677.259807844,645.144330207,67254768.2001,1645.35305274,56050047.4375,70713163.7342,4203.4059034,4196.31874547,0.0
1.1416664451,1.05777321486,1.00368674128e-05,-8254938.51745,1.86073713943e-05,0.0,5568881.69977,683.946203969,653.299542288,66264463.0599,1812.00836983,45374361.5562,68361772.8768,4739.05741361,4728.99734014,0.0
1.18206809414,0.746405470184,1.04637101652e-05,5120243.83146,2.80041276772e-05,0.0,6649784.53394,686.571963039,655.95310616,65483791.7372,1860.63485724,52463949.8168,66682642.9528,4906.76465878,4895.71039961,0.0
1.02049630357,0.883945521841,1.02045352912e-05,-69472071.2455,1.46263728251e-05,0.0,5863329.3264,677.660646649,645.625082951,67056215.9097,1653.3836976,49058085.919,70800485.7354,4236.08015612,4227.77199513,0.0
1.03363607465,0.827546884057,9.8677536202e-06,-58429990.7098,1.52783758582e-05,0.0,5898413.2144,678.26259956,646.478140789,67194734.6374,1673.59898414,41828868.2872,71036064.3284,4290.62334587,4283.23640605,0.0
1.02539384444,1.12178187497,1.02006755599e-05,-64698875.7708,1.2633649416e-05,0.0,5865563.43889,677.677843616,645.937542986,67072924.6735,1659.69796514,45701467.1345,70841719.327,4256.40984827,4247.98031977,0.0
1.12799934664,1.02721452318,1.0196744559e-05,-11670031.284,1.91942216244e-05,0.0,5649455.19685,683.124452097,652.559820048,66516358.7529,1796.70908272,43319959.3099,67765939.2808,4682.3252879,4673.32215903,0.0
1.1350438834,1.06501281011,9.78975206543e-06,-10985955.3601,1.8588013751e-05,0.0,5611476.78373,683.881869349,653.011989356,66408007.3718,1804.4584736,43885370.4054,67717469.0685,4711.56715999,4701.88574542,0.0
1.1530923897,1.03934926213,9.43738356391e-06,-5883304.2219,1.99281232257e-05,0.0,5563987.95482,685.179180993,654.158180297,66295636.1789,1827.33958278,47124898.8967,68966210.668,4786.48650964,4776.49352478,0.0
1.03416651526,0.812771804966,1.00743087507e-05,-57613097.9308,1.54922797378e-05,0.0,5840120.54332,678.202059249,646.493636997,67008502.337,1672.03923032,41266723.9084,70962054.8192,4292.82520484,4284.38375358,0.0
1.17942055929,1.01532820514,1.00857092937e-05,3265229.79363,2.17735529489e-05,0.0,5392309.04786,686.438319277,655.797604714,65717977.9634,1857.46651187,51626595.844,66977011.067,4895.77474161,4884.71063675,0.0
1.24614440397,0.835428881237,9.52436977035e-06,18513193.0304,3.0621587234e-05,0.0,20072181.0768,691.074606029,659.976025697,64787837.2452,1936.16964001,62816376.3566,67126768.7223,5172.74542088,5160.28750103,0.0
1.13546444868,1.22725774769,9.70959822748e-06,-11223869.8557,1.60512775844e-05,0.0,5585935.04484,683.916373555,653.024912426,66323032.4813,1803.12343428,43670032.2441,67688161.8897,4713.31292647,4702.93478707,0.0
1.18468545372,0.920646365543,9.94743684778e-06,4308032.0673,2.37857638353e-05,0.0,5994226.92689,686.924545133,656.104973833,65596677.1546,1863.44071172,52223273.9086,66892214.4868,4917.62931839,4906.21893255,0.0
1.00127457724,1.01840348271,1.01016531319e-05,-95846471.5676,1.34300975593e-05,0.0,5901488.57992,678.156103249,644.402878701,67122147.753,1626.59205024,70657177.031,70657177.031,4156.29077012,4147.96418072,0.0
1.2535457055,0.904840844242,9.81824670877e-06,20091169.1085,3.0605593023e-05,0.0,21804220.0556,691.356871527,660.415902226,64620931.2819,1943.84227774,64116969.1528,65031347.2071,5203.46822353,5190.73362193,0.0
1.01119710214,0.764229957499,1.03450298253e-05,-74814621.9181,1.47590427246e-05,0.0,5897899.45564,677.270153595,645.037403954,67118400.9203,1641.5639569,53077104.5303,70604206.8432,4197.47917098,4189.71885906,0.0
1.22461066707,1.06050869246,1.01415867878e-05,14132620.9449,2.45830292728e-05,0.0,15528709.1755,689.176241323,658.66103797,65188263.056,1911.07572671,59400979.9952,66659269.6802,5083.35887901,5071.64804465,0.0
1.22059206727,0.996205621845,9.92662040306e-06,13445633.1314,2.5451395419e-05,0.0,14624822.6677,689.044768764,658.409692375,65333669.9965,1907.49143782,58805928.2778,66610968.8293,5066.67767124,5055.35009665,0.0
1.12112851798,0.967572838624,1.07099970794e-05,-13260701.8961,1.95559198666e-05,0.0,5592817.31135,682.455752627,652.078545341,66338705.8935,1786.0018075,42213026.6993,67301652.5782,4653.80447813,4644.1774906,0.0
1.13049642945,0.989030604006,9.66613271095e-06,-12456482.6243,1.89693706219e-05,0.0,5575620.33988,683.758566555,652.685178047,66293489.4172,1796.77747949,42869864.736,67288267.0119,4692.69067865,4682.30186147,0.0
1.11694326804,0.990998214001,9.8208674634e-06,-17635787.0637,1.82877005398e-05,0.0,5678585.966,682.774268048,651.832972296,66604699.7684,1782.19139424,39959468.7004,69258341.5113,4636.43150563,4627.26407746,0.0
1.03836608993,0.889968096271,1.04854152413e-05,-51033465.1604,1.51223096496e-05,0.0,5809262.23598,677.959291397,646.727820798,66929247.3064,1676.97206167,37923458.2018,70689703.9671,4310.2576393,4301.5742729,0.0
1.20453639392,0.964324816753,9.82773027304e-06,9568106.99589,2.43441473631e-05,0.0,10964676.4135,688.142100654,657.388921428,65504945.1596,1888.36080461,55780750.8329,66946811.6789,5000.03057116,4988.7693854,0.0
1.03348159539,0.985070380565,9.77992469952e-06,-59243153.828,1.37171759792e-05,0.0,5847088.14334,678.32925679,646.447194128,67018080.333,1669.63087726,42290536.9185,71058007.9592,4289.98210246,4281.17670981,0.0
0.999648692323,0.825566816848,9.74597936301e-06,-95877652.8154,1.4859431067e-05,0.0,5984502.06586,678.815027812,644.327578315,67378944.9167,1627.8235579,70685177.2069,70919045.9482,4149.54172183,4142.63665539,0.0
0.982580349382,0.888707038053,9.8173644816e-06,-94972352.7527,1.44096084534e-05,0.0,6003013.59828,681.352667708,643.225440375,67402155.7173,1615.66030089,69887752.8554,70127684.5118,4078.69103028,4071.60034191,0.0
1.17943379199,0.909271706267,1.03868142531e-05,3778044.98281,2.41160155148e-05,0.0,5702026.83532,686.315892521,655.779302469,65623117.0671,1857.48965444,51743390.9604,66886700.0871,4895.82967055,4884.81836689,0.0
1.12020457762,1.11461488535,1.05008218953e-05,-13961463.6378,1.7230073739e-05,0.0,5619567.20597,682.453772407,652.017272427,66414251.2678,1784.74291343,41833868.4416,68013609.0959,4649.9692017,4640.35855329,0.0
0.984483531179,0.967601844011,9.77622722823e-06,-95074627.4482,1.38349556014e-05,0.0,6003532.70265,681.149882547,643.348058958,67406946.2772,1616.35764725,69977748.4189,70218876.4014,4086.59113792,4079.47264738,0.0
1.18226877927,1.12502584369,9.83894155213e-06,3758858.84183,1.98082157011e-05,0.0,5685579.84044,686.684636782,655.970960849,65741312.4964,1860.39773414,52063023.3795,66928261.0155,4907.59770275,4896.3385163,0.0
1.11513000096,0.983955902936,1.0043604182e-05,-16014035.3133,1.83268016069e-05,0.0,5668770.34126,682.463699339,651.695344907,66566289.21,1779.18491157,40801779.3747,69374191.8125,4628.90463399,4619.67675422,0.0
1.01448775577,1.01783795869,1.00226619414e-05,-78396856.0898,1.32740784075e-05,0.0,5944014.35532,677.655373776,645.272857882,67276738.3645,1647.57965858,55902311.2201,70927236.9117,4211.1386742,4203.93659782,0.0
1.08829968393,1.07038608379,9.79015869565e-06,-27330942.5254,1.51014381653e-05,0.0,5772409.98102,681.13411264,650.061229348,66867531.8986,1745.02098135,36038050.3707,69400899.028,4517.53198799,4508.91926661,0.0
1.095298198,0.824446684641,9.57512502841e-06,-25128511.0189,1.82859165361e-05,0.0,5740945.28657,681.7397889,650.453568769,66784155.0877,1754.18708348,36567715.3415,69296785.5397,4546.5828199,4537.76277849,0.0
1.12267071366,0.94491161304,1.02735225373e-05,-13768713.0318,1.95129694882e-05,0.0,5606590.85186,682.841514381,652.180029575,66374551.702,1788.07147954,41943477.4886,67943254.9656,4660.2061324,4650.5533255,0.0
1.08161610309,0.818304270647,9.7736930775e-06,-29676100.7251,1.76016629391e-05,0.0,5773610.99044,680.863721172,649.624184273,66872019.2523,1736.45471946,35619955.0737,69353247.5397,4489.78844393,4481.28061043,0.0
1.12902701482,1.15511856096,1.03707373087e-05,-11730619.0583,1.72934304354e-05,0.0,5596420.21281,682.99799124,652.52954839,66349381.7321,1795.78849598,43175965.7663,67448463.3215,4686.59113852,4676.73205862,0.0
1.05709154642,0.940917246505,1.02429104954e-05,-39699862.5468,1.49704967269e-05,0.0,5821570.71411,678.980829731,647.947898769,66978017.3811,1703.8639681,34817121.6255,69652597.9069,4387.98700919,4379.76384955,0.0
1.11674961425,0.866358408794,9.98907805762e-06,-15616126.131,1.9920755315e-05,0.0,5657184.30811,682.644123031,651.792539625,66531757.1297,1781.40444589,40972924.0408,69330808.9736,4635.62764875,4626.37444588,0.0
1.21498090696,1.027583676,9.87949217476e-06,11928724.339,2.40136287842e-05,0.0,13197260.3729,688.700652246,658.023802567,65350114.1868,1900.30068825,57561972.6891,66418088.9994,5043.38574479,5031.84919676,0.0
1.21653360572,1.05552630412,9.89122465858e-06,11919283.4297,2.36263373068e-05,0.0,13169774.9516,688.814508488,658.124936551,65290825.8981,1901.69103866,57574311.8983,66347853.9948,5049.83099734,5038.04119077,0.0
1.17313945709,0.989657663541,1.0235028305e-05,2287059.6717,2.19644516815e-05,0.0,5409248.30576,685.973587351,655.413888605,65768966.4835,1849.68236604,51043995.1703,67015757.0718,4869.70188638,4858.80398338,0.0
1.15516790483,0.959284486414,1.02447677848e-05,-5142005.21984,2.29107381844e-05,0.0,5541183.16734,684.925020054,654.346025532,66227413.3235,1831.47489722,46902574.7966,68445145.6541,4795.10197295,4785.61805195,0.0
1.1050821423,1.20187490467,9.92203719683e-06,-21289922.5854,1.48626699012e-05,0.0,5730397.54877,681.97834476,651.148175072,66751920.3191,1766.96674733,37936139.1684,68740234.5261,4587.19597269,4578.31934551,0.0
1.11391593204,0.811330210569,1.02540493563e-05,-15835230.0407,2.051414672e-05,0.0,5620589.8746,682.34858935,651.599422368,66414663.0218,1776.43674264,40893454.1882,69264097.6645,4623.8650339,4614.26000312,0.0
1.1205167374,0.771392111667,9.91373007606e-06,-14642347.3784,2.1179604189e-05,0.0,5589108.02553,683.05340795,652.017589256,66314445.7828,1784.42634594,41455979.5403,68644829.473,4651.26497695,4641.17217671,0.0
1.10444824091,1.03527344389,9.96474136521e-06,-21312182.388,1.68265481674e-05,0.0,5719228.6511,681.980827336,651.106635994,66718232.6184,1766.26277279,37836208.3276,68681138.0779,4584.56464802,4575.69804389,0.0
1.29484054326,0.830620067859,9.60535605215e-06,27131471.8903,3.57984046667e-05,0.0,28677369.3113,694.068940687,662.987425119,63997346.8188,1990.71602108,68516583.7448,69595525.0159,5374.88309507,5361.5570373,0.0
1.14454694339,0.723165441303,1.00488555676e-05,-8519641.39282,2.60008255584e-05,0.0,5568316.20694,684.379853569,653.561708285,66293387.6751,1818.40124974,45148886.7087,68273291.0529,4751.01436201,4741.70251213,0.0
1.02607849306,0.812970788682,9.91494900577e-06,-65117792.7449,1.51568165198e-05,0.0,5915286.6119,677.987836705,646.004297354,67233872.0307,1663.52385454,46031084.4362,70901943.1455,4259.25182469,4251.9732234,0.0
1.19375482453,0.808813219578,9.90361537808e-06,6252085.42824,2.69490482241e-05,0.0,7849959.39455,687.68520701,656.716633286,65383716.0872,1874.39904941,53384184.0147,66585650.5043,4955.27627662,4943.57381152,0.0
1.27923502451,1.07737494306,9.72547631231e-06,24392530.1341,2.95484715735e-05,0.0,26171691.9655,692.921949109,662.04150251,64284171.0443,1972.69003255,67202273.0308,68196404.6103,5310.10458674,5296.79484588,0.0
1.11809154337,1.1565492803,9.65937917982e-06,-15824592.069,1.57814033927e-05,0.0,5662442.21424,682.84269923,651.87539704,66546087.5635,1781.76436819,40930112.7486,69539813.6356,4641.19799653,4631.42448581,0.0
1.22297826354,1.19335058583,1.02885889231e-05,13731661.007,2.22818377749e-05,0.0,15024982.4126,688.928128504,658.548677361,65159957.8626,1908.23461405,59042995.1712,66604586.8112,5076.58277195,5064.65600529,0.0
1.09282210505,1.06402832819,9.46053443378e-06,-26362264.3459,1.51562281129e-05,0.0,5770698.12215,681.604962472,650.333680656,66869891.5401,1750.75669913,36332905.3239,69491227.6486,4536.30455806,4527.52308979,0.0
1.14263715819,1.20882839776,1.00935611366e-05,-8751355.87368,1.73727001422e-05,0.0,5566698.05819,683.920756794,653.345565296,66270717.4978,1813.14638264,45085162.2344,68345174.0358,4743.08684365,4732.96981798,0.0
1.10161870273,1.01048770103,9.71405194663e-06,-21459377.2959,1.65842320133e-05,0.0,5662157.40743,682.043370757,650.904897562,66522836.5892,1759.08603532,38156394.1459,68413364.1211,4572.81923503,4562.75490589,0.0
1.09577419567,0.920399354904,1.05386280546e-05,-20804779.7302,1.78503997377e-05,0.0,5645943.48103,681.156175058,650.525447283,66458629.2624,1751.73962855,38196741.0655,68222275.4223,4548.55868623,4538.78325773,0.0
1.06391588129,0.742268684898,1.02277906906e-05,-36552059.6724,1.7512780636e-05,0.0,5794033.28169,679.444722932,648.397328266,66905234.7229,1713.09360032,34607574.6428,70058059.2058,4416.31482323,4407.98485231,0.0
1.10252263429,1.10562365269,1.01090797328e-05,-21791612.4624,1.5961903542e-05,0.0,5720739.76442,681.743370296,650.987412941,66723577.9547,1763.52141283,37641871.8983,68609626.7512,4576.57145494,4567.73614665,0.0
1.1172954969,1.04386354972,9.99277432372e-06,-15388349.041,1.75633826493e-05,0.0,5618970.67256,682.652355887,651.810275837,66405071.3472,1779.87492463,41065724.0935,69130044.3543,4637.89360763,4627.83987748,0.0
1.04970366342,0.927051968108,9.7006838135e-06,-45910975.7437,1.45093165001e-05,0.0,5831050.78509,679.074909196,647.479506202,66994309.2232,1692.34866137,36187943.0611,70598266.4516,4357.31990686,4348.59694416,0.0
1.12833873494,0.877167722148,1.00692234014e-05,-12144981.2853,2.08961229811e-05,0.0,5587204.72169,683.277237484,652.478595853,66331623.6058,1795.12614677,43083538.9617,67296032.3807,4683.73408874,4673.88706983,0.0
1.07122026346,0.881525091396,1.01937064776e-05,-32229847.3284,1.63889781667e-05,0.0,5781316.83265,679.753831268,648.811138411,66875594.6084,1722.08393257,35047592.4751,69547371.3193,4446.63531362,4438.09775478,0.0
1.0865007659,0.754297615566,1.02222832903e-05,-26555675.2531,1.92164838487e-05,0.0,5736502.05296,680.854073229,649.934652334,66761663.5856,1742.90234131,36005351.2919,69158328.7212,4510.06467925,4501.48078694,0.0
1.00663500109,0.976312312177,9.7207054893e-06,-91501633.8127,1.36325337478e-05,0.0,5927750.51911,678.381429316,644.756003221,67204314.6692,1635.05767764,66874769.9955,70926844.0588,4178.54188952,4170.53751818,0.0
0.992202178204,0.94577940873,1.00555602591e-05,-95259964.5297,1.40232642056e-05,0.0,5921690.35033,679.214526297,643.82788386,67168503.6982,1614.58226767,70141220.6648,70393663.4969,4118.63124172,4110.44953988,0.0
1.00395599682,0.730333554435,1.01614839705e-05,-90400584.9886,1.53277233268e-05,0.0,5933141.32954,677.723188589,644.585427796,67218142.5721,1632.5912505,65904290.2268,70785111.8156,4167.4213428,4160.02653547,0.0
1.10353795388,0.956067116017,1.03839956483e-05,-18487836.3903,1.77060066888e-05,0.0,5668976.69705,681.634490229,651.012190041,66553576.1,1763.19536281,39384887.4391,68733113.1183,4580.78604656,4571.45282279,0.0
1.29572835281,1.15483904086,1.00376148198e-05,27400230.1378,2.95151574994e-05,0.0,28826162.808,693.661095371,663.060205929,64086509.8467,1990.26904314,68579191.3159,69703140.3095,5378.56839251,5365.2708942,0.0
1.17917857095,1.0640829161,1.0112718063e-05,3254482.46213,2.09079680126e-05,0.0,5393780.60892,686.376770099,655.779448826,65719404.9547,1856.90729414,51574283.8493,66989277.528,4894.77024801,4883.65761124,0.0
1.09957666148,0.937225973039,9.81771751947e-06,-23232621.8637,1.75369166156e-05,0.0,5732405.90883,681.820425011,650.780360988,66760225.9838,1760.00441982,37125560.9051,69222466.1943,4564.3427218,4555.55375232,0.0
0.967449591404,1.14641149378,1.01122864568e-05,-94145659.7037,1.24976027512e-05,0.0,6038051.54362,683.409540624,642.250197484,67505242.7623,1614.47867145,69159969.0242,69388462.5624,4015.88325392,4009.12138073,0.0
1.19249183646,0.814268671806,9.87325291765e-06,5983909.2338,2.66651726044e-05,0.0,7528637.3835,687.602666728,656.623391009,65416082.6051,1872.91862942,53224680.0607,66661081.9379,4950.03361315,4938.35454989,0.0
1.19109217126,1.03888564004,1.01222399263e-05,5913396.71039,2.23072190003e-05,0.0,7422628.28049,687.188649625,656.543326447,65472484.58,1870.57236541,53028553.1409,66652106.3249,4944.2236029,4932.59030743,0.0
1.15175460785,0.728367821843,9.7224876625e-06,-5307906.36269,2.56403247871e-05,0.0,5491373.32217,685.175395048,654.069623169,66054583.5571,1824.83366505,47258037.3049,68609143.6163,4780.93337719,4770.57325398,0.0
1.18621255114,0.918786581199,9.52406307015e-06,4244258.18975,2.31882211621e-05,0.0,6041888.41016,687.25542898,656.21937833,65683772.8442,1865.85374155,52460762.0473,67035033.354,4923.96829978,4912.63111564,0.0
1.12957409155,0.740989055305,1.01611257928e-05,-11852474.8469,2.32904300041e-05,0.0,5565093.69423,683.396396932,652.56232209,66248532.836,1797.02925201,43131424.4953,67301150.7664,4688.86205402,4678.99371406,0.0
1.18064250281,0.89062093794,1.03065321655e-05,4589467.80013,2.45281577449e-05,0.0,6276998.06733,686.397750928,655.860253061,65692983.9179,1859.55463923,52345692.0149,66961286.818,4900.84702916,4890.13884588,0.0
1.01056758402,0.94764694558,1.01304118297e-05,-83953116.7141,1.41759461176e-05,0.0,5873208.43303,677.717256271,644.993272589,67049613.9293,1639.04440831,60432267.2631,70621999.6747,4194.86604127,4186.38522563,0.0
1.018870284,1.04129463613,1.02055764639e-05,-69131161.5105,1.30692594724e-05,0.0,5892671.57079,677.543280898,645.532448372,67137100.0831,1651.79597404,48801840.6074,70841802.2126,4229.33054888,4221.35890956,0.0
1.16292035531,1.11683307454,9.8836809255e-06,-2289566.36565,2.03165420392e-05,0.0,5539787.06514,685.515461337,654.828490567,66214793.2207,1840.41365464,48829098.3134,68326173.6244,4827.28239489,4817.5534348,0.0
1.26277140344,0.876062029629,9.97450269015e-06,21968981.3832,3.28752319868e-05,0.0,23900907.9982,691.917217069,661.02290807,64460311.0372,1954.40972576,65543766.3712,66419790.7353,5241.76409568,5228.99772911,0.0
1.17188677504,0.943402046084,9.93138539276e-06,833751.690592,2.26403768826e-05,0.0,5446070.11556,686.12732862,655.365385501,65896684.3563,1849.57289913,50409262.605,67506011.665,4864.50200319,4853.91653312,0.0
1.13098880751,0.827731926453,1.00054087179e-05,-11547531.481,2.18617105016e-05,0.0,5575932.60557,683.523176563,652.65955085,66299639.0755,1798.58373995,43434233.7065,67456072.8361,4694.73453997,4684.84265084,0.0
1.13439979304,0.773473698038,9.86232210018e-06,-12008485.7584,2.34512210634e-05,0.0,5521170.3475,684.080158988,652.95211609,66127836.1914,1802.17091841,43135446.1459,67410463.8934,4708.89354091,4698.40563959,0.0
1.17301946416,0.851139052564,1.00398042902e-05,1771018.9553,2.43130718387e-05,0.0,5385791.07085,686.213878349,655.40587586,65700462.7191,1849.50225964,50722836.191,66942134.5523,4869.20379573,4858.09707281,0.0
1.01913621541,0.809109982092,9.80623127139e-06,-74623043.4194,1.50363758774e-05,0.0,5937404.07134,677.97253625,645.566425926,67282007.6923,1654.23718854,52942419.3512,70937948.6431,4230.43443017,4223.25474579,0.0
1.19304422363,0.703952965268,9.89671751069e-06,6228130.2776,2.9634532987e-05,0.0,7774912.59842,687.759950848,656.671645133,65330524.2327,1873.81641851,53332600.9818,66551510.0536,4952.32657229,4940.6372761,0.0
1.22764256008,0.745190200547,1.00522749178e-05,14882692.396,3.20093754541e-05,0.0,16218729.0227,689.543965937,658.774508769,65085575.757,1915.86832764,59966715.9404,66612443.1951,5095.94426689,5084.37752088,0.0
1.02141665474,1.10279896615,9.93704242329e-06,-70785603.0411,1.25253558206e-05,0.0,5940340.38681,677.770375418,645.707567799,67299469.6442,1657.1446897,50047748.9778,70819131.2805,4239.90053383,4232.68842029,0.0
0.99282126443,0.830438274216,1.00199126613e-05,-95273734.8284,1.4917083336e-05,0.0,5915795.73141,679.257223446,643.866870698,67150005.1769,1615.42807809,70153325.3514,70401333.5692,4121.20106865,4113.0091544,0.0
1.02779137575,0.839067130375,9.98698487271e-06,-62221989.6997,1.49721281786e-05,0.0,5909143.0558,677.959026444,646.110958704,67218021.7842,1665.80112782,44076549.2819,70938355.0409,4266.36200074,4259.05890483,0.0
1.03155877591,0.665195545512,1.00900304556e-05,-58868883.3624,1.6665637952e-05,0.0,5834374.90354,678.144116324,646.327882955,66984581.3935,1668.4606579,41986411.7514,70961115.5482,4282.0004788,4273.51412754,0.0
1.14143027361,1.01211787692,1.01155081981e-05,-9304326.6293,2.0634149009e-05,0.0,5602402.81411,684.021852018,653.390699263,66394380.3256,1814.104252,44715422.0896,68167751.9865,4738.07706576,4728.81497415,0.0
1.04787695681,0.881512603372,9.76539778901e-06,-47325505.5316,1.51413167325e-05,0.0,5825833.12251,678.976013338,647.369235154,66975628.8673,1689.83654002,36563831.3718,70542121.1831,4349.73724772,4341.04428081,0.0
1.13235653738,1.00531070304,9.87618683655e-06,-11502010.865,1.93696617179e-05,0.0,5610837.62247,683.686570079,652.832081638,66403992.0559,1801.05313785,43506786.5525,67554758.3891,4700.41198666,4690.77597532,0.0
1.01214642314,0.970097080295,1.04996537959e-05,-78855703.5757,1.41343193491e-05,0.0,5857778.44434,677.253377779,645.077026766,67012039.8626,1641.39253877,56242605.1296,70494808.0739,4201.41980245,4192.99573378,0.0
1.07164527864,0.918986981251,9.89916767999e-06,-33192874.8014,1.58209681415e-05,0.0,5794624.28156,680.005474464,648.869447454,66911881.3046,1722.60097378,34950172.1747,69797229.7608,4448.39955163,4439.8567913,0.0
1.12310970426,0.972027235787,1.020702543e-05,-13503833.9891,1.92119322108e-05,0.0,5605760.85644,682.916971313,652.207054017,66364003.317,1788.47406791,42210709.4264,67850449.3669,4662.02838238,4652.26924069,0.0
1.15457812875,0.930046052848,9.91138757613e-06,-5595476.98986,2.24934141489e-05,0.0,5518607.80199,684.972823697,654.163198547,66144976.0304,1829.01315417,46693107.8065,68532049.9908,4792.65381244,4782.54008132,0.0
1.09690643278,0.926592559464,1.02471389543e-05,-23053068.354,1.78474100571e-05,0.0,5717714.39118,681.385858965,650.617871016,66706661.2307,1756.35108188,37055053.2384,68833043.9465,4553.25860247,4544.51176136,0.0
1.2259483412,0.727705114396,9.87279939116e-06,14354056.9661,3.17723577803e-05,0.0,15774008.2663,689.709945532,658.747268183,65033700.1139,1913.34763558,59494528.2631,66518688.1869,5088.91156432,5077.09186396,0.0
1.09057456812,0.939568616076,9.73852992485e-06,-26106223.8885,1.65004823718e-05,0.0,5758592.50367,681.341266394,650.192448421,66832309.6128,1747.9708314,36275416.3097,69384490.0203,4526.97503227,4518.22960757,0.0
1.14390626033,1.07025693826,9.94593575231e-06,-8649604.78322,1.92073730575e-05,0.0,5556746.04108,684.171315137,653.428074495,66239052.0414,1814.96126956,45086389.7156,68353598.7409,4748.35488663,4738.21766123,0.0
0.993777093492,1.18406040158,9.79380982474e-06,-95403560.852,1.2219240691e-05,0.0,5943865.08458,679.720448253,643.931192844,67237333.0905,1616.83181568,70267641.4292,70515189.8351,4125.16871509,4117.04162071,0.0
1.08460317055,1.12103893272,1.00613310947e-05,-27782392.4252,1.44340659525e-05,0.0,5774268.31867,680.716901,649.827839044,66872371.9239,1740.13079448,35851638.3923,69328119.1815,4502.18776095,4493.63344895,0.0
1.19424673532,1.0194817363,9.97937896209e-06,6428650.12132,2.27663801632e-05,0.0,7938284.57674,687.502932648,656.75810901,65464905.1405,1874.53277786,53429058.3466,66611666.1597,4957.31819831,4945.60661373,0.0
1.0554284984,0.890954066931,9.50447209375e-06,-43591446.5966,1.50471078357e-05,0.0,5822670.82755,679.521461668,647.844033269,66976329.9349,1699.96881902,35506532.1885,71361800.9182,4381.08369686,4372.26594517,0.0
1.05340453059,0.981681654784,1.05919396099e-05,-41175216.0003,1.4782028717e-05,0.0,5793180.7164,678.666618272,647.770679239,66893301.3135,1697.99532678,34885471.4266,69531412.8033,4372.68220648,4364.11114122,0.0
0.925173033532,1.11395650794,9.88526434247e-06,-92301345.1786,1.25892813413e-05,0.0,6109404.21289,689.910077519,639.518782409,67636451.4289,1604.68716374,67536522.7047,67741748.9974,3840.39326219,3833.62452803,0.0
1.18438077256,0.954651769922,1.00436907703e-05,4739904.02965,2.32941197687e-05,0.0,6389571.17441,686.755159915,656.10143536,65736442.3219,1864.4080371,52558848.2306,67013085.8602,4916.3645869,4905.58886678,0.0
1.07688231216,0.857089872788,9.55080610971e-06,-32487180.1222,1.66322824572e-05,0.0,5801880.22243,680.53616634,649.177053402,66947352.7394,1730.19592282,35057012.5948,69880603.1136,4470.13847778,4461.70408871,0.0
1.07300528543,0.832303828906,9.83420712855e-06,-33132054.8894,1.68511360651e-05,0.0,5799093.08731,680.149587171,648.951935694,66936210.7578,1725.13657606,34900004.7624,69872587.7187,4454.04493982,4445.67050758,0.0
1.08848084168,1.31018311701,1.0299143467e-05,-25953842.7299,1.31194415588e-05,0.0,5768805.98241,680.672755155,650.040837167,66856674.9527,1745.43941134,36219695.6815,69229043.211,4518.28397381,4509.76700916,0.0
1.10377660502,0.925554495498,9.92282056748e-06,-21604989.8303,1.81405933232e-05,0.0,5714434.70348,682.02694454,651.069581103,66700746.4166,1765.48530346,37723127.5048,68605595.3528,4581.77668744,4572.92146355,0.0
1.02048273189,1.0973950387,1.01396729378e-05,-70059027.2659,1.27884779256e-05,0.0,5878218.60285,677.647416142,645.625614958,67100843.269,1653.20988141,49500643.3447,70978590.5729,4236.02382008,4227.71587636,0.0
1.13175158401,0.994064569197,9.97404082763e-06,-10754361.297,1.94887659427e-05,0.0,5608101.39286,683.571057986,652.800679699,66399201.2628,1800.03810179,44031841.5926,67641144.5428,4697.90082523,4688.30355757,0.0
1.10427277157,0.975785440726,9.46605254266e-06,-19521593.7585,1.64213291936e-05,0.0,5718344.13572,682.294128449,651.098030627,66704590.3586,1764.52966785,39085747.1382,68697447.2601,4583.83627479,4574.50922372,0.0
1.03254220623,1.01839647273,9.57712221375e-06,-60797935.7397,1.35031752866e-05,0.0,5921967.22742,678.447722837,646.423488184,67260972.244,1671.96494418,43190251.9994,71181309.8053,4286.08269806,4278.71148105,0.0
1.22760742196,0.733396087546,1.01921470865e-05,14840842.8853,3.24807494374e-05,0.0,16302806.0768,689.666740195,658.848334518,64893728.3322,1914.59394444,59892619.238,66472112.3098,5095.79840856,5083.80699569,0.0
1.11585966159,1.02635460618,9.68750591142e-06,-16613003.4746,1.72813320572e-05,0.0,5662365.62303,682.77886931,651.762856091,66548392.3402,1779.27927174,40462127.9739,69348138.4031,4631.93345526,4622.29614597,0.0
1.07341511839,1.09374462176,1.0278058665e-05,-31960415.5836,1.44272741793e-05,0.0,5794799.19222,679.906360028,649.076145009,66918770.4099,1725.74955844,35017932.8311,69477746.1558,4455.74615644,4447.45934547,0.0
1.03555021188,1.01364630477,9.83074361152e-06,-57376410.4159,1.36503263285e-05,0.0,5904396.05884,678.314803662,646.606795463,67215390.6078,1676.05336387,41222005.6859,71140626.5831,4298.56892951,4291.15570616,0.0
1.08939639505,0.905496614776,1.01168892678e-05,-25882956.621,1.73645535188e-05,0.0,5743958.00518,681.003295665,650.097094078,66786120.2768,1746.58588631,36222472.7437,69199159.024,4522.08443585,4513.45457542,0.0
1.11810473154,1.07496973957,1.02138788951e-05,-15131515.0183,1.72507675922e-05,0.0,5639331.37227,682.506369798,651.870950605,66466223.9177,1782.15148693,41207471.4201,68897350.2397,4641.25274062,4631.67611499,0.0
1.18502305484,0.857210092708,1.03408535328e-05,5053959.04611,2.55282890609e-05,0.0,6584794.12496,686.73584232,656.144675276,65580533.3066,1864.68291361,52485527.2536,66749824.8598,4919.03070064,4908.02676313,0.0
1.08590114796,0.899203180236,1.00669751986e-05,-27254516.0339,1.71251220618e-05,0.0,5755101.29845,680.874970508,649.904955236,66815156.6417,1742.00770407,35926340.9175,69270283.2918,4507.57566518,4499.00112443,0.0
1.1281147799,0.876836980188,1.01676483531e-05,-12305968.9883,2.09668609371e-05,0.0,5581463.81781,683.316961263,652.541270953,66296611.5166,1794.9827411,42962129.1963,67219954.73,4682.80445136,4672.96138577,0.0
1.10616551614,0.942752817229,1.01627343527e-05,-18522155.2313,1.80769683036e-05,0.0,5673071.99837,681.942078212,651.181216572,66573530.5718,1766.84213402,39484448.6883,68825790.7214,4591.6930575,4582.41451004,0.0
1.04650618624,1.2134264635,1.01042231792e-05,-47992044.4198,1.22764741108e-05,0.0,5834734.31872,678.559583523,647.282485417,67013883.6037,1688.12620716,36801598.9759,70607946.9275,4344.04717908,4335.4081647,0.0
1.06427734841,1.05497427256,9.40814859592e-06,-38394208.4091,1.35134478637e-05,0.0,5834917.23939,679.950664532,648.418854125,67020445.7524,1712.4047084,34792329.6372,70140857.2417,4417.81527325,4409.20182634,0.0
0.985154703482,0.941322888379,1.01719934556e-05,-94911328.292,1.41185871684e-05,0.0,5937052.8905,680.083127108,643.37559254,67204643.2544,1610.69499115,69834351.4323,70075295.6619,4089.37717415,4081.38828003,0.0
1.11684204881,0.780955724526,9.95363547787e-06,-15633164.4838,2.11293554329e-05,0.0,5650449.48839,682.724391237,651.799747632,66510850.9502,1781.61893944,40961221.3815,69337034.6927,4636.01134461,4626.7557136,0.0
1.17145010309,0.857540469494,9.87194083659e-06,1162926.91109,2.36532365648e-05,0.0,5411739.2406,686.201756711,655.330567928,65779649.8264,1847.94868544,50595283.647,67523387.2715,4862.68937793,4851.71692768,0.0
0.949711461587,0.863761257959,9.75229426127e-06,-93414535.6222,1.49428246587e-05,0.0,6060297.00681,687.056211459,641.1049293,67531161.0579,1613.3315331,68516438.1734,68734214.9716,3942.25227705,3935.42786706,0.0
1.09934396649,0.806325366163,1.02320835541e-05,-22333765.0903,1.9618268221e-05,0.0,5701826.36341,681.605444995,650.779517246,66661364.2635,1759.63822772,37342430.9709,68377823.6827,4563.3768049,4554.59161204,0.0
1.08856840964,0.821744816055,9.84800542151e-06,-27001667.8751,1.81442307727e-05,0.0,5751319.18151,681.218322564,650.075452548,66804116.943,1745.57247827,36051215.4561,69321292.2506,4518.64746842,4510.03129743,0.0
1.12409935503,0.762220228522,9.56140540714e-06,-14370762.9385,2.16852697097e-05,0.0,5615647.64209,683.497180408,652.264933805,66413473.3961,1790.13320491,41760885.8015,68751536.0013,4666.13642273,4656.33562733,0.0
1.07712305326,1.07505678786,1.02685348956e-05,-30174155.5144,1.4719550832e-05,0.0,5786665.3109,680.148247827,649.335244179,66906533.0179,1730.71429507,35338367.6891,69265616.8707,4471.13779408,4462.79586683,0.0
1.07090374092,1.09132112772,9.90405664158e-06,-33557023.7922,1.38848191023e-05,0.0,5807818.61789,679.900312856,648.832271105,66951050.3685,1721.49410292,34912046.5648,69896836.0812,4445.32142856,4436.79031539,0.0
0.989983222385,0.706236038327,9.92400250025e-06,-95152255.2337,1.59099135155e-05,0.0,5918402.37324,679.937873434,643.685122132,67155268.1055,1612.79310084,70046425.6536,70291329.5395,4109.42035612,4101.27430126,0.0
1.05153008092,0.98717981896,1.02558554873e-05,-44398725.5424,1.45538022521e-05,0.0,5800713.94631,678.75740021,647.590181306,66918584.1158,1694.79047382,35610253.1888,70357748.0855,4364.9013659,4356.09142983,0.0
1.09276263443,1.06322144915,9.72744082953e-06,-25302266.3318,1.5549314244e-05,0.0,5763858.41027,681.393946096,650.306029106,66845455.0902,1750.8625975,36537135.1258,69429276.4921,4536.05769552,4527.37074968,0.0
0.996761237136,0.951138733394,9.74548027793e-06,-95782686.7239,1.38417454062e-05,0.0,5996756.94721,679.08136722,644.142384348,67412139.9471,1623.8649132,70601287.4882,70871805.1011,4137.55589535,4130.69381478,0.0
1.11203026261,0.783572655885,1.02615178928e-05,-16863462.143,2.08617733736e-05,0.0,5636429.4951,682.279181,651.511494119,66454538.9333,1774.88440682,40250925.7591,69085460.8993,4616.03762009,4606.6618454,0.0
1.05682703775,1.00667107216,1.03253500988e-05,-39493003.3052,1.43300975999e-05,0.0,5822912.65032,678.881317238,647.932539491,66982646.5405,1703.47241311,34787161.0148,69662681.2787,4386.8890337,4378.66994609,0.0
1.1497704266,1.06883842833,9.94075962999e-06,-7429482.10425,2.02224404403e-05,0.0,5587533.38044,684.625530248,653.938493911,66357920.9562,1824.68176888,45862219.6204,68691527.1759,4772.69704082,4763.29987412,0.0
1.14613190405,1.01304384539,1.00303304738e-05,-8212830.95733,2.09369765584e-05,0.0,5590500.71632,684.356146349,653.668572204,66366378.9823,1820.090304,45372186.8404,68454642.8868,4757.59353371,4748.25613745,0.0
1.09181150496,1.19097735849,1.0127941877e-05,-25139646.373,1.42150092301e-05,0.0,5756089.57544,680.99278076,650.230331072,66828481.4575,1749.49183897,36451027.9378,69163504.5599,4532.10955709,4523.44265721,0.0
1.16405044176,1.15927449702,1.02136055175e-05,-108802.10414,1.85344415395e-05,0.0,5450167.51751,685.347968765,654.857767763,65891527.0882,1837.75615964,49795362.8909,67651405.134,4831.97338375,4821.04224239,0.0
1.06343649597,0.990171389543,9.76487532266e-06,-38286934.2895,1.44812171959e-05,0.0,5824664.54076,679.667856988,648.364754778,66996504.335,1711.92426108,34733841.0495,70086434.3109,4414.32489477,4405.90895135,0.0
1.12695099742,1.16023568953,9.82890932979e-06,-13066068.8882,1.66461814096e-05,0.0,5646449.01478,683.281374085,652.470483005,66506228.44,1794.03176003,42512422.0127,68176252.4592,4677.97359029,4668.45242652,0.0
0.993298782461,0.817876207347,9.51064538652e-06,-95419807.608,1.51665727709e-05,0.0,5929691.55749,680.355377481,643.901763608,67185117.3321,1616.45607787,70281966.0518,70548380.5793,4123.183246,4114.906312,0.0
0.996251326975,0.794693104899,1.02805890911e-05,-95314847.9628,1.52612080754e-05,0.0,5897196.70926,678.424073012,644.084653384,67105050.9193,1620.23861291,70189750.243,70599008.8851,4135.43925827,4127.27238694,0.0
1.00863539527,1.13505268964,9.78578907991e-06,-87766589.0512,1.2131559268e-05,0.0,5980150.22064,677.934508049,644.896459792,67377226.7041,1639.92945225,63654218.2262,71044850.661,4186.84552577,4179.8141982,0.0
1.10317698584,0.93827162276,9.54374245022e-06,-21368104.8718,1.7432917024e-05,0.0,5658643.93488,682.288209355,651.006903115,66511564.9441,1761.19379509,38210219.2724,68460140.8917,4579.28766822,4569.19451274,0.0
1.15115997134,1.06382817571,1.00451007956e-05,-6806297.95904,2.05369484233e-05,0.0,5577033.83739,684.678524271,654.05315701,66328933.7165,1826.39729793,46163822.2409,68749840.9965,4778.46504103,4769.04557095,0.0
1.06176974732,0.820095481392,9.78782886947e-06,-38929154.5414,1.62164181285e-05,0.0,5817244.12759,679.628713961,648.256955089,66971431.0125,1709.83553663,34743025.1247,69945798.1155,4407.40622113,4399.01703044,0.0
1.14561759258,1.06561386492,9.7864174171e-06,-7936566.34561,1.97558192648e-05,0.0,5608366.14879,684.403886427,653.635526139,66431396.1024,1819.24190841,45856478.2529,68498706.7228,4755.4586268,4746.13088628,0.0
0.99829950033,0.727414798103,9.96833694903e-06,-95489734.2516,1.58183616875e-05,0.0,5897719.92846,678.807217634,644.216292691,67103426.1596,1622.77710658,70343710.2901,70679524.0027,4143.94122587,4135.66049618,0.0
1.0395673708,0.657907442362,9.97450494743e-06,-51914589.4399,1.70670161331e-05,0.0,5815793.34688,678.565486564,646.837511123,66941901.6687,1678.82709724,38286204.7191,70841521.245,4315.24415619,4306.54200647,0.0
1.05013917905,0.86266428867,1.01529824993e-05,-45906388.4749,1.56941211286e-05,0.0,5802562.00556,678.830980244,647.513157507,66923612.8526,1693.19673624,36095759.4473,70436009.4953,4359.12773224,4350.429794,0.0
1.16482710119,1.04359184547,1.02440541386e-05,-2150817.75675,2.22760554696e-05,0.0,5399097.57673,685.597121641,654.901496513,65748224.8392,1839.15182132,48286808.3612,67671554.0805,4835.19729704,4823.96024233,0.0
1.23108634876,0.901022786915,9.63922275495e-06,15155602.4797,2.77009798253e-05,0.0,16608276.2742,689.981425174,659.088476581,65159121.7373,1919.89076384,60244772.712,66765951.7443,5110.2394337,5098.51434574,0.0
1.21744224683,1.11657194352,1.02194700301e-05,12785510.0766,2.31261952729e-05,0.0,14023484.4487,688.493642707,658.120274676,65345528.5138,1903.14245377,58281552.5079,66547084.2073,5053.60276659,5042.22545636,0.0
1.09803432001,0.93779822626,9.99992279355e-06,-23190110.023,1.75373996888e-05,0.0,5728922.42039,681.604174196,650.679661479,66750749.6718,1757.97083958,37072117.0026,69089082.7877,4557.94046236,4549.17577244,0.0
1.17135836516,0.81995727641,1.00824075383e-05,1478613.73449,2.48652289934e-05,0.0,5419924.01027,686.065016589,655.320186446,65806274.9641,1848.56559177,50633599.5577,67448588.6631,4862.30857378,4851.65143108,0.0
1.20666198427,0.853703752448,1.02623892657e-05,10423336.5934,2.75577316611e-05,0.0,11718404.075,688.134280149,657.450176526,65166078.6955,1888.98242812,56209639.9886,66679074.4785,5008.8538967,4996.9258527,0.0
0.953314706561,0.718069986105,1.02608888449e-05,-93467292.2959,1.55478826233e-05,0.0,6044986.15076,685.025044934,641.339327376,67502498.6999,1609.17736907,68562907.2408,68783737.0325,3957.20934693,3950.64572903,0.0
0.988173580714,0.838495530191,9.89399210603e-06,-95333316.0798,1.44842581434e-05,0.0,5985834.76947,679.836292753,643.584569906,67353895.9236,1613.04649765,70205755.6329,70449479.5497,4101.90853354,4094.74320848,0.0
1.17407353265,0.82385329378,9.99347875866e-06,2234377.04543,2.47892937664e-05,0.0,5389560.48107,686.305851391,655.473452236,65717579.1533,1851.00154343,51111253.6125,66961779.314,4873.57923403,4862.55961911,0.0
1.07053816869,0.84096275528,1.01122570366e-05,-34165060.1945,1.70035028787e-05,0.0,5801066.61927,679.826055212,648.808204059,66942236.0245,1722.54015776,34766435.6937,69814868.0081,4443.80393823,4435.65709562,0.0
1.00137929226,1.01364285227,9.64169275473e-06,-96039463.2217,1.30348349045e-05,0.0,5961697.85995,678.674103248,644.425377495,67288321.8152,1628.06540364,70827075.4358,71045029.3643,4156.72544217,4149.11416364,0.0
1.09226447918,1.04963789791,9.72694925586e-06,-25761435.2837,1.54561532501e-05,0.0,5760008.73446,681.380978057,650.281112248,66840249.9257,1750.01950886,36374808.138,69353982.7702,4533.98985308,4525.21783046,0.0
1.15938210074,1.18616550324,1.01891030034e-05,-2385393.7097,1.79355777211e-05,0.0,5508524.88238,685.063614302,654.585788239,66095540.4733,1833.82582601,48521531.2768,67991505.1287,4812.59510017,4802.2633643,0.0
1.06267662411,0.983834022357,9.94304990651e-06,-37943478.4919,1.45914447491e-05,0.0,5819246.14771,679.498158217,648.315820379,66982311.7816,1710.96280354,34691368.7194,70045528.3068,4411.17066668,4402.76786759,0.0
1.09559097063,1.00400836779,1.02122485281e-05,-23570428.2567,1.68157841946e-05,0.0,5729145.48677,681.278351155,650.516096961,66737227.7789,1754.57997474,36879725.3883,68946176.7917,4547.79811909,4539.07119028,0.0
1.13416883169,0.906026861834,1.02498619716e-05,-11088143.2842,2.18555921254e-05,0.0,5611595.99982,683.577917566,652.965045186,66417252.485,1804.89055517,43640721.9728,67756547.0885,4707.93482035,4698.8130112,0.0
1.21462070903,1.21831320238,9.89457476819e-06,11784751.5911,2.07137841308e-05,0.0,13053531.6375,688.540038042,657.998093177,65423142.0163,1899.58083848,57477061.1676,66484811.451,5041.89056318,5030.36052085,0.0
1.06732922136,0.876928322608,9.87519068075e-06,-36025952.9601,1.59526698331e-05,0.0,5803713.46136,679.842627616,648.617187695,66941919.7035,1717.15735018,34665809.7165,70150728.7713,4430.48359787,4422.00677733,0.0
1.17342768564,0.859866250132,1.00895173652e-05,1778862.08479,2.4360075475e-05,0.0,5365651.17735,686.227097887,655.422753441,65626823.3405,1849.45318392,50760005.514,66636435.4685,4870.89832309,4859.57687409,0.0
1.17003073937,0.811657576412,1.01540350139e-05,1155795.81177,2.48362991346e-05,0.0,5387788.93301,685.997327963,655.228943909,65701838.8566,1845.84748017,50335914.797,67322692.9318,4856.79759912,4845.74522149,0.0
0.969375534134,0.924437251743,9.73747883994e-06,-94379643.5483,1.44234481111e-05,0.0,6050820.4094,683.99501541,642.380419434,67538979.9945,1617.78639422,69365965.2216,69596733.8511,4023.87784219,4017.3023943,0.0
1.10944389716,0.937569941095,9.90199129803e-06,-17779825.4046,1.81516104669e-05,0.0,5640949.51138,682.355456965,651.371426062,66471341.1824,1769.87307944,39765941.4066,68959438.69,4605.30161711,4595.38364987,0.0
1.17077339432,1.0225037398,1.00455811695e-05,1377874.89684,2.10077370849e-05,0.0,5416680.76803,685.943248938,655.274474174,65792075.8844,1846.32804124,50588309.5288,67493547.6241,4859.88035982,4848.81564023,0.0
1.11385467382,1.04769759813,1.00244906326e-05,-16291207.3798,1.72375924347e-05,0.0,5629807.58679,682.430725036,651.608075069,66433017.8321,1775.42752762,40673378.1973,69274654.5863,4623.61075103,4613.61660603,0.0
1.10931815167,0.96493703588,1.03409917187e-05,-16926829.5059,1.81177803845e-05,0.0,5652818.0697,681.97432522,651.350409245,66512485.4957,1770.69648671,40196475.3214,69067719.8124,4604.77964758,4595.35092979,0.0
1.03891842278,1.05679927455,1.02023548236e-05,-52363068.9683,1.32052286574e-05,0.0,5846363.54723,678.184219196,646.802484805,67037470.5058,1678.52457921,38541844.5302,70919144.4064,4312.55037296,4304.12024657,0.0
0.991603174932,0.746578031992,9.75225740006e-06,-95300824.0401,1.59388064748e-05,0.0,5977403.88299,680.482400039,643.805832925,67342902.9042,1619.74632891,70177005.7365,70421115.5744,4116.14477914,4109.00666595,0.0
0.996106609859,0.872281776283,1.0110525219e-05,-95362814.8452,1.47957474306e-05,0.0,5907716.03564,678.789102301,644.076853954,67134962.6502,1619.94151937,70231897.5977,70595343.9525,4134.83853752,4126.67399489,0.0
1.13691210092,0.946813371569,9.91621127548e-06,-11766612.9199,2.09482529384e-05,0.0,5529069.36896,684.095985355,653.111466264,66156665.0946,1805.2986044,43363079.3439,67559733.9391,4719.32213092,4708.78982284,0.0
1.11784075646,0.773413591602,9.8472200381e-06,-15314866.8596,2.10719424498e-05,0.0,5600558.39644,682.925795187,651.844458312,66360499.8264,1780.98652034,41168239.9992,69159349.9665,4640.15698007,4630.09457788,0.0
1.13965861517,0.778821386558,1.0144751563e-05,-9485276.73312,2.39104182156e-05,0.0,5551087.20677,684.078099349,653.279602419,66233237.3883,1810.66015062,44629856.6918,67995142.632,4730.72291157,4720.96439006,0.0
1.18963858211,1.0092297479,9.98839351399e-06,5918367.25485,2.23857357083e-05,0.0,7455676.82682,687.12061439,656.447282014,65638439.4476,1869.82340955,53266798.4374,66815359.3063,4938.18975434,4927.01348646,0.0
1.12955047243,0.851875880185,1.02639976338e-05,-11690187.2089,2.15932629296e-05,0.0,5571925.35881,683.266216486,652.563719534,66272753.8609,1796.82394637,43190433.7997,67371937.686,4688.76401106,4678.89607095,0.0
0.976606780702,0.934802184595,9.89352128921e-06,-94820144.4268,1.41613073074e-05,0.0,6030128.0956,681.92799278,642.845543857,67480913.6492,1614.15173756,69753699.823,69990453.3401,4053.89474669,4047.22569478,0.0
1.17028767384,0.945788705532,9.80487956768e-06,863753.095563,2.19418943329e-05,0.0,5430798.61658,686.105460738,655.256955508,65853186.928,1846.32203631,50502027.846,67668389.3254,4857.86413411,4846.91216243,0.0
1.13046769238,1.04843002484,9.99829687145e-06,-11809924.4734,1.85405202066e-05,0.0,5598673.93227,683.369798486,652.623121557,66368119.6002,1797.67644956,43363886.9898,67471599.6007,4692.57139107,4682.6883317,0.0
1.28214030507,0.931363625975,1.00043373701e-05,25328000.907,3.28081700239e-05,0.0,27014109.8281,692.955970076,662.201223836,64230325.1482,1975.87444787,67683135.3702,68559811.5941,5322.16440635,5309.2034447,0.0
1.17505162339,0.99384946221,1.0020877467e-05,2183698.59795,2.17632580898e-05,0.0,5406266.52486,686.232653142,655.53293305,65771513.0766,1852.06180635,51029983.8213,67007286.2924,4877.63928869,4866.60062398,0.0
1.01330746064,0.911140628607,1.01926557017e-05,-80390845.668,1.45108909768e-05,0.0,5862087.71581,677.628124283,645.157332639,67020731.5526,1642.74630811,57491295.2025,70805321.9252,4206.23926912,4197.71346004,0.0
1.10279026045,0.981953844868,9.98662257392e-06,-21760913.5415,1.74327825781e-05,0.0,5718816.62999,681.897160108,651.004227664,66713224.9002,1764.13774696,37652653.2654,68575355.4742,4577.68237113,4568.84272512,0.0
0.978656829851,0.993242319634,9.58385952599e-06,-94847414.0029,1.38632977341e-05,0.0,6027868.37917,682.729521813,642.975814777,67472528.3929,1618.5971169,69777677.1642,70014704.2926,4062.40450071,4055.45254887,0.0
1.09499769801,0.939186711264,1.0583121085e-05,-22790667.0126,1.76164192369e-05,0.0,5693895.44211,681.058648349,650.489136326,66617666.316,1753.17578389,37073890.4097,68539222.0818,4545.33544444,4536.32477389,0.0
1.05119430287,1.06829663174,1.0177988034e-05,-44659532.9802,1.36080461161e-05,0.0,5858134.427,678.672102806,647.586080688,67099696.5607,1696.73533757,35786213.6543,70484139.7878,4363.50755121,4355.77380667,0.0
1.11442445452,0.87166670026,1.01551375242e-05,-15852611.0581,1.96348614422e-05,0.0,5637110.59084,682.406202937,651.635941749,66469296.3501,1777.43748701,40776540.4397,69356756.6767,4625.97591071,4616.46187389,0.0
1.24883071205,1.00936528735,1.02994109396e-05,19855603.2794,2.87280121601e-05,0.0,21659589.6004,690.639997154,660.138917743,64822473.6933,1938.65411223,64012531.5806,64885663.635,5183.89628572,5171.86282917,0.0
0.980180893075,0.950408592609,1.01058996078e-05,-94792190.6366,1.39330442817e-05,0.0,6000915.44151,681.074739445,643.06996367,67404094.8136,1613.67656383,69729280.0056,69966928.9354,4068.73088715,4061.75712845,0.0
1.07845085175,0.945573064705,9.90277618874e-06,-30579471.5704,1.59507101211e-05,0.0,5789451.56107,680.345166399,649.284907035,66918368.0643,1732.21059462,35401789.0685,69352154.0396,4476.64948561,4468.19078973,0.0
0.945887375671,1.10623200482,9.94553603687e-06,-93386636.7981,1.24966337177e-05,0.0,6109366.74418,686.552769151,640.867735471,67686426.355,1609.92935869,68491725.557,68709123.415,3926.37849641,3920.20403283,0.0
1.14907380226,0.980626023378,9.88993216835e-06,-7709311.42996,2.15889971005e-05,0.0,5584204.94566,684.652965109,653.885461726,66344892.5828,1823.92728073,45741900.9884,68608582.949,4769.80535318,4760.41915844,0.0
1.07790775801,1.07239042823,1.01301403626e-05,-31104128.6287,1.48253163204e-05,0.0,5792309.60392,680.295566998,649.385977637,66929644.7807,1731.99864268,35158116.2151,69284707.1012,4474.3951035,4466.13800032,0.0
0.978539069164,1.02529699543,1.03721109478e-05,-94780663.0615,1.34540045975e-05,0.0,6011117.68062,680.487648128,642.967259618,67440673.1185,1611.12608278,69719281.9434,69954813.3361,4061.9156761,4055.30569965,0.0
1.19148279294,1.25042709941,9.92973161622e-06,5624353.93772,1.88557953863e-05,0.0,7181848.73651,687.176046194,656.556233344,65598626.5734,1870.94014479,53008477.5434,66854106.8327,4945.84507349,4934.18469376,0.0
1.15438991253,1.02151932986,1.01375343396e-05,-5665164.91714,2.16294338569e-05,0.0,5560131.2531,684.710088636,654.160754555,66282552.2396,1830.47786205,46752391.5972,68566000.4809,4791.87252691,4782.40199287,0.0
1.10536741303,1.10277181947,9.55473903919e-06,-21959260.8698,1.57178974688e-05,0.0,5733257.66185,682.290574752,651.173435645,66762953.4802,1767.11247036,37706924.7017,68686336.0331,4588.38013149,4579.39930858,0.0
1.15486630879,0.791121439988,9.82983667374e-06,-5883941.43447,2.53526288241e-05,0.0,5543135.78306,685.200535524,654.287577949,66217766.744,1831.24893864,46781323.0898,68641081.9407,4793.85004779,4784.27651887,0.0
0.999366956341,1.17173968305,1.01824406808e-05,-95571982.3831,1.22130479371e-05,0.0,5914609.19907,678.19977423,644.283324892,67161830.3958,1624.14000641,70416164.4884,70662056.0336,4148.37223577,4140.15516436,0.0
1.18708798629,0.927511640935,9.64271561036e-06,4799153.28495,2.33984107099e-05,0.0,6504158.10105,687.191560461,656.281569843,65765873.6814,1867.85977584,52805811.808,67073427.0924,4927.60223109,4916.6775518,0.0
1.21582504267,0.861733915615,1.02759374712e-05,12812707.6286,2.80308282061e-05,0.0,14048981.3057,688.673044354,658.099162085,65228549.2555,1901.21181553,58195654.2297,66386922.3917,5046.88975212,5035.43256003,0.0
1.02119685251,0.970273314851,1.0414265148e-05,-67747954.7247,1.39698855745e-05,0.0,5860271.67657,677.442718031,645.668161907,67054803.977,1654.46618742,47815669.234,70702257.6669,4238.98813477,4230.75408487,0.0
1.10800044963,0.877078079333,9.60723488131e-06,-19590356.7173,1.86946490215e-05,0.0,5633649.25168,682.55499032,651.296400458,66443798.6009,1767.5191571,39028198.8227,68732150.8111,4599.30986641,4589.13183349,0.0
1.07362123627,0.825200818614,1.00194894356e-05,-31809879.3181,1.71201347722e-05,0.0,5778140.36537,680.027079494,648.956613445,66867680.0693,1725.28134324,35140840.0685,69555846.5001,4456.60175176,4448.02792382,0.0
1.09993208839,1.27426191934,9.74330912084e-06,-21823804.5004,1.34730138227e-05,0.0,5689227.24662,681.782393008,650.787652603,66603309.363,1756.74014704,38016016.314,68756833.4972,4565.81809891,4555.78323546,0.0
1.14845914555,0.848283460402,9.72699743698e-06,-7644212.52214,2.31255853031e-05,0.0,5539263.03788,684.818703384,653.808689682,66198196.5088,1821.56770781,45713827.6403,68559874.0864,4767.25391318,4757.24381681,0.0
1.19633897036,1.05909164476,1.0365298341e-05,8009399.82385,2.25038319532e-05,0.0,9394636.23178,687.287754623,656.88300144,65502303.4166,1877.67943941,54374148.8702,66606920.5234,4966.00306596,4954.81541824,0.0
1.00915930242,0.808310557456,9.71130938963e-06,-87773215.4257,1.48941840261e-05,0.0,5966321.50546,678.134870379,644.930755948,67334483.0435,1640.78443165,63659369.0998,71031171.5,4189.02026435,4181.9817231,0.0
1.16735791099,0.98217900724,1.03470409061e-05,-194223.844382,2.31487071728e-05,0.0,5441357.22077,685.619036829,655.077625769,65859536.011,1844.0249852,49555930.9448,67461968.2324,4845.70268852,4835.2663053,0.0
0.962659938912,0.955877569746,1.02383740494e-05,-93887452.6863,1.40186646472e-05,0.0,6033884.48525,683.734417307,641.941257649,67487667.753,1611.80486948,68932743.3213,69158195.2528,3996.00140642,3989.306995,0.0
1.13390242636,1.08918764659,9.89255798111e-06,-11079968.0976,1.82442244276e-05,0.0,5612546.26336,683.736319822,652.94076854,66412708.924,1802.93446824,43782620.4431,67675196.317,4706.82897182,4697.16650587,0.0
1.10352249518,0.948342841554,9.85426900376e-06,-21900869.2604,1.7792500902e-05,0.0,5720084.46276,682.056805817,651.05426845,66731750.7122,1765.14933239,37676349.7018,68583273.1288,4580.72187749,4571.87002762,0.0
1.14595786815,0.887053851458,1.01006666267e-05,-8067999.94015,2.30973612019e-05,0.0,5576729.29988,684.375364197,653.692531611,66323519.63,1819.95920379,45433400.6738,68840727.0771,4756.87111069,4747.53669946,0.0
1.13650300441,0.716196089742,9.99737962994e-06,-10655639.5746,2.50344867208e-05,0.0,5598563.55916,683.997062174,653.115202995,66372416.5107,1808.2003262,43894749.1291,67796790.6423,4717.62397131,4708.43867408,0.0
1.1105167917,0.863142214517,1.00338836375e-05,-17323694.4686,1.9360581893e-05,0.0,5674607.77828,682.299636561,651.448452876,66576226.0534,1773.32924978,40103621.6269,69043499.2632,4609.75520235,4600.60193198,0.0
1.0865714519,0.967150955653,1.0462489898e-05,-25992932.7494,1.67995159959e-05,0.0,5745805.63656,680.57987559,649.921429628,66785352.2078,1743.15032962,36129944.6304,69100457.1026,4510.35809684,4501.87066275,0.0
1.10502309421,1.26010562853,1.01857580745e-05,-20907529.6886,1.45206579998e-05,0.0,5719667.59348,681.765224435,651.131042875,66726245.5446,1766.64699167,38059439.3466,68759922.7281,4586.95086407,4578.07605145,0.0
1.15235569312,1.03012296224,9.85412669881e-06,-7581910.89381,2.09830594366e-05,0.0,5475913.08167,685.023200815,654.083417779,66009286.4127,1824.35026851,45514573.9815,68434809.704,4783.42848214,4772.51933721,0.0
0.969303143148,1.00724345947,1.00091263664e-05,-94247482.6288,1.3775331067e-05,0.0,5997663.67903,683.132002743,642.361570178,67369207.5698,1611.91084823,69249732.6312,69480148.4684,4023.57734721,4016.15090696,0.0
1.20929592814,1.02730154876,1.05666588694e-05,11297726.5995,2.46080828106e-05,0.0,12544247.0999,688.002309041,657.649931141,65196624.5627,1891.95872734,56905427.5049,66194165.9805,5019.78739771,5008.007148,0.0
1.22762951302,1.25932512404,1.04667008564e-05,14997739.6161,2.22299487668e-05,0.0,16516292.1647,689.118112222,658.840620776,64994504.9433,1912.16480306,60053923.5161,66641782.9346,5095.89010855,5083.54242036,0.0
1.18458491442,0.739731696704,9.67374036633e-06,4377949.10847,2.73323201162e-05,0.0,6218691.61752,687.17697813,656.128313369,65702438.1489,1865.06840489,52514353.8196,66995876.4546,4917.21197976,4906.31784058,0.0
1.15159467848,1.15448070087,1.00137570697e-05,-6724553.48639,1.9128160762e-05,0.0,5583641.3481,684.676626943,654.080634321,66345911.901,1826.79935502,46357120.6798,68768146.8181,4780.26951037,4770.81613395,0.0
1.19924629931,1.00396737939,1.03729453688e-05,8940616.25913,2.38161333587e-05,0.0,10290354.0006,687.471898574,657.056970732,65467226.8318,1881.40024987,55149152.1181,66741617.2056,4978.07138844,4966.93757083,0.0
1.27062336139,0.870852850091,9.79526370474e-06,23200331.9178,3.21729779805e-05,0.0,25150242.9783,692.470021665,661.53527304,64365356.8095,1962.96240287,66343486.7182,67306207.0537,5274.35757313,5261.42691516,0.0
1.11459160171,1.1040433976,1.00838005999e-05,-16329206.9477,1.64844963629e-05,0.0,5611428.74236,682.402188193,651.632900959,66381210.9502,1775.53545184,40449729.1887,69294111.9694,4626.6697387,4616.39225412,0.0
1.02495393877,0.973520507416,1.00073284045e-05,-65644490.0367,1.3758829107e-05,0.0,5921641.30827,677.812651631,645.924586971,67251936.0079,1661.96009603,46383621.8888,70938796.5953,4254.58379983,4247.32126087,0.0
1.17822913783,0.995168195927,9.8419801276e-06,2646568.85306,2.17586203941e-05,0.0,5403421.06358,686.534459472,655.732197493,65763071.7705,1856.11382539,51376089.5887,66984032.9553,4890.82915113,4879.73354919,0.0
1.09175489513,1.29102981948,9.66625411716e-06,-26198777.2957,1.28748211087e-05,0.0,5758495.07821,681.334544357,650.253863143,66825655.6655,1748.21912767,36222520.0599,69241737.6332,4531.87456968,4522.72347673,0.0
1.01507448122,1.25703394224,1.01696848157e-05,-78828706.6689,1.14433149597e-05,0.0,5880228.82921,677.520422943,645.280136921,67088349.1732,1644.85876367,56239489.473,70682057.6936,4213.57417154,4205.01929435,0.0
1.18706778211,0.970671570972,9.82453553438e-06,5045873.16294,2.28289693148e-05,0.0,6725681.07255,687.056492046,656.275476309,65731313.479,1867.53755021,52912188.8803,67040343.4686,4927.51836354,4916.57374343,0.0
1.13675555421,1.00822720893,9.92455395359e-06,-11814801.234,2.00163203928e-05,0.0,5535710.26304,684.042558611,653.101679821,66176918.5591,1805.01817249,43334990.9773,67570072.6679,4718.67230553,4708.14277627,0.0
1.09499462837,1.03972245093,1.02149045446e-05,-23776035.3823,1.62770920326e-05,0.0,5732882.57305,681.215830683,650.469238012,66750210.3847,1753.75939613,36806364.1322,68960011.6787,4545.32270236,4536.6058933,0.0
1.03097920306,1.06015703736,9.86474007798e-06,-60259298.0492,1.30854793672e-05,0.0,5916885.65229,678.109586609,646.319930591,67247206.7109,1669.92611329,42934873.6896,70999263.924,4279.5946719,4272.24589613,0.0
1.11181465482,0.897089248048,9.71669659903e-06,-19604783.2471,1.89771426287e-05,0.0,5690754.32336,682.627046045,651.550090181,66648405.7598,1775.56376467,38837525.9502,68954438.3387,4615.14263216,4606.05865166,0.0
1.11020293297,1.09936583339,1.00025713362e-05,-16354368.7349,1.60617977004e-05,0.0,5700014.44291,682.147431752,651.426381436,66660060.4255,1772.45642087,40635052.8983,69223691.4934,4608.45237476,4599.32505567,0.0
1.07286412331,1.05775902994,9.9387041562e-06,-33382700.6993,1.43074085384e-05,0.0,5798917.20831,679.989767553,648.938406453,66928449.2168,1724.27627052,34927863.7055,69744961.4113,4453.45897586,4444.89676761,0.0
1.16348016849,1.06365021992,1.01909758222e-05,-338079.424434,1.96507533926e-05,0.0,5446239.69635,685.383967698,654.823283453,65875224.9563,1837.2905148,49619394.4636,67563934.9839,4829.6061794,4818.69339253,0.0
1.19079668956,0.816471816074,9.9988637378e-06,5770847.75997,2.65999271697e-05,0.0,7313877.4324,687.409671637,656.508901593,65424841.3113,1870.75835923,53014303.7809,66644636.5084,4942.99705836,4931.36922292,0.0
1.18962986795,1.19252438452,1.01784128981e-05,6049558.04043,1.97582823137e-05,0.0,7574276.51567,686.889343247,656.464821234,65713888.8484,1870.3400914,53272634.7215,66879998.378,4938.15358186,4927.2998175,0.0
1.15381225922,0.907254108345,9.93116848504e-06,-5819962.03162,2.28425131233e-05,0.0,5514957.09407,685.05303193,654.205047862,66133811.9108,1828.07491538,46617311.224,68560173.6738,4789.47468802,4779.37395132,0.0
0.972634041469,0.729524878687,9.91790837566e-06,-94356646.3541,1.60253583853e-05,0.0,6010787.13753,683.241755973,642.584238017,67422388.5499,1616.75961239,69345747.0483,69577994.6394,4037.40390614,4030.48959775,0.0
1.12089329738,0.935581114814,1.00129599844e-05,-14466941.9711,1.94566560586e-05,0.0,5647728.01643,682.862065565,652.060875389,66510654.4785,1786.6778844,41573673.9053,68840683.3337,4652.82807742,4643.50757856,0.0
1.13776489281,0.987759125417,9.84772998317e-06,-9391315.64461,2.00717427612e-05,0.0,5591472.12575,684.032420048,653.186290897,66351882.6202,1807.75855352,44963357.1296,68021307.7671,4722.86207005,4713.13866007,0.0
1.01797569511,0.978295044093,9.96530273491e-06,-74599342.6171,1.3586672453e-05,0.0,5941209.50527,677.752645772,645.49066011,67291125.8535,1652.64961202,52913675.4017,71814835.4417,4225.6171104,4218.45390536,0.0
0.991890846115,1.20121279516,9.7848875694e-06,-95392350.5884,1.20476119316e-05,0.0,5998789.48557,680.171448084,643.824113588,67410687.902,1619.2287454,70257557.9026,70501728.2068,4117.33890222,4110.19662884,0.0
1.04303316439,1.14415582741,1.00116705448e-05,-50506887.041,1.2726587233e-05,0.0,5842388.02669,678.470945809,647.036151149,67028722.3405,1683.54650863,37720630.2133,70987027.7884,4329.63066538,4321.04782896,0.0
1.01918248087,0.841066949973,9.5653298435e-06,-75736720.3498,1.48484338167e-05,0.0,5937902.92699,678.215278722,645.567751275,67274880.9213,1653.63397038,53820242.1856,70973506.57,4230.62647809,4223.26836856,0.0
0.984258662528,1.06504972543,9.94415545157e-06,-94980738.9345,1.29158035699e-05,0.0,5951588.0865,680.611419976,643.318254959,67248914.6481,1611.44962749,69895374.4906,70137558.4571,4085.65770815,4077.60403566,0.0
1.16040640409,0.993569422831,9.93258268576e-06,-2817940.50796,2.05538648499e-05,0.0,5462090.89041,685.446538761,654.643959206,65954397.9068,1834.13699445,48177222.8977,67748611.8241,4816.84698338,4805.9916233,0.0
1.09650714626,1.11249648184,1.00465328112e-05,-23783389.6519,1.53657388352e-05,0.0,5741602.87048,681.388969771,650.569216688,66789332.3073,1755.69463911,36862696.1507,69066248.3364,4551.60116413,4542.85984129,0.0
1.29044523815,0.887478672878,9.67454532143e-06,26403271.9799,3.38432181847e-05,0.0,28040723.5793,693.596011387,662.655756981,64126941.53,1985.76337024,68263783.4607,69159103.3357,5356.63818356,5343.48779516,0.0
1.14794911684,0.74283745292,9.83894888414e-06,-8048085.64548,2.57498303103e-05,0.0,5568727.37378,684.716843328,653.78783971,66295067.2073,1822.79149417,45505908.4365,68455923.4428,4765.136784,4755.76881837,0.0
1.12667133293,0.791928385543,9.92945505799e-06,-12880584.2319,2.14867692307e-05,0.0,5593427.14121,683.395609504,652.442275688,66341911.0752,1793.22777401,42631298.0995,67242041.4875,4676.81270299,4667.01149788,0.0
1.22736546769,0.814501830858,9.58674717463e-06,14205347.1579,2.89747481885e-05,0.0,15631066.3135,689.872261229,658.841225776,65106513.3402,1915.10778806,59429152.9563,66573893.904,5094.79405638,5082.88463484,0.0
1.08536497728,0.800851631202,1.00823080856e-05,-27348086.7114,1.83612720616e-05,0.0,5749168.29944,680.876387247,649.871990856,66796164.0201,1741.392417,35895717.9285,69248312.4093,4505.35002069,4496.78292607,0.0
1.07916239511,0.925333295191,1.02186469339e-05,-29109708.5954,1.64296483007e-05,0.0,5757460.67439,680.37731159,649.473892476,66817769.2341,1732.47718349,35452358.4419,69217842.4917,4479.6031021,4470.94190631,0.0
1.11179115186,0.738223234514,9.98133688556e-06,-16811227.794,2.11991283077e-05,0.0,5622770.45634,682.529152435,651.509430162,66407665.3258,1773.61439228,40197469.2419,69054179.881,4615.04507137,4605.27954451,0.0
1.12009798501,0.868768559343,1.02328909605e-05,-14493851.0211,2.02337006137e-05,0.0,5611360.4758,682.73747642,652.010762864,66381087.1928,1784.88764007,41525509.5205,68444473.3023,4649.52673578,4639.91780393,0.0
1.13133959267,0.966004692555,1.01932224221e-05,-11440018.7903,2.00497952494e-05,0.0,5579145.55386,683.366192951,652.685461279,66296070.8392,1799.01235886,43396108.2857,67507125.7135,4696.19064917,4686.292402,0.0
1.22317263716,0.852016122933,1.02802468159e-05,13939769.4742,2.89658873111e-05,0.0,15217698.8699,689.204398293,658.560083677,65015444.6811,1909.09669456,59169362.3167,66461345.1845,5077.38961685,5065.48021659,0.0
0.957803389753,0.796250001891,9.81611993524e-06,-93840463.9095,1.53627126773e-05,0.0,6071795.07257,685.541906578,641.635810543,67590101.0018,1615.28353829,68891394.2972,69114912.1353,3975.84187086,3969.50527368,0.0
1.12817481365,1.01615648578,1.00256881776e-05,-12305329.7022,1.88599858914e-05,0.0,5602354.54898,683.224134871,652.467908592,66376589.588,1794.7840466,43022496.2077,67310133.5058,4683.05365146,4673.20940536,0.0
1.01702579386,0.957305528829,1.02411965212e-05,-75911502.1597,1.41655265517e-05,0.0,5853907.97936,677.590401493,645.402217725,67018083.4005,1647.70088648,53918424.8681,70533805.2112,4221.67407031,4213.08704729,0.0
0.991136471236,0.927374368501,1.02382416968e-05,-95144413.1831,1.42482935773e-05,0.0,5918278.88404,679.040827367,643.757154118,67161323.8611,1613.39569319,70039560.4382,70288883.4283,4114.2074921,4106.12276282,0.0
1.21998830101,0.943338430689,1.0043270241e-05,13047183.0221,2.63248314327e-05,0.0,14286507.1149,689.067966816,658.351628444,65094338.2224,1904.88779566,58398924.262,66408903.7897,5064.17143749,5052.0990764,0.0
1.12018664485,1.05627872646,1.01057957217e-05,-14288239.1501,1.7649031851e-05,0.0,5630123.35699,682.717976811,652.004224286,66450298.0447,1784.44981446,41765968.5567,68587180.8016,4649.89476277,4640.18434738,0.0
1.18399826219,1.22716489341,1.02900448449e-05,4917267.71404,1.90221614386e-05,0.0,6521866.27061,686.423532249,656.079432287,65774014.0166,1863.32830973,52563727.3753,67022582.1087,4914.77678635,4904.00773602,0.0
1.19293498829,1.02215404793,9.98404759967e-06,6148252.84022,2.26218580715e-05,0.0,7670579.70756,687.408177934,656.667819191,65480978.9373,1872.94164631,53255729.1933,66667402.9848,4951.87313639,4940.18586405,0.0
1.12796648166,1.32444492988,1.00342717372e-05,-11834232.9673,1.53156884589e-05,0.0,5675862.2602,683.096339493,652.556673753,66611529.7205,1796.28498014,43330350.3855,68048212.6774,4682.18886537,4673.18624594,0.0
1.05182936649,1.08312735383,1.00268410936e-05,-44077063.685,1.34262534882e-05,0.0,5819102.20574,678.872124328,647.614142219,66968547.4593,1695.00625755,35576277.4404,70555638.2611,4366.1437003,4357.38639653,0.0
1.0911350525,0.955093627496,1.00943370677e-05,-25417845.0134,1.69193916645e-05,0.0,5743082.65237,681.080338614,650.190554186,66786654.2786,1748.80456348,36365241.1112,69166095.8187,4529.30160293,4520.64529426,0.0
1.11107205158,0.954694926942,9.89599239865e-06,-17330630.1342,1.81003562338e-05,0.0,5637200.66171,682.44225259,651.46754916,66462818.1033,1771.97153397,40103678.7762,69053702.4019,4612.06008611,4602.1149138,0.0
1.11737188872,1.03983040355,9.67952563125e-06,-17889230.7207,1.7492567123e-05,0.0,5687893.30106,682.878360124,651.87174797,66647348.605,1782.74671846,39896387.8907,69275432.2213,4638.21071008,4629.03731651,0.0
1.07850199378,0.832924473659,9.73707066941e-06,-31121126.7199,1.71638235715e-05,0.0,5788763.55303,680.510575988,649.288733593,66913179.6028,1732.36446784,35309336.3815,69443764.7922,4476.86177618,4468.40121117,0.0
1.16501199427,0.812966399643,1.00761818857e-05,68750.1066191,2.43469612924e-05,0.0,5411119.04219,685.732009323,654.918875604,65768376.5791,1839.52299208,49923844.5316,67587485.042,4835.96478821,4825.00352758,0.0
1.02390933204,0.774601807726,9.83153908347e-06,-68629608.0414,1.5443304741e-05,0.0,5922527.14061,678.03423214,645.869504815,67249291.6876,1660.63894792,48474143.5129,70959932.4663,4250.2476373,4243.0000052,0.0
1.10787971889,0.915936170714,9.69872133297e-06,-19180229.7491,1.7996976035e-05,0.0,5684440.47198,682.398663475,651.305320747,66608023.5915,1769.25289068,39252238.8234,68790455.0359,4598.80871311,4589.40277476,0.0
1.02488709757,0.928076177303,1.06687825042e-05,-62463486.4197,1.43453640594e-05,0.0,5840182.28528,677.299061568,645.90290577,67001729.4605,1659.48109816,44182905.2251,70681258.5045,4254.30634201,4246.0135887,0.0
1.04169732437,1.060681454,1.01256283358e-05,-50793366.878,1.34500360512e-05,0.0,5836152.08314,678.343195579,646.946691137,67009352.8569,1681.85446742,37883609.9175,70895452.8849,4324.08559346,4315.52432549,0.0
1.03482152635,0.842212334077,1.01669436221e-05,-55366545.7986,1.51679512475e-05,0.0,5835180.00021,678.132592937,646.540038562,66995503.6181,1672.67636982,40026014.9109,70937720.4282,4295.54415588,4287.00504905,0.0
1.15633512201,0.970459133,9.85662051587e-06,-5496412.62172,2.22129226293e-05,0.0,5553982.51875,685.171174402,654.377367033,66253399.7091,1832.88289835,47000157.6166,68628566.407,4799.94709146,4790.34971128,0.0
1.13760048086,0.818033304496,9.98305700836e-06,-8892317.45919,2.27430944922e-05,0.0,5540730.61707,684.063589418,653.162676434,66191186.0827,1806.58973094,45126200.1627,67988721.5774,4722.17959605,4712.05124506,0.0
1.1287574618,0.868615904372,1.03163690687e-05,-11808708.0189,2.13114244614e-05,0.0,5573781.76188,683.169549879,652.510124636,66278141.3868,1795.77382249,43133133.7262,67334870.2755,4685.47222393,4675.61770535,0.0
1.20341399339,0.642798516627,9.9549357437e-06,9522513.39765,3.28501039511e-05,0.0,10884078.6257,688.402458553,657.290618509,65119547.97,1886.04102351,55584191.3928,66621736.501,4995.37148656,4983.50401441,0.0
1.22858141638,1.06166973028,1.04145202488e-05,15313962.3224,2.55848827913e-05,0.0,16809564.3264,689.265438637,658.925069095,65137287.2842,1915.8744972,60360115.912,66734230.6858,5099.84145939,5088.28652263,0.0
1.05344717074,1.05913750429,9.99237868629e-06,-42170412.5513,1.35438946843e-05,0.0,5833584.06713,678.944461435,647.712025259,67011192.5004,1698.01086864,35200718.4669,70627249.931,4372.85920574,4364.41757676,0.0
1.14440156196,0.885102435679,1.00160466894e-05,-8243171.05312,2.22907801284e-05,0.0,5529377.95041,684.369785112,653.534092046,66157778.2701,1815.79571752,45288871.4416,68352304.9223,4750.4108837,4740.26524441,0.0
1.04633685699,0.698012230527,9.89705956217e-06,-47515704.307,1.69498498837e-05,0.0,5812656.80768,678.873286186,647.271177232,66934568.5329,1687.95339754,36620190.0631,70578302.4428,4343.34429337,4334.67634415,0.0
1.17689060609,0.959957060111,9.76317767637e-06,2430770.16785,2.21465752764e-05,0.0,5409449.45894,686.513011477,655.652619506,65778830.417,1854.47459664,51372871.2774,67033861.61,4885.27290588,4874.21602237,0.0
1.17297594388,0.798093750453,9.86968284112e-06,1493684.54543,2.51897513816e-05,0.0,5379249.79731,686.370905474,655.409110248,65689672.1337,1849.38907327,50662662.1114,67185320.2926,4869.02314305,4857.81316703,0.0
1.18050738246,1.10869201599,9.94957741891e-06,3280849.53073,2.00702666875e-05,0.0,5402658.99401,686.526183637,655.865632212,65766055.224,1858.62347994,51699566.7211,67041132.5872,4900.28614459,4889.14964906,0.0
0.988487146955,1.06316070007,9.84922038297e-06,-95211224.5312,1.31655426899e-05,0.0,5996399.7776,680.54475181,643.605355149,67401168.7838,1617.97213475,70098276.0222,70340217.103,4103.21014701,4096.1170309,0.0
1.11892349676,0.959810682655,1.00589806394e-05,-14793236.2144,1.89374812488e-05,0.0,5602076.08155,682.760711998,651.912783244,66357014.998,1782.05091277,41373067.6964,68606171.6137,4644.65143505,4634.56946407,0.0
1.16023378868,0.826460512623,9.83695193238e-06,-2930232.23185,2.3304815743e-05,0.0,5445915.33096,685.613479133,654.634410669,65901054.4516,1834.1739754,48184344.4641,67751049.9139,4816.13045681,4805.25249816,0.0
1.12150541435,0.973759406784,1.02128764635e-05,-13708411.4716,1.90493326626e-05,0.0,5610051.13222,682.792754611,652.101621654,66393220.1812,1786.22359443,42102256.3222,68083120.4091,4655.36897497,4645.6372811,0.0
1.06451572566,0.957785570886,1.0243877301e-05,-36258076.4816,1.52147674415e-05,0.0,5804835.86676,679.386079526,648.436446516,66940043.6087,1713.73888376,34630210.0983,70044906.0006,4418.80477721,4410.46551902,0.0
1.16578894206,0.753162167592,1.0026075692e-05,523187.129202,2.55177121539e-05,0.0,5437397.58996,685.796836731,654.981879066,65852449.0177,1841.58681361,50256270.751,67667329.0415,4839.18989849,4828.63336698,0.0
1.18725318212,0.745386605804,9.99911900182e-06,5299966.19566,2.80020899647e-05,0.0,6880278.36659,687.233298876,656.271580048,65427730.0533,1866.48666365,52757448.9766,66718864.7757,4928.28795898,4916.72713788,0.0
1.10664180308,0.970440861836,1.02429043482e-05,-18145850.0909,1.78702164816e-05,0.0,5670320.26597,681.898284214,651.20559142,66566615.8853,1767.4345675,39606351.3631,68876169.7353,4593.67012459,4584.38217667,0.0
1.00250649655,1.14342257228,9.88716377508e-06,-95785378.8779,1.21721049293e-05,0.0,5987380.58851,678.184383823,644.504899344,67394076.6042,1631.49923329,70605769.2759,70898849.9479,4161.40446718,4154.45942392,0.0
1.1505333205,0.964476219155,1.01420649634e-05,-6718655.91769,2.22807178259e-05,0.0,5564911.09846,684.631378181,654.010737318,66293834.3603,1825.65791411,46194033.3347,68670926.4749,4775.8638134,4766.45440426,0.0
1.15229259039,0.827146258146,9.76148662386e-06,-5401869.07166,2.38638229331e-05,0.0,5530156.95522,685.07207657,654.116593095,66183192.4049,1826.47888552,47266042.0592,68718611.4052,4783.16654271,4773.21330642,0.0
1.07353194591,0.937183281336,9.51414099382e-06,-34037782.8878,1.54944974473e-05,0.0,5817341.54054,680.396331378,649.010994626,66986851.9227,1725.75886636,34832021.7623,70129841.5249,4456.23110747,4447.84854094,0.0
1.08658452215,0.882239315834,9.9051471919e-06,-27498647.589,1.72620050729e-05,0.0,5758906.88677,681.043218583,649.953450788,66825394.075,1742.9186665,35944005.3887,69327729.2139,4510.41235144,4501.82715255,0.0
1.13146866631,0.926494898757,1.00671003375e-05,-11633897.1289,2.04852563004e-05,0.0,5581320.51316,683.474117943,652.690548899,66300436.0281,1799.25267098,43313272.672,67461711.8482,4696.72643385,4686.82658258,0.0
1.0160596791,0.713372562867,9.96552968716e-06,-76843251.7879,1.56863288266e-05,0.0,5934100.69034,677.796496452,645.363919033,67262456.2628,1650.21745469,54663901.7886,70792601.097,4217.66372794,4210.52769485,0.0
1.14821401604,0.829039834021,1.06052002234e-05,-4379515.923,2.29442518799e-05,0.0,5495606.88852,684.314331879,653.88552294,66018452.6538,1820.04406303,47258537.4327,67850685.2015,4766.23638058,4756.12117202,0.0
1.05575489269,0.96535253946,9.69062205303e-06,-44670447.9194,1.47105452049e-05,0.0,5807328.9091,679.42109643,647.862332017,66935011.1944,1700.06229058,35733415.1179,70446458.6898,4382.43855956,4373.4684248,0.0
0.999462845407,0.827767800637,9.87533519914e-06,-95835467.4472,1.47690173073e-05,0.0,5980157.23645,678.563043654,644.311333188,67367593.3884,1627.59759998,70646434.3751,70849208.7466,4148.77027128,4141.86780116,0.0
1.17611680048,0.972996883377,9.76574172278e-06,2424977.41771,2.18895737991e-05,0.0,5429109.32253,686.433621013,655.611689307,65858175.9531,1853.9439913,51432793.1983,67110682.2978,4882.06083879,4871.21557941,0.0
1.03046080133,0.751626731433,9.99198911135e-06,-61465669.3009,1.59500827861e-05,0.0,5847284.85667,678.186494496,646.267782434,67024094.602,1667.14243777,43587734.7621,70984936.3361,4277.44278632,4269.06071556,0.0
1.11988825189,0.893882557486,1.00454829542e-05,-14615744.0527,1.99393588482e-05,0.0,5646236.53112,682.79654147,651.995051341,66504618.5673,1785.41504568,41460402.0721,68921971.8839,4648.6561336,4639.35197539,0.0
1.13740335876,0.676116044105,1.00359515224e-05,-8888754.49716,2.54330385809e-05,0.0,5520833.50128,684.108778656,653.141255721,66132095.9147,1806.50605753,45139123.3695,67941816.2524,4721.36134221,4711.2363117,0.0
1.12277617177,0.898894160633,1.03614178157e-05,-13775179.3101,2.08840784448e-05,0.0,5643605.90458,682.771697931,652.205097301,66498679.7456,1790.25356579,42079161.5339,68284887.3072,4660.64388902,4651.70157955,0.0
1.03534214586,0.929366143995,1.02001718223e-05,-54678804.8777,1.44275246884e-05,0.0,5837664.64295,678.089583664,646.571369848,67001236.9238,1673.31311234,39671613.2676,71051498.2056,4297.70524746,4289.1577105,0.0
1.12985146045,0.967270210613,1.01849169011e-05,-11800628.9148,1.98831673177e-05,0.0,5582468.24861,683.378850544,652.660993683,66303965.3282,1797.11393048,43171142.1375,67387030.3388,4690.01341233,4680.14037617,0.0
1.1291188908,1.00049188034,1.0164752114e-05,-12044680.8231,1.93276732802e-05,0.0,5591613.91098,683.204295542,652.528983583,66330739.1604,1796.14788146,43049210.4482,67338500.7226,4686.97251571,4677.11188092,0.0
1.10634259043,0.672521720091,1.01722571505e-05,-19730530.999,2.23071229909e-05,0.0,5644960.04744,682.145267303,651.195108422,66492229.1327,1767.6369781,38795273.0424,68631925.0168,4592.42809287,4583.13488548,0.0
1.14379151721,1.00311021019,1.05274798641e-05,-5833433.22807,1.98392544737e-05,0.0,5533323.43064,683.905193496,653.54539176,66129359.5975,1814.31695758,46456489.7141,68089458.7719,4747.87858794,4737.83854367,0.0
1.13068256713,0.905311220064,9.49915294184e-06,-12637129.6521,2.02097279893e-05,0.0,5636852.0547,683.840851868,652.710206555,66494889.8139,1799.47676208,42745356.5036,68122413.3633,4693.46333616,4683.95721507,0.0
1.15023892029,1.02818123241,1.00263736379e-05,-4958995.6152,1.92865222315e-05,0.0,5531288.6684,684.629284671,653.96959824,66148193.8698,1822.4140719,47394665.6664,68241470.1612,4774.64175812,4764.36451724,0.0
1.10209255608,0.88859662368,9.69623514391e-06,-22594051.8017,1.81447955069e-05,0.0,5721118.72184,682.09215802,650.955088958,66722669.5584,1763.00114457,37450253.2935,68884044.0795,4574.78620029,4565.85822872,0.0
0.954651580632,1.09118219585,9.78804471544e-06,-93768722.5369,1.28974575853e-05,0.0,6093526.69603,685.904413252,641.433042485,67652679.066,1614.38815196,68828165.9253,69049938.5232,3962.7587112,3956.46451661,0.0
1.05212541912,0.78954303924,1.016347142e-05,-41429392.5152,1.61849228751e-05,0.0,5814193.62121,678.818453762,647.621077399,66950707.0402,1696.28082363,35026987.2544,70506409.8536,4367.37261477,4358.95221367,0.0
1.22277448187,1.10611979659,1.01618190574e-05,13594299.9151,2.35575887118e-05,0.0,14890756.9007,689.042072541,658.538453277,65180537.3863,1908.38238208,58912646.9492,66580932.4571,5075.73687424,5063.83481438,0.0
1.05310532615,1.11096380961,1.0184983203e-05,-43979191.5392,1.33125705147e-05,0.0,5808450.48073,678.833161476,647.686408003,66944194.2256,1696.78595254,35526667.7938,70347286.2963,4371.44020885,4362.60443436,0.0
1.01245799799,0.936570186513,1.01545154349e-05,-81673801.8848,1.42899792847e-05,0.0,5867001.55419,677.674547227,645.113654084,67033979.6875,1641.58397829,58538848.7293,70640952.378,4202.71314966,4194.20114561,0.0
1.18547465546,1.00301341188,1.0373779453e-05,5813280.96804,2.28882073976e-05,0.0,7312802.06166,686.677192168,656.176927378,65481716.0294,1863.43482406,52957952.8082,66675136.1036,4920.90529481,4909.46888655,0.0
1.18751922185,1.11985254118,9.56288484524e-06,4682702.21028,1.99662937611e-05,0.0,6400918.42884,687.138535341,656.312437024,65842548.1037,1868.20437346,52801936.1753,67168233.7311,4929.3922899,4918.4600183,0.0
1.22752663242,0.917274594862,9.85714416654e-06,14559176.8104,2.71734182614e-05,0.0,15968062.4061,689.630786991,658.850098293,65125904.9083,1914.86070794,59709498.7841,66660842.1145,5095.46305118,5083.63567673,0.0
1.07656205879,0.881499357035,1.03684942828e-05,-29695997.4454,1.69981820403e-05,0.0,5760036.22191,680.132695092,649.300197282,66814444.1135,1729.43028167,35372770.164,69185193.9284,4468.80910604,4460.28267946,0.0
1.0206988417,0.81638312421,1.03274813955e-05,-69425268.5196,1.50972364566e-05,0.0,5908794.81961,677.462491671,645.655362375,67209151.067,1656.19475444,49030451.1835,70689152.9197,4236.9208919,4229.71927598,0.0
1.05867447273,0.700289858453,9.59991397999e-06,-43559243.0496,1.78015987922e-05,0.0,5783334.53782,679.754829644,648.03491289,66865140.0689,1704.14193082,35458541.0912,70281748.21,4394.5577363,4385.53914136,0.0
1.09868549828,1.11639316848,1.03260172068e-05,-20483695.8826,1.54769565157e-05,0.0,5663438.33571,681.375681673,650.715913745,66528470.3576,1755.34034928,38373765.4366,68421470.2304,4560.64350336,4550.81791098,0.0
1.09045565311,0.871296373394,1.01659370853e-05,-25400074.7237,1.7900619049e-05,0.0,5735944.46902,681.027015262,650.147494597,66764793.2869,1747.97610645,36337763.8367,69115907.0841,4526.48141606,4517.8357394,0.0
0.98730925996,0.612103123451,9.54879136226e-06,-95133148.2393,1.73728880942e-05,0.0,5986634.40563,681.746928213,643.531539701,67360367.7075,1621.03085618,70029322.0569,70270741.8787,4098.32073809,4091.24459992,0.0
1.13901188052,0.904287281114,9.99147869615e-06,-10149296.196,2.19908463914e-05,0.0,5607766.60826,684.045977564,653.277222063,66403562.3202,1811.19778166,44245009.3666,67988246.0235,4728.03831604,4718.81475978,0.0
1.14753442078,0.861866764587,1.00060214134e-05,-7400882.83733,2.29873283721e-05,0.0,5518605.86803,684.50265233,653.680024316,66129605.1106,1819.76766915,45753463.974,68546773.8487,4763.41538066,4753.21600613,0.0
1.01580364666,0.989848495069,1.02186545689e-05,-77499523.1484,1.38627969727e-05,0.0,5859792.56172,677.585197573,645.325949155,67030502.2906,1646.03686235,55172151.9348,70547828.5355,4216.60093729,4208.03405351,0.0
1.23754873794,0.794189087422,9.71323846483e-06,16916184.3391,3.08370220587e-05,0.0,18425178.2125,690.394421844,659.450287413,64958453.0353,1926.84915082,61642894.4843,66857400.891,5137.06481119,5125.10680766,0.0
1.19686207469,0.829943102623,9.93722442143e-06,7588106.19662,2.65258314513e-05,0.0,9024942.26572,687.776838043,656.934844342,65472620.4813,1878.85718644,54282394.6349,66563689.4055,4968.17447204,4956.86179266,0.0
1.13843574222,0.875680130814,9.55610323267e-06,-10610574.6966,2.14828393129e-05,0.0,5601489.34703,684.332252449,653.233611722,66384863.6633,1809.40460102,44139143.2681,67828010.4375,4725.64676596,4716.01391694,0.0
1.01566892551,0.934792509935,1.01544852886e-05,-75565315.0835,1.39486346288e-05,0.0,5931596.43179,677.532627013,645.345123831,67254726.5709,1649.23384879,53660603.5734,70724828.211,4216.04170979,4208.82273898,0.0
0.969189729388,0.825663745814,9.87902264715e-06,-94242872.8977,1.5198155719e-05,0.0,6025674.79382,683.784099075,642.362967091,67460121.2868,1616.20209511,69245579.1674,69476206.2981,4023.10656669,4016.2389602,0.0
1.18124864807,1.09677440138,9.92855070804e-06,3414433.59991,2.02872402235e-05,0.0,5441516.21065,686.593225392,655.912858101,65756961.6335,1859.55982656,51776754.6569,67036454.9296,4903.36313814,4892.21332456,0.0
0.979858728249,1.05023307037,1.02024236937e-05,-94707907.2857,1.30996706281e-05,0.0,5955391.34818,680.742275005,643.035777867,67251885.0915,1609.37057358,69655173.7444,69893114.4306,4067.39358096,4059.49123436,0.0
1.0197702661,0.847327835751,9.79461453935e-06,-74055137.9161,1.47267805935e-05,0.0,5938277.35526,677.972252922,645.599187025,67284009.6928,1655.08625649,52501620.203,70893953.0096,4233.06637458,4225.8776799,0.0
0.933229240533,1.14646874889,1.03307068815e-05,-92507994.474,1.20966309749e-05,0.0,6057768.47754,687.59334483,640.030933211,67497366.8852,1601.5198761,67718622.3577,67927710.4277,3873.83457745,3866.65489468,0.0
0.959795218144,0.947118036315,9.88482329506e-06,-93926584.1856,1.42354608489e-05,0.0,6069722.52304,685.037993049,641.763542769,67589622.2594,1615.04955499,68967179.1468,69191377.5219,3984.10995052,3977.74664494,0.0
1.16255856381,1.02987896708,9.90667262053e-06,-979918.372742,2.01103991453e-05,0.0,5457141.93737,685.536440365,654.77216922,65922578.4179,1836.29537195,49438375.1136,67806281.8708,4825.78059838,4814.86327952,0.0
1.08630616731,1.0018089531,1.0110420599e-05,-26997877.5762,1.60285996305e-05,0.0,5759208.67466,680.822637398,649.928854248,66828968.1292,1742.45302106,35969117.6313,69272535.415,4509.2569005,4500.67604359,0.0
1.06236147046,1.03100863639,9.98980399641e-06,-37898880.6156,1.40759075036e-05,0.0,5821476.84141,679.424616109,648.294771591,66989035.1989,1710.51284584,34688067.3592,70040308.0765,4409.86246388,4401.46330081,0.0
1.13045777498,1.19189961263,9.93051991073e-06,-12018456.1212,1.66060537605e-05,0.0,5632105.01037,683.427699779,652.706225393,66470192.3465,1798.43860947,43159396.6209,67507120.4177,4692.53022394,4682.95113849,0.0
1.20087851938,1.09302720723,1.00076237628e-05,9280879.48444,2.18707489802e-05,0.0,10706318.8837,687.717739677,657.168856049,65554623.9187,1883.36529873,55571480.9626,66913030.7562,4984.84673395,4973.68142947,0.0
1.03466502279,1.04790832956,1.03747999931e-05,-54603461.9263,1.35363649595e-05,0.0,5831739.30124,677.858213744,646.515414548,66987565.6695,1671.94211657,39644408.6898,70968744.803,4294.8945096,4286.27162641,0.0
1.08256916549,0.704745914155,1.02462906e-05,-27797083.4359,1.9578651703e-05,0.0,5743245.25377,680.644237301,649.696685725,66776291.1488,1737.78867856,35744319.0777,69167646.9728,4493.74460595,4485.22177245,0.0
1.11219392873,1.03984676702,1.04310963737e-05,-16453818.8274,1.77463184633e-05,0.0,5594922.64767,682.084265876,651.47646643,66318445.2296,1772.67930418,40279795.7964,69006364.7472,4616.71699816,4606.46582522,0.0
0.997898287387,0.764251205358,1.00329666168e-05,-95458539.1603,1.5481960622e-05,0.0,5898494.65185,678.692959911,644.190888991,67105920.6138,1622.23633916,70316326.9732,70657672.5592,4142.27579094,4134.00157899,0.0
1.11761288698,0.986287630993,1.00311487085e-05,-15324001.0135,1.8511757175e-05,0.0,5661516.91626,682.616774045,651.84651301,66547712.3734,1782.3973586,41130171.172,69247306.4997,4639.21109385,4629.94388715,0.0
1.14885854019,0.76536001907,1.00263633153e-05,-7377419.6851,2.56303996304e-05,0.0,5561354.90408,684.554616967,653.791081431,66277596.2259,1823.81184246,45825356.3215,68577380.8407,4768.91180033,4759.53093629,0.0
1.11596919771,1.11028028735,1.02370860544e-05,-15315123.5158,1.67409424841e-05,0.0,5640077.87586,682.333204698,651.729079321,66478050.1956,1778.77205811,41034032.5215,69092150.4304,4632.38813969,4622.74869225,0.0
1.17325969418,1.04814690491,1.01788626615e-05,2183168.99057,2.08495289567e-05,0.0,5419278.22975,685.973816166,655.423398795,65797201.8438,1849.79202365,51022829.3138,67051012.8292,4870.20099054,4859.30095467,0.0
1.04161590391,0.717621448698,1.01559220066e-05,-49914469.0406,1.66179737431e-05,0.0,5812159.11594,678.449598427,646.942147698,66931309.1786,1681.7864331,37506347.5438,70873684.8863,4323.74761713,4315.09960193,0.0
1.09195058602,1.11004920792,9.85621775399e-06,-25906172.6126,1.49314295501e-05,0.0,5762427.91148,681.242395491,650.25725366,66842653.3691,1749.75551249,36332124.6818,69345935.726,4532.68688257,4524.01780444,0.0
1.09120922837,1.15512700409,9.87310744229e-06,-26111536.6477,1.43848450665e-05,0.0,5766545.90837,681.178038821,650.217564326,66855311.5032,1748.75123175,36292665.9348,69358193.3453,4529.60950696,4520.95203718,0.0
1.11022787047,0.94454100187,9.73770470346e-06,-20033582.591,1.82677281365e-05,0.0,5698563.1249,682.504228637,651.45496788,66669354.4216,1773.47168643,38596315.4239,68895116.5487,4608.55589032,4599.4973431,0.0
1.0701279997,1.04687304643,9.84820288612e-06,-34943128.1291,1.42289165518e-05,0.0,5808997.94581,679.945305526,648.798756867,66962562.2254,1720.68817171,34754157.8152,70050695.4293,4442.10132675,4433.58209946,0.0
1.08489902229,0.936462030609,9.79556894626e-06,-28493822.4589,1.64370471528e-05,0.0,5771790.72652,681.011518347,649.856983808,66861678.3651,1740.67782947,35805242.7713,69367323.945,4503.41584153,4494.85692045,0.0
1.01617660651,1.01394398645,1.03033590459e-05,-75143537.1227,1.34005500544e-05,0.0,5930042.42229,677.370127879,645.36749009,67258443.8333,1650.08116942,53329533.9676,70690693.1429,4218.14909362,4211.01168223,0.0
1.07605221023,1.20983790551,1.0216254269e-05,-31579313.7641,1.34074488508e-05,0.0,5801108.76008,680.073373253,649.260705933,66955094.9877,1729.48133096,35066356.1562,69269882.682,4466.69272466,4458.46382073,0.0
1.06909899504,0.836941664754,1.03296460613e-05,-33870262.3556,1.68485973427e-05,0.0,5782500.63449,679.596002957,648.705317014,66882417.293,1719.82181621,34740394.7595,69632128.7276,4437.82992841,4429.41956825,0.0
1.03630469558,1.1506305842,1.01715528008e-05,-54112810.6708,1.24054336658e-05,0.0,5850328.82423,678.053477143,646.620240315,67041856.486,1674.42775437,39405513.3361,71159481.9032,4301.70079135,4293.13902181,0.0
1.08911647392,0.775368418678,9.83658292884e-06,-26831284.5771,1.8837298001e-05,0.0,5746707.6658,681.277876804,650.108882456,66790547.1297,1746.33153747,36090677.0558,69310110.6436,4520.92248324,4512.29774793,0.0
0.953467755996,1.03809407038,9.61515137931e-06,-93747537.4272,1.34789308516e-05,0.0,6100876.49655,686.591184381,641.357726037,67668547.9449,1615.97734761,68809450.6048,69030893.7684,3957.84465514,3951.56635515,0.0
1.03884092096,1.13221936968,1.01980298089e-05,-52476919.047,1.25258032364e-05,0.0,5851176.79537,678.154049789,646.795715797,67051262.5596,1678.3691555,38601129.7944,70924534.6867,4312.22866291,4303.7997743,0.0
1.05910923391,1.00040805481,9.85209746285e-06,-40940180.0475,1.43369891176e-05,0.0,5813642.67217,679.385717226,648.062672829,66959457.8079,1705.33437716,34986371.5642,69715044.174,4396.36242996,4387.66585654,0.0
1.07843293029,0.92653568076,1.00223668197e-05,-30109583.0633,1.62374065986e-05,0.0,5779175.95882,680.45437989,649.414439625,66876878.7002,1732.2017737,35447681.1434,69309583.9744,4476.57509363,4468.11667563,0.0
1.22635995318,1.26979560274,9.56872611334e-06,13637378.0117,2.02894798996e-05,0.0,15099191.7444,689.494938623,658.767261984,65255839.1658,1912.66630262,59023538.6076,66693029.8271,5090.62016565,5078.50509673,0.0
1.04350051116,1.04387680293,9.90447475373e-06,-50889315.2577,1.36395603923e-05,0.0,5839099.81212,678.619459137,647.064728037,67017939.3961,1684.21799893,37919367.6138,70993520.5716,4331.57062183,4322.98023445,0.0
1.10489966837,0.845828165223,9.70412203777e-06,-20367722.0796,1.8895432674e-05,0.0,5637104.16824,682.328737076,651.108837146,66450189.3252,1763.53085186,38660453.5844,68561526.7566,4586.4385234,4576.31595452,0.0
1.10329521967,0.83714943433,9.71782643091e-06,-19347898.804,1.83085855236e-05,0.0,5696597.57589,682.135050149,651.030658162,66628151.0209,1763.24679021,39101710.0028,68643268.3524,4579.77845685,4570.46669383,0.0
1.01932911396,0.730532695446,1.02279729884e-05,-70301330.4413,1.58500965783e-05,0.0,5856737.98628,677.679009241,645.554831893,67032979.3004,1651.92125643,49656858.8115,70839897.4438,4231.23515205,4222.9456689,0.0
1.05276480938,1.11703359025,9.66082428594e-06,-44435796.315,1.27370493793e-05,0.0,5837980.40896,679.186192091,647.685735314,67020745.9376,1696.28042161,35717479.7735,70681821.07,4370.02672374,4361.25247797,0.0
0.982980571219,0.747240502718,9.63300144872e-06,-94972271.7179,1.58682264837e-05,0.0,6002671.31478,682.067812483,643.253261437,67406307.042,1619.19330012,69887910.1791,70127146.6377,4080.35235113,4073.33845813,0.0
1.19219038742,0.864315908358,9.94184613983e-06,6001945.12992,2.55951573565e-05,0.0,7541924.20002,687.509252656,656.615984384,65426622.6617,1872.37729171,53173869.7084,66649498.7339,4948.78229818,4937.11006848,0.0
1.10367779812,0.787110763107,1.05930145155e-05,-18635144.0703,2.04020407905e-05,0.0,5604480.14665,681.654094084,650.999755897,66344531.2313,1762.36424427,39280144.6303,68589135.8066,4581.36654,4571.45476252,0.0
1.07688032117,0.955960159889,9.87550816506e-06,-31349525.0753,1.5718821357e-05,0.0,5795247.99559,680.266794521,649.180178471,66933059.8318,1730.1376702,35223940.3172,69618259.4052,4470.13021318,4461.69585494,0.0
1.01694184349,0.8991841964,1.02288675048e-05,-76104450.8352,1.46699670418e-05,0.0,5851087.69003,677.626413515,645.398006008,67008938.117,1647.62507893,54067375.8687,70589651.9431,4221.32559233,4212.73995329,0.0
1.11745453298,1.02203626087,1.01515848877e-05,-14873888.7612,1.79415031561e-05,0.0,5634176.06783,682.532881715,651.828564173,66459228.8656,1780.96392809,41366614.6995,68961271.0546,4638.5537664,4628.89018309,0.0
1.08373624962,1.06336931117,9.49721511472e-06,-29379552.5313,1.45468405885e-05,0.0,5798257.77205,680.891585814,649.634326174,66941113.8674,1738.81778667,35714924.6504,69504790.5388,4498.58917217,4489.95156434,0.0
1.07678473623,1.10234472705,9.78967668087e-06,-31748577.4161,1.40020147045e-05,0.0,5808731.99855,680.259547305,649.172985928,66972420.2908,1729.89731214,35189589.431,69729216.5816,4469.73344009,4461.30056216,0.0
1.13200765724,0.864445970083,9.51624991358e-06,-12227299.3619,2.09682536554e-05,0.0,5625030.67224,683.950570732,652.808884523,66461729.329,1801.20092707,42966500.1092,67862380.0745,4698.9637852,4689.4359056,0.0
1.18118431946,0.97686528565,1.0143831453e-05,4043007.28708,2.254575854e-05,0.0,5851233.52949,686.519275656,655.889626691,65660625.3896,1859.32213505,52008485.888,66978737.0211,4903.09611008,4891.94916808,0.0
1.09050025281,1.19296603767,1.0037663125e-05,-25858042.3586,1.40524743974e-05,0.0,5763890.56902,680.998641748,650.164220656,66848089.4515,1747.79134884,36284286.4517,69288518.9251,4526.66654941,4518.02017497,0.0
0.925567576752,0.874145360482,1.03231363458e-05,-92162439.8214,1.40318327928e-05,0.0,6062108.28009,688.603461883,639.537596518,67499160.6929,1599.01613961,67414418.1396,67619940.907,3842.0310111,3834.96788198,0.0
1.08622235398,1.22414061551,9.89739014787e-06,-27765678.8951,1.3402301252e-05,0.0,5782854.92409,680.890399331,649.932717162,66898559.057,1742.18468255,35938548.3081,69404130.8022,4508.90899137,4500.32944165,0.0
1.137963235,0.922458990814,1.01805838517e-05,-10032388.1482,2.17186608924e-05,0.0,5597803.3883,683.846389566,653.196845612,66371709.1676,1809.44146389,44271053.8332,67958420.1612,4723.68538848,4714.39780674,0.0
1.01140379718,0.873593932154,1.00299259705e-05,-83960758.2766,1.48490878358e-05,0.0,5870562.90149,677.876282858,645.047527045,67041290.3223,1640.18206348,60439974.4882,70659266.9225,4198.33716209,4189.84262454,0.0
1.17575422624,0.871589662748,9.88248323648e-06,2178700.56924,2.38459038051e-05,0.0,5395539.11115,686.449502721,655.581088973,65735723.5054,1853.23530365,51105790.7765,66974042.8303,4880.55579312,4869.50454844,0.0
1.12054825385,0.864986306702,1.02167992586e-05,-14765773.1928,2.02449984052e-05,0.0,5558443.83444,682.845522862,652.020895388,66213365.9553,1783.59033705,41354523.1634,68203704.9369,4651.39580173,4641.01296556,0.0
1.09178733109,1.20404106601,1.03949673334e-05,-24584628.1249,1.43907867193e-05,0.0,5750236.78429,680.819783888,650.241634464,66805708.7177,1749.79167826,36628274.3217,69024087.3252,4532.00921135,4523.44100901,0.0
1.15365027354,0.922687150971,1.01438811732e-05,-5768543.65592,2.32890485199e-05,0.0,5550301.48417,684.883751209,654.242156284,66250999.4726,1829.64659924,46656921.052,68550330.6706,4788.80228546,4779.34279022,0.0
0.984656812118,1.15344796278,9.79047443466e-06,-95118786.7311,1.21055637528e-05,0.0,6014131.17015,681.00404594,643.359031816,67438327.7645,1616.14349459,70016631.1748,70258073.1488,4087.3104271,4080.18942177,0.0
1.05176384138,0.862687461234,1.04117357504e-05,-42319737.0835,1.55962692503e-05,0.0,5804836.24077,678.629965147,647.596526598,66930801.2089,1695.97587922,35165363.868,70327914.4779,4365.87170557,4357.38494486,0.0
1.1295130434,0.893984575168,1.03365568267e-05,-11587646.9608,2.10404647233e-05,0.0,5569759.36792,683.29932728,652.641799178,66266827.5963,1796.70733087,43251710.4498,67397701.522,4688.60864315,4678.74133669,0.0
1.14323613184,0.763827795644,9.9238390699e-06,-9160829.21216,2.48440737735e-05,0.0,5583556.47487,684.383770635,653.505091646,66336059.9743,1816.74227945,44831988.594,68171269.1821,4745.57318327,4736.28220068,0.0
1.00966801087,0.735886704716,9.64546763853e-06,-87815990.1562,1.55222606628e-05,0.0,5964274.4605,678.243332472,644.964037669,67328302.5038,1641.48456315,63696263.059,71053513.8955,4191.13191312,4184.08758077,0.0
1.17284547112,1.07193830966,1.00025595483e-05,1824563.08313,2.01854839339e-05,0.0,5425565.64567,686.047046025,655.401472997,65826930.9261,1849.11142154,50910891.1545,67084471.7372,4868.48155062,4857.4838957,0.0
1.15298806484,1.12564172877,9.97373927224e-06,-6498774.15282,1.96407980666e-05,0.0,5579350.89304,684.804731828,654.169826405,66337745.288,1828.67845115,46459147.5018,68736795.6677,4786.05345715,4776.60461192,0.0
1.1363019823,0.909650673528,1.03145222243e-05,-10428499.1442,2.20834604829e-05,0.0,5601561.49926,683.661874578,653.096950875,66390575.1156,1807.59061721,43999267.1263,67892422.8902,4716.78952853,4707.63392369,0.0
1.08900659236,0.894714110675,9.68197593071e-06,-26973326.4758,1.69561690961e-05,0.0,5760212.06454,681.324261195,650.103891767,66834872.6718,1745.88635532,36087866.6962,69399484.5794,4520.46636489,4511.74487734,0.0
1.03004676172,0.94967437671,1.02612834539e-05,-60348108.4186,1.43172535022e-05,0.0,5843350.31542,677.842797486,646.233476701,67012759.7688,1666.10367096,42875924.1364,70883297.5923,4275.7241079,4267.26247708,0.0
1.03402859855,1.24539515888,9.76938889402e-06,-60167729.8978,1.17310291631e-05,0.0,5876004.28757,678.32665794,646.494946246,67115911.3007,1671.50741772,42822561.0314,71213723.8061,4292.25271258,4283.81347435,0.0
1.22634555146,0.839088161531,9.7296411909e-06,14185344.064,2.85067099184e-05,0.0,15631549.7332,689.693666824,658.770808378,65107569.6155,1913.62563053,59390473.505,66588760.2761,5090.56038411,5078.69817148,0.0
0.98901504484,0.982503325568,1.02374003031e-05,-95064884.196,1.38178951943e-05,0.0,5926168.95509,679.31770468,643.622800705,67182012.3232,1611.14619366,69969524.7677,70212062.2501,4105.40145113,4097.35089182,0.0
1.05496865252,0.827757629263,1.0279238305e-05,-42513950.1053,1.61324420993e-05,0.0,5790849.84314,678.953563755,647.796703902,66886410.1695,1700.00559353,35148895.3003,70161645.3365,4379.17487661,4370.48802027,0.0
1.21160812086,0.823102514112,1.00199460465e-05,11187323.1976,2.82720984894e-05,0.0,12481876.0441,688.620593931,657.780626697,65150010.7148,1895.45698186,56883912.6725,66318774.0897,5029.38530969,5017.4462747,0.0
1.07281485664,0.713141070571,9.71092965056e-06,-33608467.4494,1.82756980401e-05,0.0,5796640.12096,680.293176301,648.953876453,66926154.0683,1724.9790842,34828455.3652,69981727.2565,4453.25446991,4444.88297805,0.0
1.24191288625,0.779147424765,1.03757657211e-05,18462097.6828,3.34677470731e-05,0.0,20187255.7534,690.380099924,659.709423417,64746518.4511,1930.95062616,62831411.2056,66040895.8365,5155.18039082,5143.15329308,0.0
1.22851020787,0.883549249334,1.00458244823e-05,14981541.4997,2.85428772084e-05,0.0,16372386.8648,689.468198111,658.829855221,65149853.909,1916.58997535,60090434.9247,66700121.1403,5099.54587287,5087.96354857,0.0
1.1295115043,0.884404952618,9.9108687506e-06,-12145444.5864,2.07453760223e-05,0.0,5591240.30629,683.456824681,652.557701189,66343439.7077,1796.66945747,43120470.4971,67327882.9604,4688.60225435,4678.73538847,0.0
1.15494018927,0.805571382507,1.00647476787e-05,-4530546.34236,2.55805468668e-05,0.0,5535857.29081,685.09143366,654.335261309,66187474.8692,1831.17820434,47526971.2427,68517460.6135,4794.15672566,4784.67939824,0.0
1.19936230901,0.7203337524,1.00047735723e-05,8605126.3558,2.97955366913e-05,0.0,10073453.42,687.984780227,657.075100967,65342415.9329,1881.9230726,55055749.2563,66587815.5868,4978.5529447,4967.19242834,0.0
1.05753168552,0.889410845257,9.96838219693e-06,-40253705.6269,1.53077095115e-05,0.0,5824896.63718,679.21179571,647.957917,66990298.7516,1704.17895038,34907239.2847,69787874.7134,4389.81402659,4381.49008361,0.0
1.08825734602,0.923517753838,1.02417888585e-05,-25906852.532,1.71519636753e-05,0.0,5742670.35274,680.845185377,650.025703979,66783618.0415,1745.05451319,36170363.5238,69149744.2349,4517.35624333,4508.74493163,0.0
1.11658159973,0.754676690806,1.01278392764e-05,-15276413.5488,2.16518235619e-05,0.0,5618776.28565,682.628723119,651.770572266,66414739.0396,1780.35286695,41072576.7665,69081980.4146,4634.93022048,4625.37940016,0.0
1.01213657006,0.956054491617,1.0346482911e-05,-79458678.8905,1.38028141195e-05,0.0,5936322.80202,677.273027578,645.098676677,67259202.5472,1644.69347575,56744556.4231,70939844.8433,4201.37890232,4194.29864173,0.0
1.02215345746,0.811660751593,1.03445423195e-05,-69395155.7256,1.53310314097e-05,0.0,5828165.92828,677.599286088,645.728809262,66957197.7301,1654.45223338,48973890.6696,70554453.8187,4242.95900192,4234.20379322,0.0
1.09833404717,0.733997006192,1.02235168614e-05,-22625493.9892,2.06542498148e-05,0.0,5698769.66599,681.586104554,650.713864755,66651211.1702,1758.38979093,37185800.2518,68543349.8505,4559.1846298,4550.41533516,0.0
1.03526525331,0.98048457824,1.02156068719e-05,-54631635.3037,1.39837444371e-05,0.0,5840175.90057,678.053015879,646.565657627,67008495.0759,1673.17767596,39636567.377,71048664.2086,4297.38606649,4288.83977482,0.0
1.14989147234,0.944251641286,1.00913111892e-05,-5555171.0182,2.20782123305e-05,0.0,5539850.22817,684.642183758,653.962447285,66205414.191,1823.36776055,46964701.5056,68683997.3726,4773.19950168,4763.38010334,0.0
1.05442927771,0.829681383254,9.62113111866e-06,-43635257.7837,1.56648185065e-05,0.0,5816477.40103,679.411197281,647.782355355,66957504.9673,1698.70903686,35504752.9005,70638737.3052,4376.93593177,4368.13451048,0.0
1.07090665281,0.865013464878,1.04989292484e-05,-31939752.942,1.67942513336e-05,0.0,5780057.02404,679.674983104,648.908753087,66879013.9888,1722.65976861,34895386.6943,69370233.6367,4445.33351581,4437.08526096,0.0
1.00199813356,1.05461167367,1.05475319226e-05,-89234930.7984,1.31437925587e-05,0.0,5886679.77375,677.330992484,644.446670365,67085896.6929,1627.80984854,64878985.4002,70579650.1955,4159.29425241,4151.03489368,0.0
1.08978321304,0.84475085472,9.63230235766e-06,-26840974.3171,1.76100562518e-05,0.0,5756186.45988,681.428654975,650.153865052,66823117.9221,1746.94773944,36128581.1616,69401254.3146,4523.69011733,4514.95728965,0.0
1.11540854585,0.873366516962,9.99531361768e-06,-15999820.4517,1.96925973835e-05,0.0,5661781.48122,682.558425991,651.711242977,66544157.2703,1779.66286618,40798232.0108,69358722.6392,4630.06087382,4620.82940851,0.0
1.20175071492,0.666917988612,1.04721260426e-05,10098873.3476,3.25304346811e-05,0.0,11422389.5971,687.883195556,657.151401641,65128438.8797,1883.70250278,55866293.0816,66694069.8665,4988.46721763,4976.85552974,0.0
1.07482423025,1.28549569721,1.02519131864e-05,-31965434.2455,1.27237377267e-05,0.0,5806355.31083,679.949699798,649.174892215,66969949.7027,1727.83693425,35001188.7066,69493363.1066,4461.59537977,4453.3851158,0.0
1.17697361365,1.03315882357,9.73517839523e-06,2366589.8191,2.08284980035e-05,0.0,5419697.42967,686.482992014,655.659474412,65828611.2224,1854.49591562,51365137.5496,67069031.4205,4885.61747026,4874.55910061,0.0
1.06195761487,0.97834769925,9.89005127779e-06,-38473752.1332,1.45923939791e-05,0.0,5822708.28246,679.500821827,648.269275719,66990501.9069,1709.99617892,34742555.9912,70007138.7498,4408.18605933,4399.79319661,0.0
1.04307885934,0.903981513969,9.82533676669e-06,-51481341.757,1.49557969781e-05,0.0,5810860.30915,678.709553663,647.053218533,66930861.2692,1682.05834312,38222847.5693,70915621.8533,4329.82034512,4320.71405823,0.0
1.13402009424,0.74524281099,9.71544157757e-06,-11313369.6496,2.34064234394e-05,0.0,5588597.46106,684.041606541,652.944759897,66351140.521,1803.53156435,43676437.5115,67549364.8604,4707.31741119,4697.6529926,0.0
1.18364262175,1.02794573851,9.87518211138e-06,4152743.96776,2.14344491951e-05,0.0,5954997.95502,686.802584172,656.04800696,65688141.4896,1862.20736031,52229526.9245,67014385.3578,4913.30052288,4902.01658304,0.0
1.13411298566,1.0123102458,1.01319421123e-05,-11359405.4935,2.01014887807e-05,0.0,5625755.22334,683.601773015,652.962348191,66457361.939,1804.76538256,43521784.7339,67744839.6869,4707.70300347,4698.58207842,0.0
1.17164889437,0.755394225817,9.98497527675e-06,1401305.78966,2.61623009241e-05,0.0,5415047.18345,686.199327786,655.344957159,65790021.2189,1849.11010021,50635922.893,67476174.979,4863.51456053,4852.85235124,0.0
1.02412795881,1.01722292751,9.95410415853e-06,-67192647.3261,1.33493874879e-05,0.0,5928169.41306,677.837725023,645.877407406,67269514.5549,1660.82521654,47461162.1118,70972081.6079,4251.15515702,4243.90440613,0.0
1.15014846259,1.10056691935,9.80363592461e-06,-7123659.48529,1.92199688354e-05,0.0,5554970.91767,684.757765832,653.949423836,66250832.1528,1823.34466242,45993524.3813,68727655.0236,4774.26626821,4764.22760293,0.0
1.09081386795,0.921414943053,1.00987088172e-05,-25486360.8018,1.72792833784e-05,0.0,5741433.44692,681.077319493,650.174003663,66781297.7141,1748.41544186,36333688.4397,69179817.7191,4527.96836586,4519.31708412,0.0
1.13194395731,1.16530741425,9.94584562114e-06,-10816908.0023,1.7023674218e-05,0.0,5623802.93205,683.512822734,652.814588109,66447432.2184,1800.11406732,44021942.102,67688430.9666,4698.69936679,4689.09879118,0.0
1.22754600603,0.866504679891,1.03305609269e-05,14887171.6198,2.92023119446e-05,0.0,16385586.4316,689.446252018,658.843216365,64974165.2793,1913.98566095,59938829.0256,66530046.1579,5095.54347103,5083.55340444,0.0
0.947553045128,0.944750718195,9.91837653684e-06,-93431363.6589,1.39411270013e-05,0.0,6098662.5489,686.488608991,640.975073879,67655389.96,1610.86547548,68531105.2978,68749441.5746,3933.29269033,3927.09354285,0.0
1.02040202297,0.802796254254,9.69350113905e-06,-74317048.387,1.5152024632e-05,0.0,5938574.85245,678.110819665,645.648509968,67288125.273,1655.93450137,52704659.0876,70972837.3937,4235.68879735,4228.49112016,0.0
1.16960284488,0.981153653019,1.01016163342e-05,870640.659595,2.16307660705e-05,0.0,5414351.03309,685.881650978,655.207372534,65782233.953,1845.09886858,50224244.2593,67406604.4604,4855.0214091,4843.97672497,0.0
1.09211363362,0.989857756497,1.00616972456e-05,-25196142.3917,1.65949261429e-05,0.0,5744212.21837,681.141226801,650.249839244,66791308.8235,1750.05553598,36451394.784,69158688.827,4533.36369316,4524.69206114,0.0
1.09028509478,1.12968046732,1.03475149457e-05,-25164690.2562,1.50495644802e-05,0.0,5751825.88402,680.779321128,650.134185683,66808274.9586,1747.89135828,36431047.488,69119327.8565,4525.77342843,4517.22852054,0.0
1.16761441985,0.757161401508,1.00320954079e-05,768972.053129,2.57603500193e-05,0.0,5428785.70425,685.913561392,655.095415434,65828687.0593,1843.9274281,50346146.671,67541169.086,4846.7674568,4836.17698075,0.0
1.18408573258,0.934405515806,1.03237864057e-05,5115165.55029,2.40101166543e-05,0.0,6688673.27404,686.593232736,656.085863063,65667493.7304,1863.7863158,52641011.0614,66894762.8582,4915.13987594,4904.36930054,0.0
1.01295651539,1.08984364095,9.95454285153e-06,-80773068.7644,1.25142396966e-05,0.0,5960636.023,677.662695099,645.159240409,67326592.6279,1645.81303527,57821972.4171,70806891.8262,4204.78249538,4197.69037619,0.0
1.20351877965,0.901418001161,9.94677438516e-06,9322861.59639,2.57439374255e-05,0.0,10684384.7903,688.122991372,657.300838618,65282700.7489,1885.53434988,55497319.1553,66767595.2705,4995.80645433,4983.93702987,0.0
1.14744706576,0.995807611145,9.96371259995e-06,-8013021.94699,2.12787198153e-05,0.0,5587539.02059,684.474507842,653.758318928,66355055.1592,1821.80945846,45511452.7247,68517655.3294,4763.05276997,4753.69452169,0.0
1.15558611211,1.03516564394,9.83634275458e-06,-5772985.07846,2.09917251319e-05,0.0,5563983.81562,685.097839238,654.329643817,66283219.2145,1831.87520491,46886788.9844,68699254.6196,4796.83795137,4787.25273695,0.0
1.13469701061,1.12166575963,9.8667999938e-06,-12076468.3255,1.80905369759e-05,0.0,5557650.22409,683.870676165,652.971457741,66239213.9793,1802.09571475,43158902.5901,67536167.3147,4710.12729104,4699.63412101,0.0
1.13414765176,1.08138480248,1.0024598131e-05,-10508014.0239,1.87477725868e-05,0.0,5630727.37165,683.618312522,652.963498543,66482754.4242,1804.19173591,44279837.1726,67874677.9402,4707.84690246,4698.62329683,0.0
1.19215589632,0.860562428785,9.95167298105e-06,6009447.97001,2.56956729829e-05,0.0,7540758.15851,687.505052894,656.613426148,65423062.0274,1872.32894462,53175172.7136,66639373.998,4948.63912562,4936.96628394,0.0
1.11087733039,0.869347095,9.40186831821e-06,-20633889.2118,1.90835104457e-05,0.0,5719819.92574,682.810640076,651.516221386,66739140.0616,1775.27675501,38319167.5935,68915776.11,4611.25179845,4602.38432433,0.0
1.06213331217,0.787642452912,9.85034919604e-06,-38501073.0506,1.66341247698e-05,0.0,5811990.12946,679.613917946,648.280289174,66957245.1843,1710.36248096,34718079.9252,69979598.7239,4408.91537882,4400.52051765,0.0
1.08491037219,1.17232924148,9.66465553386e-06,-28528172.6624,1.36175108485e-05,0.0,5790454.31365,680.997961204,649.849926387,66921492.1626,1740.29713088,35836950.5846,69469729.518,4503.46295496,4494.80689189,0.0
0.982743365136,1.12889784148,1.00554859407e-05,-94941696.3007,1.24306544871e-05,0.0,6006897.25679,680.786418306,643.234862405,67424264.7084,1614.70352429,69860784.6005,70099589.7269,4079.36770868,4072.3587241,0.0
1.04451907488,1.0375411306,1.00730266667e-05,-49053438.874,1.37593156251e-05,0.0,5830197.21317,678.561461262,647.159852608,66995009.2977,1685.60593237,37138651.1345,71061943.4673,4335.79867983,4327.19182615,0.0
1.07997964796,1.04698506703,1.051736426e-05,-28157189.7016,1.53830994663e-05,0.0,5766834.76252,680.158569952,649.531165215,66839600.8146,1734.43906039,35757537.3642,69164212.4821,4482.99551868,4474.60970872,0.0
1.20512133034,0.851113638406,1.01591404176e-05,9971083.19018,2.73173401635e-05,0.0,11298680.1936,688.106198052,657.361006844,65203027.8617,1887.28071659,55894796.9023,66816834.1256,5002.45864224,4990.55934476,0.0
1.15960544551,0.916759814496,9.87261395845e-06,-3064802.96938,2.17059632349e-05,0.0,5457707.31321,685.488641301,654.595004405,65937580.999,1833.23606933,48102402.5884,68045027.5694,4813.52220431,4802.65668085,0.0
1.10910283433,0.695294944469,9.85797092179e-06,-17963823.3409,2.15291728191e-05,0.0,5646640.65983,682.4886821,651.366914976,66490569.8049,1770.90381437,39626729.8259,68851287.2393,4603.8858653,4594.36076681,0.0
1.13994186902,0.848773573573,9.8016954585e-06,-8975728.16044,2.233430345e-05,0.0,5581042.97793,684.246924233,653.320013539,66329137.5993,1810.99727165,45259072.789,68116720.9861,4731.8986983,4722.24409228,0.0
0.993302290801,0.868526628777,1.02184062798e-05,-95227374.7129,1.4713792511e-05,0.0,5910763.33627,678.847345735,643.897077075,67141370.8561,1616.22085247,70112623.0857,70368538.3665,4123.19780912,4115.0783389,0.0
1.06031822666,1.01146108846,9.84624374418e-06,-39438688.5153,1.41335185925e-05,0.0,5830555.24422,679.43000828,648.163296947,67010295.4944,1707.77479,34812858.7897,69881204.5337,4401.38095887,4393.01365153,0.0
1.10216565641,1.07305639158,9.9910795779e-06,-21927026.4847,1.61587230695e-05,0.0,5727554.05206,681.811576691,650.963965756,66738791.6333,1763.24122988,37543960.3327,68561078.3719,4575.08963976,4566.25985268,0.0
1.14761068768,1.14598290725,1.02345524371e-05,-6078586.98646,1.88397483388e-05,0.0,5560115.96951,684.294529529,653.814446991,66248824.2193,1820.1805258,46733660.5002,68777169.554,4763.73196456,4753.94881636,0.0
1.06788223288,0.818850267905,9.88711533675e-06,-35711644.228,1.66565483432e-05,0.0,5798013.70696,679.886961316,648.65307387,66925646.1441,1717.92675048,34666228.8475,70105516.3683,4432.77914868,4424.29366523,0.0
1.04243220279,0.917324499835,9.91456194042e-06,-52550165.7287,1.47918730224e-05,0.0,5879458.11493,678.526950588,647.017697079,67149013.5768,1685.30777394,38733602.7889,70899084.6471,4327.13607378,4319.62363737,0.0
1.14906232212,0.844038558784,1.00611498113e-05,-7287174.43346,2.41478150931e-05,0.0,5563465.48704,684.629903488,653.896932877,66286886.4497,1823.9619462,45857805.5169,68608138.8816,4769.75769912,4760.3735681,0.0
1.11651868556,1.02968454593,9.85572450078e-06,-16022839.2837,1.76268480912e-05,0.0,5676955.86388,682.646802791,651.785003513,66605152.1167,1780.98655465,40825489.0223,69438092.3562,4634.66906376,4625.41960552,0.0
1.01505842636,0.754908842968,1.0185942661e-05,-78523355.8185,1.583734763e-05,0.0,5849070.53965,677.708642583,645.281457646,66992723.0163,1645.18761809,55984301.4089,70574237.0642,4213.50752782,4204.95291491,0.0
0.987645591975,1.17164190599,1.05363033921e-05,-94984168.9062,1.19632219592e-05,0.0,5929660.54282,678.654445702,643.531187546,67195379.3966,1608.79763622,69898447.1926,70143165.582,4099.71685229,4091.68943635,0.0
1.06697947482,0.649382822162,9.64978609937e-06,-36376356.4859,1.86120698165e-05,0.0,5809594.17181,680.066463467,648.598459861,66953391.1377,1717.35928441,34660779.2841,70313481.1745,4429.03179998,4420.75020517,0.0
1.11229953774,0.821555462052,9.73522983761e-06,-19392021.49,2.00655353526e-05,0.0,5682002.69701,682.67748092,651.57596431,66622406.1976,1776.26006202,38914792.7197,68956557.6052,4617.15538116,4608.06362311,0.0
1.0605598196,0.905594855009,9.47743078287e-06,-43162151.4943,1.54709428517e-05,0.0,5799079.76646,679.837462716,648.150552531,66914932.7714,1706.43585737,35390029.8785,70084454.7086,4402.38381116,4393.3338672,0.0
1.02670255433,0.772499751956,9.73438272877e-06,-66119134.6868,1.55713577545e-05,0.0,5918656.01016,678.191178643,646.036525976,67242817.8405,1664.34795714,46713017.8824,71015244.0467,4261.84230302,4254.55478157,0.0
1.11560408516,0.683248843593,1.01258371738e-05,-15820524.9247,2.28026030623e-05,0.0,5561598.6701,682.695702251,651.688162891,66230225.8187,1777.35696437,40722942.6427,68043983.4892,4630.8725575,4620.57730318,0.0
0.991505300188,0.670484445842,9.98429053581e-06,-95193218.5392,1.63113953395e-05,0.0,5911023.23011,679.586210134,643.78375949,67131796.7104,1613.99419749,70082463.266,70322510.3604,4115.73850108,4107.56786418,0.0
1.11774412667,1.22723695424,1.01294440501e-05,-14874456.5293,1.53707001348e-05,0.0,5650994.82297,682.463935505,651.847643887,66510909.6644,1781.15066159,41333218.5495,69006769.7995,4639.75586981,4630.08742366,0.0
1.11417037404,0.768156862863,9.88260523168e-06,-16562525.1524,2.09748761028e-05,0.0,5661275.01059,682.646322719,651.659490051,66553295.7112,1778.20395038,40529746.4383,69223696.1674,4624.92122264,4615.70980865,0.0
1.08537097757,0.944414190447,1.01619800743e-05,-27162435.8184,1.66343557085e-05,0.0,5755582.67163,680.757691383,649.869678226,66817427.1435,1741.27285162,35929610.7019,69244045.6811,4505.37492789,4496.80865212,0.0
1.09512473071,0.62221780377,9.81389877238e-06,-24613453.9874,2.19161801861e-05,0.0,5719068.50845,681.672904414,650.445261406,66712311.9621,1754.49709139,36640558.7012,69150279.6707,4545.86275718,4537.14379536,0.0
1.05950955228,0.890532746096,9.52490548252e-06,-43499695.7827,1.56056245431e-05,0.0,5798811.76193,679.758220483,648.086971032,66913067.1249,1705.06613935,35477978.0822,70333689.3846,4398.02415151,4388.99167646,0.0
1.063899723,0.945368161283,1.00002048721e-05,-37115754.8564,1.50825446278e-05,0.0,5811781.47255,679.533111867,648.393493354,66962253.2471,1712.61242032,34665311.2695,70102726.3604,4416.24775017,4407.8245719,0.0
1.13056533117,1.10163880878,9.8514047618e-06,-12080186.859,1.77110040824e-05,0.0,5628523.42899,683.526948173,652.71087221,66457353.6496,1798.70568554,43096743.5746,67474059.8221,4692.97668969,4683.39589629,0.0
1.07500673249,1.03180085018,1.06398753891e-05,-30236229.3642,1.53852197193e-05,0.0,5776447.3583,679.786658401,649.209576847,66870420.606,1728.17539094,35135242.3803,69125716.1621,4462.35294657,4454.13840209,0.0
1.13102923027,0.95743527687,1.00606759782e-05,-11742710.6279,2.00038863798e-05,0.0,5583446.82061,683.539793185,652.739551404,66304893.7559,1798.66756009,43234633.8657,67428200.7405,4694.90233485,4685.00934775,0.0
1.12005891965,0.821023064291,9.57494916191e-06,-17573312.0149,2.08463440929e-05,0.0,5679241.16492,683.184104913,652.02733241,66617299.1866,1787.09798802,39912131.9212,69322048.7248,4649.36457547,4640.35213776,0.0
1.04817616775,1.02413747595,9.80587227506e-06,-47085068.4619,1.38084502358e-05,0.0,5832496.51925,678.898218941,647.38693145,66997344.7126,1690.14306708,36601689.0974,70374751.9229,4350.97927233,4342.28127483,0.0
1.10704116412,0.983551667477,1.01951276587e-05,-18203595.771,1.77045215639e-05,0.0,5671987.17944,681.946883525,651.230848185,66571829.3465,1767.93384781,39651958.371,68892963.0192,4595.32787226,4586.03497981,0.0
1.03836106812,1.02345997533,9.90144781237e-06,-55430245.1232,1.36979067026e-05,0.0,5849365.25755,678.447364454,646.767365759,67042957.2309,1677.41964896,40089373.9405,71151692.5295,4310.23679377,4301.729297,0.0
1.11817923988,1.02882750319,9.85745106889e-06,-15457543.1036,1.79224271662e-05,0.0,5676183.48483,682.737034665,651.888487089,66594077.9942,1783.19153162,41146843.6083,69355345.3643,4641.56202474,4632.38078644,0.0
1.01935491032,0.945542747293,1.02659394599e-05,-70022382.8387,1.4087668893e-05,0.0,5866957.31996,677.558395526,645.552887034,67065137.0078,1651.83327259,49455940.8408,70852864.7093,4231.34223274,4223.05233697,0.0
0.988457627582,0.883019459275,9.71732366761e-06,-95202295.7499,1.48026031169e-05,0.0,5992846.96696,680.987183815,643.604213777,67385046.6987,1619.38804067,70090210.0959,70332407.2193,4103.08761209,4095.99492168,0.0
1.09371709187,0.951820230971,9.93046464008e-06,-25052041.6259,1.70523201664e-05,0.0,5742646.17669,681.341100605,650.352797595,66786218.1575,1752.18870827,36524165.414,69183142.1436,4540.01964835,4531.32288426,0.0
1.13661982714,0.820796997629,9.70615279898e-06,-10723883.1258,2.23528258349e-05,0.0,5595655.50988,684.152325633,653.115618543,66366807.5875,1807.06732594,43907304.0092,67735272.2162,4718.10890246,4708.50592579,0.0
1.13143523439,0.960659322872,9.95362815975e-06,-10842085.1253,1.99060219662e-05,0.0,5607440.93273,683.577523718,652.778139164,66395879.0023,1799.67242232,43936603.0563,67607059.5218,4696.58765795,4686.99561866,0.0
1.15066277928,0.850812933709,1.02328323838e-05,-6436863.2189,2.4402979172e-05,0.0,5550116.24517,684.640230015,654.015715777,66248024.617,1825.8889442,46249638.09,68584674.9031,4776.40119679,4766.99139153,0.0
1.07644823277,0.9958505665,9.91313173653e-06,-31410554.7101,1.52895142186e-05,0.0,5797395.14587,680.197561422,649.150932006,66939487.9984,1729.54143598,35206243.3648,69616651.4041,4468.33661423,4459.90894678,0.0
0.952637172451,0.874599571596,9.39954018025e-06,-93664631.223,1.49743740591e-05,0.0,6062975.3915,687.346962537,641.294418829,67532741.0737,1615.42911021,68736501.4032,68957635.385,3954.39690284,3947.37543712,0.0
1.12131057984,1.05156656001,9.74245022344e-06,-14825769.2198,1.75223726136e-05,0.0,5617388.62255,683.061161385,652.071213747,66417067.7736,1785.04218615,41450891.7759,68722193.1305,4654.56021692,4644.4376197,0.0
1.05368438788,0.982073220462,9.8461683411e-06,-45030046.8689,1.45071773789e-05,0.0,5807549.77848,679.192720013,647.734142374,66934920.0713,1697.34089756,35818141.2111,70455003.2517,4373.84389409,4364.90806302,0.0
1.13808015282,0.77955431622,9.79333688591e-06,-9864071.02469,2.37917820025e-05,0.0,5608955.92742,684.160477058,653.218501733,66421087.0733,1809.9048211,44697527.8459,67983839.3717,4724.17071436,4714.96478625,0.0
1.05740640557,0.96443768386,1.02808048238e-05,-39397404.0726,1.47708438621e-05,0.0,5817827.6926,679.088077154,648.058081861,66967341.5447,1704.27323957,34787635.5049,69679860.5682,4389.29398952,4381.06598163,0.0
1.16914774282,0.868107715215,9.72801566747e-06,-970278.542888,2.49672316314e-05,0.0,5492663.81703,686.150850888,655.213477242,66064646.7712,1848.40248594,49462815.7359,67880579.8126,4853.13228045,4843.18981978,0.0
1.11891482948,0.999192178708,1.01846158785e-05,-14435426.5326,1.84515310237e-05,0.0,5625221.27147,682.619867816,651.922430507,66434834.6097,1782.85780157,41611370.8125,68654915.8567,4644.61545717,4634.92642847,0.0
1.09509675814,1.11802901552,9.95500508056e-06,-24335686.9799,1.50428869037e-05,0.0,5752571.03429,681.341646396,650.453162267,66817030.8163,1753.99149662,36742401.8687,69170504.6692,4545.74664304,4537.02736448,0.0
1.06456904599,0.655096612197,9.83691686227e-06,-36864094.4142,1.8256012077e-05,0.0,5757542.67254,679.847811036,648.421936113,66785346.1153,1711.54777362,34755956.8154,70001194.9497,4419.0261099,4409.85969384,0.0
0.993109474031,0.884091734744,1.03386344617e-05,-95194958.3622,1.45227215946e-05,0.0,5907531.18298,678.577544001,643.882876491,67132948.3231,1615.98581809,70084098.2048,70315595.2204,4122.3974267,4114.28105182,0.0
1.07450400441,0.808513980983,1.02907295245e-05,-30719988.1082,1.76752716098e-05,0.0,5764085.39939,680.081242943,649.152612279,66822563.2571,1726.78675737,35235057.7481,69210730.0192,4460.26612231,4451.77183584,0.0
1.08124332311,0.844779205477,9.73291493242e-06,-29991042.2472,1.72063449634e-05,0.0,5782258.43464,680.674228001,649.471464576,66898027.6864,1735.95105767,35561653.212,69378559.9526,4488.24103423,4479.73899387,0.0
1.08252400973,1.06940301795,9.65503857329e-06,-29805676.9074,1.46373797209e-05,0.0,5797397.90619,680.708397539,649.555886277,66944990.1215,1737.44290973,35635919.6737,69451280.0348,4493.55716439,4485.03521493,0.0
1.10721945134,0.964284102054,1.04025275274e-05,-17687909.3977,1.79650091186e-05,0.0,5657792.64131,681.841924727,651.231552877,66508615.5783,1768.24358983,39794841.8588,68879565.9812,4596.06794251,4586.67354923,0.0
1.06966102585,0.789178474703,9.90022511965e-06,-34369850.1628,1.72623878901e-05,0.0,5801226.06929,679.967472607,648.768788807,66932712.3086,1720.76776316,34739861.682,69991786.3241,4440.1629183,4431.83910018,0.0
1.2153180454,0.800611100835,9.84896961777e-06,12090496.7421,2.87423077698e-05,0.0,13365006.7247,688.922624775,658.047997283,65257747.2258,1901.26461207,57678097.0848,66325550.454,5044.78520646,5033.27394622,0.0
1.08229333652,0.885813688687,9.85441649605e-06,-29189753.8687,1.68635048668e-05,0.0,5773115.16993,680.828569296,649.677562609,66861476.6448,1737.29846027,35678926.8466,69344310.129,4492.59963989,4484.08127781,0.0
1.10592024806,1.19684685668,9.80356136178e-06,-19377305.7314,1.45085137906e-05,0.0,5709150.23626,682.085542648,651.185983055,66681901.5144,1766.54975476,39142757.0987,68758624.4281,4590.6749497,4581.30038102,0.0
1.1137596693,0.760322512673,1.03038911535e-05,-15971293.8071,2.1394404928e-05,0.0,5621825.30827,682.347088093,651.591392158,66406173.5761,1776.95820325,40676182.9979,69233480.775,4623.21638726,4613.71209331,0.0
0.988474236745,0.921066446808,9.66298508405e-06,-95220717.1795,1.452812881e-05,0.0,5996623.43802,681.1231374,643.605722838,67395746.7215,1619.91814211,70106392.8946,70348484.5673,4103.15655673,4096.0636268,0.0
1.04942713563,0.883730156672,1.0334473212e-05,-45118056.6055,1.54573261264e-05,0.0,5796364.09627,678.639713625,647.464792529,66902089.8441,1692.08495054,35800401.3587,70340589.9496,4356.17204,4347.39655069,0.0
1.08568378273,0.835158841655,9.8403791378e-06,-28036360.9611,1.77360300363e-05,0.0,5760804.04473,681.061861746,649.901480637,66829394.3615,1741.78427693,35865093.2691,69332980.2106,4506.67338211,4498.10223032,0.0
1.1299314823,0.779929024161,9.8001119833e-06,-13274933.1291,2.27340322383e-05,0.0,5542684.2494,683.813608972,652.64733581,66186073.7973,1796.44342076,42269053.5444,67573244.6055,4690.34558303,4679.9375498,0.0
1.01751944115,0.842725677103,9.87801640929e-06,-75955192.7767,1.47014433907e-05,0.0,5940056.39782,677.884083704,645.468326633,67287652.3207,1652.08379861,53972933.696,70840516.3831,4223.72320021,4216.56646953,0.0
1.06664108449,0.765002343112,1.04609138336e-05,-33616299.2127,1.76404296079e-05,0.0,5779378.33722,679.378421285,648.5535818,66870550.4495,1716.44379431,34749145.3154,69627289.8339,4427.62714172,4419.25519002,0.0
1.06265424682,0.755368393342,9.80237670648e-06,-38448679.9794,1.70247308801e-05,0.0,5810266.67624,679.691505206,648.313712809,66952091.0487,1711.06320557,34716333.4826,69998055.5207,4411.07777855,4402.67404682,0.0
1.16200703653,0.849145639193,9.71661979813e-06,-884742.571001,2.29474113991e-05,0.0,5444957.25698,685.732423778,654.74166091,65880886.1328,1835.76503728,49768289.3378,67948725.0714,4823.49120864,4812.5699167,0.0
1.15029047447,1.11176220602,1.01546792341e-05,-6780199.7399,1.98294240892e-05,0.0,5578942.56528,684.534377289,653.998482291,66336649.4249,1825.18232558,46111423.6593,68731159.1091,4774.85575953,4765.45192925,0.0
1.17622955375,0.970129079929,9.94271454418e-06,2330372.60698,2.21685894875e-05,0.0,5402889.74522,686.368498824,655.60702553,65760949.9012,1853.61247272,51175666.3817,66993936.1015,4882.52887762,4871.46911912,0.0
1.08342285141,0.695682995376,1.03623739839e-05,-27314478.9441,2.00296825677e-05,0.0,5740375.8622,680.611674736,649.746562592,66762161.7437,1739.26045046,35834094.1362,69122265.8872,4497.2882562,4488.84942611,0.0
1.2798641259,1.03048952277,9.56643516992e-06,24328106.7773,2.88699074043e-05,0.0,26035619.1244,693.006766771,662.082648085,64301872.6354,1973.21007646,67088226.8021,68043574.2048,5312.71598661,5299.43198627,0.0
1.20196258921,1.24165316975,1.05046902966e-05,8989498.97688,2.03400384078e-05,0.0,10321316.5374,687.437776668,657.169690694,65333886.9111,1882.71028807,55122650.7462,66764032.0867,4989.34670781,4977.51347981,0.0
1.15056676795,1.04432525646,9.85674984028e-06,-7397760.11002,2.05957151183e-05,0.0,5586733.00815,684.743065861,653.992575259,66354795.6398,1825.77092384,45929604.7649,68716999.7007,4776.00265376,4766.59270773,0.0
1.21769097864,1.01434915612,1.01178408557e-05,12636829.9108,2.48803341882e-05,0.0,13857691.762,688.805930645,658.211036711,65204538.6256,1902.60073057,58075779.9116,66380038.0116,5054.63525233,5042.82474559,0.0
0.945261402151,0.898336509482,1.01729976393e-05,-93279697.1605,1.3974749385e-05,0.0,6092270.51736,686.050020862,640.82591294,67635544.8798,1607.3795946,68397638.7025,68614826.6195,3923.78008033,3917.61163125,0.0
1.03688194861,0.567968709928,1.01325500489e-05,-53652289.138,1.83921980378e-05,0.0,5810567.49943,678.359509505,646.648749255,66919117.2077,1675.65676874,39149034.9536,71049163.0035,4304.09696868,4295.52447878,0.0
1.05806676153,1.13618610104,1.02607305316e-05,-39172120.089,1.30373621912e-05,0.0,5830741.17407,678.951861949,648.017336074,67007722.5692,1705.03577456,34759238.718,69768880.2505,4392.03512711,4383.79549399,0.0
0.976894610699,0.853856721012,1.01365721046e-05,-94739374.8084,1.49243386223e-05,0.0,6017030.0019,681.413666151,642.863274106,67451698.1171,1613.11332226,69682908.3152,69918274.1348,4055.08952901,4048.49931536,0.0
1.18481577431,0.900193278578,9.82647393736e-06,4094946.68549,2.40552439663e-05,0.0,5839414.73097,687.034947772,656.115231855,65584112.6836,1863.53077417,52187846.1181,66869986.1683,4918.17027916,4906.65274829,0.0
1.00064825619,0.872077788028,1.01007169836e-05,-95790489.8562,1.4670835021e-05,0.0,5894458.91577,678.270491185,644.36539858,67099447.9781,1625.84987678,70607025.2434,70607025.2434,4153.69091144,4145.37451717,0.0
1.07390441296,0.999065892003,9.90627740015e-06,-32535381.6624,1.50891802464e-05,0.0,5804438.38608,680.061141289,648.990041445,66955512.5268,1726.19669588,35009312.0387,69782056.6487,4457.7772182,4449.38889693,0.0
1.08974998714,0.859454338482,9.64331529454e-06,-26834304.638,1.74243983929e-05,0.0,5756979.48849,681.411032056,650.151114499,66825671.7698,1746.88850827,36134052.8854,69401007.2162,4523.55219662,4514.8198933,0.0
1.09097060869,1.0571612549,9.85903740072e-06,-26212901.8352,1.54992189583e-05,0.0,5761286.90857,681.218318448,650.205917852,66838178.6183,1748.51691964,36251990.5658,69344886.6443,4528.61899667,4519.9652619,0.0
1.01544488295,0.953549794348,1.00078590874e-05,-74752058.9782,1.38470675721e-05,0.0,5893198.85711,677.79157464,645.311906621,67127507.3052,1646.90220357,53051029.0738,70761310.8095,4215.11170913,4206.9685064,0.0
1.0339523668,0.950013512503,9.77370149845e-06,-58748355.3695,1.41801512458e-05,0.0,5907285.21764,678.324208371,646.501157328,67220627.3532,1673.9368534,42015430.6926,71100829.9843,4291.93627459,4284.54478586,0.0
1.02032001461,0.788508817232,1.01117884199e-05,-70180456.2573,1.52418612906e-05,0.0,5915272.97973,677.666105925,645.630553157,67218213.0881,1655.4877512,49593539.3236,70684871.2529,4235.34838065,4228.0627211,0.0
1.1585240224,0.95111919152,9.74136675959e-06,-3928821.13923,2.2267889042e-05,0.0,5519422.70784,685.407901574,654.503176904,66135715.304,1834.25530314,47911680.8523,68413000.7337,4809.03321698,4798.94652267,0.0
0.901324088808,0.882227083953,9.54284878365e-06,-91333171.3043,1.43190235692e-05,0.0,6180605.30275,694.002888606,637.98765481,67819663.8752,1602.63685742,66684416.3915,67819663.8752,3741.39629264,3735.25462451,0.0
1.16917842808,0.936588342256,1.00221300589e-05,1289030.71008,2.22798702713e-05,0.0,5447108.2585,685.871408734,655.190438011,65885305.4354,1845.48497962,50638276.7194,67580211.0838,4853.25965496,4842.64417735,0.0
1.09186361054,0.79721874444,9.95974881703e-06,-25518253.7057,1.88504350163e-05,0.0,5735474.84195,681.288606401,650.240010156,66761955.3501,1749.91361319,36352446.2048,69198016.341,4532.32584735,4523.6573791,0.0
1.05835560812,0.871544676164,9.96730560403e-06,-39848045.401,1.55344394352e-05,0.0,5821980.8683,679.278435542,648.026148729,66982760.9611,1705.28750324,34839547.6055,69732275.7556,4393.23412931,4384.89737399,0.0
1.00806323201,1.07368921312,1.00923121732e-05,-87017082.8367,1.29235338594e-05,0.0,5889432.62031,677.773534641,644.83319147,67094891.3315,1635.59454019,63012376.554,70757797.523,4184.47047607,4176.03070255,0.0
1.00753062476,0.951102205886,1.00021709083e-05,-88424347.5574,1.41437942219e-05,0.0,5885877.84719,677.9942171,644.807111056,67081715.455,1634.95210654,64212842.9657,70798495.42,4182.25962338,4173.82856807,0.0
1.15767012161,0.894326730368,9.96163685873e-06,-4832624.86025,2.3792358055e-05,0.0,5534995.18335,685.298863242,654.505960814,66198670.0831,1834.56944821,47250004.8119,68486807.2675,4805.4886748,4795.86959548,0.0
1.13131602984,0.710433107278,1.0020500185e-05,-10633313.9964,2.39231917321e-05,0.0,5560366.84998,683.610251241,652.688887874,66251172.662,1798.93886546,44046972.7707,67553090.7997,4696.09283987,4686.1987637,0.0
1.08556224182,0.904790207047,1.01491447482e-05,-27123616.9794,1.70929170833e-05,0.0,5752965.63215,680.79443356,649.882201786,66809123.318,1741.55335004,35940446.9681,69240911.5534,4506.16886579,4497.59960872,0.0
1.16139091099,0.814037511435,1.03014982626e-05,-1961704.77493,2.57415906785e-05,0.0,5437801.21099,685.419122149,654.704693812,65858750.2185,1836.7485714,48592970.2906,67575712.4584,4820.93367152,4810.49528787,0.0
1.1235235161,0.920642083472,1.0049657821e-05,-13457172.5799,1.97804192767e-05,0.0,5606402.34176,683.056248869,652.234538375,66381959.4162,1788.91400865,42302215.812,67964800.3472,4663.74611533,4653.98029373,0.0
0.987883191865,0.851071882401,1.00002036459e-05,-95075181.7772,1.47276404833e-05,0.0,5928238.37244,680.007560732,643.54990668,67183792.6245,1611.67138316,69978556.5623,70222596.0789,4100.70312943,4092.59114002,0.0
1.06112711158,0.790711141519,1.00204736889e-05,-38292626.8951,1.6598568868e-05,0.0,5808271.97416,679.428548051,648.213751202,66946877.2435,1709.0423995,34678622.8152,69930676.6658,4404.73864017,4396.35872762,0.0
1.09561439746,0.876085704291,1.00711950543e-05,-23959995.8006,1.82068945343e-05,0.0,5725638.31655,681.423245208,650.505337367,66739661.1326,1754.72815662,36793506.3839,69005363.4387,4547.89536386,4539.16806711,0.0
1.11094586251,0.849044963654,1.00144098411e-05,-17066121.0475,1.95057961818e-05,0.0,5622810.32849,682.398900454,651.453153744,66406438.4737,1771.89012277,40241010.6489,69029894.4378,4611.53627528,4601.59328125,0.0
1.14600842326,0.776387862988,9.84225362591e-06,-8178807.52759,2.41825998317e-05,0.0,5523054.31088,684.534308931,653.554153331,66135830.5694,1818.05574004,45347443.5185,68391904.9398,4757.08096495,4746.90777856,0.0
1.12068135673,0.836471605823,1.01841919482e-05,-13942544.0943,2.07843782855e-05,0.0,5602343.04184,682.826633229,652.046358515,66366883.7767,1785.30291357,41938533.8302,68269507.9488,4651.94831179,4642.22951016,0.0
1.21640773124,0.826220848546,9.79550673663e-06,11953627.8463,2.8155837484e-05,0.0,13195459.0311,689.048714631,658.108592955,65176859.2885,1901.8441378,57559727.7369,66223010.9015,5049.30849238,5037.43798813,0.0
1.02113350706,0.7543140794,9.76720815697e-06,-72730791.3112,1.55623861415e-05,0.0,5931468.40479,678.060905354,645.697149573,67269768.8699,1656.94710862,51495206.0489,71002077.3557,4238.72518781,4231.51710418,0.0
1.19342204351,0.821265039335,9.8961920168e-06,6460202.62392,2.62787589874e-05,0.0,8005285.21666,687.591811211,656.709020353,65514866.9827,1874.919658,53546436.9946,66639208.4764,4953.89490261,4942.62822559,0.0
1.17030131868,1.08053790713,9.9536430256e-06,730905.034735,1.98057655475e-05,0.0,5431803.1984,685.944313072,655.253172024,65832988.4129,1845.93450335,50255390.4493,67510181.53,4857.92077384,4846.86353014,0.0
1.21438987207,1.14991134472,1.03166840977e-05,12289405.4473,2.24620726023e-05,0.0,13532423.0323,688.336204889,658.00748661,65380420.6045,1899.42700475,57829028.5692,66507888.3608,5040.93235896,5029.63758083,0.0
1.06768110499,0.986087667086,1.04377183806e-05,-33295823.8267,1.52937825355e-05,0.0,5791087.53138,679.361449644,648.610301001,66907793.5918,1717.66526705,34822025.2893,69622496.9745,4431.94426681,4423.5561758,0.0
1.20851070215,1.01465794049,1.0055055817e-05,10510180.2382,2.41595706612e-05,0.0,11835985.0315,688.2387093,657.569645618,65244720.9621,1891.13820561,56369336.4665,66860080.5736,5016.52792462,5004.53830198,0.0
1.31200400214,0.920129729267,1.06476294367e-05,30046991.2039,3.9316784283e-05,0.0,31349918.4614,694.797667033,664.148027769,63436392.2617,2007.25629514,69517349.9088,71084024.8082,5446.12861288,5432.25468898,0.0
1.14119142461,0.812543368691,1.03185766526e-05,-8797479.53096,2.40807952583e-05,0.0,5569933.50501,683.956473033,653.35013412,66293678.5542,1813.57179013,44939237.8825,68166266.359,4737.08560356,4727.74623924,0.0
1.2209346924,1.2363637366,1.01604217739e-05,13062327.7941,2.13749526438e-05,0.0,14265673.7145,688.861202036,658.411812801,65181609.4082,1905.52478485,58464021.0175,66524820.4442,5068.09990815,5056.0075306,0.0
1.15400609341,1.13110263127,9.88937866127e-06,-5935728.19555,1.91518365307e-05,0.0,5539641.12825,684.952794111,654.219172671,66209073.0263,1828.07489015,46644095.0631,68654534.1234,4790.27929374,4780.17526891,0.0
1.09313135725,0.71190667626,1.02315265308e-05,-24258441.0732,2.05059727263e-05,0.0,5713444.57402,681.228722304,650.330720018,66685619.9709,1751.61886761,36630820.9532,68894775.207,4537.58826394,4528.90068391,0.0
1.017910257,1.14755396126,1.00850712396e-05,-72912885.1658,1.23412110045e-05,0.0,5888656.62371,677.673349832,645.465447578,67124146.2124,1649.72767415,51637475.2426,70764551.1975,4225.34547681,4217.07867579,0.0
1.19477439907,1.08751866134,1.00838229831e-05,7228162.11203,2.1496022143e-05,0.0,8672508.51039,687.370289638,656.805608183,65557802.6858,1875.72683629,54007026.5627,66620799.4167,4959.50853054,4948.21984843,0.0
1.18094367825,0.941235020249,9.72429829762e-06,3439766.88052,2.27546261073e-05,0.0,5620107.69093,686.761172739,655.908344918,65828912.5404,1860.29269212,51984744.0848,67096425.8169,4902.09720842,4891.28719665,0.0
1.05766859215,0.781214789516,9.70454277176e-06,-43589497.8721,1.68044355859e-05,0.0,5788637.34835,679.579857551,647.971333469,66881119.4758,1702.76603249,35454094.4537,70266262.7205,4390.38232601,4381.3804388,0.0
1.14283453602,1.15996280988,9.98526453557e-06,-8876244.86093,1.79000833846e-05,0.0,5567100.85,684.042589189,653.368663874,66270483.2848,1813.4927515,44960371.4031,68312628.8518,4743.90615902,4733.7856836,0.0
1.10151899722,0.970192827695,1.05167527881e-05,-20567347.3762,1.78512440281e-05,0.0,5678401.88885,681.464087016,650.897936566,66581085.2494,1761.35873909,38236666.3811,68532381.5989,4572.40535746,4563.28895899,0.0
1.11649379655,0.981290170537,1.01874064128e-05,-15255179.6767,1.84706071794e-05,0.0,5637341.36814,682.456848225,651.764521734,66474786.1374,1779.97367006,41112127.7704,69089875.6235,4634.56574948,4625.01788,0.0
1.16483522131,0.792111958084,1.00934399167e-05,374188.771515,2.46765457048e-05,0.0,5442929.14823,685.66225946,654.916735689,65869579.6238,1840.27260927,50146888.3058,67675200.7026,4835.23100366,4824.69083773,0.0
1.09448173849,1.16485485903,1.03381687983e-05,-23800233.3237,1.49620127428e-05,0.0,5742975.83685,681.056860265,650.439031968,66786908.2184,1753.34472502,36809731.2066,68931868.1057,4543.19369647,4534.58364806,0.0
1.00860342143,1.0065418066,1.01795770706e-05,-85661154.9715,1.36063883706e-05,0.0,5879904.77415,677.660684667,644.870086395,67067802.3925,1636.39260727,61863215.6225,70680500.5037,4186.71280236,4178.2641828,0.0
1.17942055929,1.01532820514,1.00857092937e-05,3291979.34574,2.17641232064e-05,0.0,5388082.32322,686.442851761,655.795393066,65701828.265,1857.30068915,51608616.6666,66974101.7661,4895.77474161,4884.65776144,0.0
1.03836608993,0.889968096271,1.04854152413e-05,-51033316.994,1.51223029375e-05,0.0,5809261.78498,677.959283929,646.727817362,66929248.9072,1676.97208042,37923334.7358,70689685.7611,4310.2576393,4301.5742729,0.0
1.095298198,0.824446684641,9.57512502841e-06,-25126061.8179,1.82859237681e-05,0.0,5740930.07327,681.739698607,650.453527804,66784131.9167,1754.18675943,36563113.6277,69297290.8296,4546.5828199,4537.76277849,0.0
1.1205167374,0.771392111667,9.91373007606e-06,-14703500.7998,2.16495551478e-05,0.0,5639233.96121,682.988675542,652.037253155,66481125.7404,1786.39460912,41468732.8652,68971492.705,4651.26497695,4641.95060179,0.0
1.09577419567,0.920399354904,1.05386280546e-05,-22665413.6323,1.78711485817e-05,0.0,5692288.75447,681.14394981,650.54029323,66612692.7054,1754.21679855,37134218.0894,68431911.2436,4548.55868623,4539.53474385,0.0
1.29572835281,1.15483904086,1.00376148198e-05,27401752.9561,2.95151430127e-05,0.0,28825534.7053,693.661137722,663.060237238,64086507.7576,1990.26950084,68579928.5344,69703102.6799,5378.56839251,5365.2708942,0.0
1.12090438758,1.09816172786,9.54272437429e-06,-17490360.5778,1.70728387383e-05,0.0,5699485.76577,683.120414713,652.07573275,66681029.5035,1787.95913379,40019725.6409,69431936.1459,4652.87411284,4643.84827833,0.0
1.10279967716,0.70163319151,9.95903556722e-06,-21724404.6597,2.1392654407e-05,0.0,5696571.13202,682.062107111,651.006968454,66644662.1901,1764.44295946,37653135.5886,68501449.0523,4577.72145989,4568.88140778,0.0
1.16292035531,1.11683307454,9.8836809255e-06,-2401352.03534,2.03152835368e-05,0.0,5539923.61793,685.497481419,654.825300784,66213069.6834,1840.39977062,48752821.8404,70219056.2198,4827.28239489,4817.5534348,0.0
0.977523857714,1.02164815921,9.94495252487e-06,-94861985.4405,1.33788922227e-05,0.0,6030118.32013,681.628254032,642.904124203,67483813.3879,1613.82524874,69790627.5429,70028123.6053,4057.70153337,4051.02109013,0.0
1.14143027361,1.01211787692,1.01155081981e-05,-9304642.42682,2.06341561407e-05,0.0,5602413.20495,684.021887802,653.390733989,66394374.6706,1814.10454381,44715470.8457,68167591.8679,4738.07706576,4728.81497415,0.0
1.08460317055,1.12103893272,1.00613310947e-05,-27782361.9255,1.4434070549e-05,0.0,5774267.51794,680.716947763,649.82787814,66872361.5422,1740.13079567,35851450.4614,69328101.1529,4502.18776095,4493.63344895,0.0
1.03254220623,1.01839647273,9.57712221375e-06,-60806228.2897,1.35031540143e-05,0.0,5921903.4373,678.446702521,646.4231686,67260920.1145,1671.95410214,43193762.1099,71181346.1252,4286.08269806,4278.71148105,0.0
0.985154703482,0.941322888379,1.01719934556e-05,-94911328.9862,1.4118586739e-05,0.0,5937051.4993,680.083125651,643.375592475,67204643.367,1610.69498398,69834351.6504,70075296.0629,4089.37717415,4081.38828003,0.0
0.996761237136,0.951138733394,9.74548027793e-06,-95782688.1541,1.38417454458e-05,0.0,5996754.81534,679.081367475,644.142384516,67412140.2047,1623.86491303,70601288.7933,70871806.5814,4137.55589535,4130.69381478,0.0
1.10317698584,0.93827162276,9.54374245022e-06,-21368123.8317,1.74328263731e-05,0.0,5658642.3481,682.288217428,651.006901418,66511532.5942,1761.1938188,38206235.0137,68462942.3452,4579.28766822,4569.19451274,0.0
1.20666198427,0.853703752448,1.02623892657e-05,10423512.4481,2.75577281461e-05,0.0,11718738.327,688.134267141,657.450170504,65166073.8706,1888.9827305,56209551.1377,66678977.6858,5008.8538967,4996.9258527,0.0
1.06732922136,0.876928322608,9.87519068075e-06,-36025990.2504,1.59526373038e-05,0.0,5803708.70493,679.842626944,648.617186212,66941927.2086,1717.15753199,34665844.6885,70150677.6286,4430.48359787,4422.00677733,0.0
1.13486509626,0.948077817336,1.00432404725e-05,-11222191.7305,2.10883021209e-05,0.0,5620829.85364,683.743202251,653.010966345,66439313.7823,1805.76884934,43594532.3939,67756107.406,4710.82501458,4701.66729386,0.0
1.12132972686,0.784708121684,1.03881515978e-05,-13758144.0748,2.18972423373e-05,0.0,5591267.91273,682.774249002,652.092014279,66327041.4422,1786.58198168,41874773.7246,67905202.2165,4654.6396962,4645.01027189,0.0
1.07251505692,0.729271561463,1.00265801763e-05,-32274351.1257,1.82432714652e-05,0.0,5774322.66636,680.01085962,648.895286768,66853335.3772,1723.9016809,35079624.8701,69588887.8817,4452.01000127,4443.45339391,0.0
1.11784075646,0.773413591602,9.8472200381e-06,-15320807.2936,2.10746968616e-05,0.0,5600513.72494,682.926544028,651.844418469,66359823.1041,1780.97929188,41164522.5526,69171340.6371,4640.15698007,4630.09368169,0.0
1.05119430287,1.06829663174,1.0177988034e-05,-44655466.6322,1.36080384513e-05,0.0,5858254.18551,678.671929051,647.585942343,67099720.0838,1696.73510085,35784446.4526,70481832.9121,4363.50755121,4355.77380667,0.0
1.15486630879,0.791121439988,9.82983667374e-06,-5840583.39812,2.53461658299e-05,0.0,5543095.48011,685.19816953,654.286530249,66218635.1479,1831.25195,46771287.4671,68640135.801,4793.85004779,4784.27651887,0.0
1.13390242636,1.08918764659,9.89255798111e-06,-11083014.0591,1.8244136256e-05,0.0,5612651.02069,683.733364806,652.938699809,66412296.7673,1802.93336448,43783664.9366,67676454.0261,4706.82897182,4697.16650587,0.0
1.15159467848,1.15448070087,1.00137570697e-05,-6797565.79578,1.91568435048e-05,0.0,5584825.69677,684.680873545,654.082610685,66352489.0717,1826.86578755,46222684.9455,68759335.6263,4780.26951037,4770.84305846,0.0
1.11020293297,1.09936583339,1.00025713362e-05,-17325715.8131,1.62433025466e-05,0.0,5647255.41522,682.232857379,651.410707477,66495283.0358,1770.55415554,40114286.2225,69072851.4314,4608.45237476,4598.52091753,0.0
1.01918248087,0.841066949973,9.5653298435e-06,-75736735.7439,1.48484342501e-05,0.0,5937898.38208,678.215275312,645.567750927,67274879.6926,1653.63396024,53820262.6222,70973502.7245,4230.62647809,4223.26836856,0.0
1.13133959267,0.966004692555,1.01932224221e-05,-11436587.9256,2.00498197411e-05,0.0,5579156.20794,683.365126259,652.685276352,66295927.0698,1799.01277916,43395219.004,67507798.857,4696.19064917,4686.292402,0.0
1.0911350525,0.955093627496,1.00943370677e-05,-25408111.2067,1.69194148184e-05,0.0,5743068.78249,681.080643676,650.190862553,66787020.422,1748.80557446,36358911.5731,69165639.56,4529.30160293,4520.64529426,0.0
1.1287574618,0.868615904372,1.03163690687e-05,-11808709.857,2.13114237821e-05,0.0,5573781.04538,683.169552896,652.510125133,66278140.9055,1795.77382332,43133090.2681,67334868.8168,4685.47222393,4675.61770535,0.0
1.10226653687,0.950617774869,9.98445631761e-06,-21772736.1986,1.75767913039e-05,0.0,5720284.02876,681.874578659,650.971061827,66715848.2228,1763.52429576,37640764.2002,68545800.8573,4575.50839455,4566.67691343,0.0
0.938639097601,0.900235165712,1.02977687808e-05,-92675605.2968,1.4380879429e-05,0.0,6030785.24542,687.184083493,640.378908339,67430281.7242,1604.29182555,67866172.2123,68077411.1202,3896.29089414,3889.02843994,0.0
1.06451572566,0.957785570886,1.0243877301e-05,-36261655.0334,1.52146634502e-05,0.0,5804839.08631,679.384607024,648.435194269,66940036.4445,1713.72952479,34630774.378,70042268.3553,4418.80477721,4410.46551902,0.0
1.05575489269,0.96535253946,9.69062205303e-06,-44671593.5846,1.47105438742e-05,0.0,5807296.23947,679.421146951,647.862377431,66934952.7253,1700.06253103,35734200.4113,70446662.1587,4382.43855956,4373.4684248,0.0
1.15023892029,1.02818123241,1.00263736379e-05,-6092593.68722,2.10383090036e-05,0.0,5577187.3683,684.62999968,653.994369802,66330263.8789,1824.99056565,46795115.5379,68782018.9041,4774.64175812,4765.24166615,0.0
1.05867447273,0.700289858453,9.59991397999e-06,-43554801.0397,1.78016082689e-05,0.0,5783338.0842,679.754834233,648.034906385,66865132.6096,1704.14213827,35438216.6867,70283132.9667,4394.5577363,4385.53914136,0.0
1.18124864807,1.09677440138,9.92855070804e-06,3402456.86912,2.02871363771e-05,0.0,5441551.69994,686.592879281,655.912531296,65757295.2242,1859.55953096,51779766.2981,67036151.4873,4903.36313814,4892.21332456,0.0
0.997898287387,0.764251205358,1.00329666168e-05,-95458542.7473,1.5481960692e-05,0.0,5898499.02054,678.692960159,644.190889065,67105920.85,1622.23633901,70316329.5925,70657670.9385,4142.27579094,4134.00157899,0.0
1.07605221023,1.20983790551,1.0216254269e-05,-31579059.1307,1.34074574688e-05,0.0,5801116.04639,680.073388914,649.260702194,66955099.6916,1729.48152589,35066282.9615,69269902.6071,4466.69272466,4458.46382073,0.0
1.01932911396,0.730532695446,1.02279729884e-05,-70301379.2831,1.58500970735e-05,0.0,5856739.2296,677.679009072,645.554831862,67032981.0836,1651.92125847,49656915.847,70839896.0459,4231.23515205,4222.9456689,0.0
1.09050025281,1.19296603767,1.0037663125e-05,-25855893.6211,1.40523946201e-05,0.0,5763718.38287,680.998341789,650.16400995,66848043.2563,1747.79091952,36286905.8184,69289126.4897,4526.66654941,4518.02017497,0.0
1.07741656575,1.02837792739,1.03445645161e-05,-29728523.0059,1.53257589533e-05,0.0,5779655.76591,680.136768103,649.360222861,66886683.8391,1731.1243993,35415213.1039,69230432.7736,4472.35616443,4464.00973264,0.0
1.00966801087,0.735886704716,9.64546763853e-06,-87816130.0678,1.55222621854e-05,0.0,5964024.74754,678.243383705,644.964075757,67328296.3859,1641.48447625,63696374.6853,71053451.3933,4191.13191312,4184.08758077,0.0
1.17863175026,1.02441058321,9.75779063166e-06,2516940.58067,2.12248285537e-05,0.0,5394366.464,686.603088406,655.752331383,65742425.4027,1856.06978415,51352045.2052,67017458.9443,4892.50039533,4881.20064099,0.0
1.24191288625,0.779147424765,1.03757657211e-05,18461972.4579,3.3467750982e-05,0.0,20186831.0491,690.380104472,659.709424186,64746516.142,1930.95044527,62831356.2977,66041005.7639,5155.18039082,5143.15329308,0.0
1.05442927771,0.829681383254,9.62113111866e-06,-43635207.6157,1.56648200294e-05,0.0,5816495.26423,679.411198539,647.782357029,66957503.1271,1698.70903796,35504741.1628,70638762.4818,4376.93593177,4368.13451048,0.0
1.13411298566,1.0123102458,1.01319421123e-05,-11348598.676,2.01012051376e-05,0.0,5625891.67483,683.602841591,652.963502823,66457374.7608,1804.76293275,43538800.9442,67743215.4824,4707.70300347,4698.58207842,0.0
1.16761441985,0.757161401508,1.00320954079e-05,820760.377222,2.57601998369e-05,0.0,5428699.75707,685.912487072,655.094227581,65828680.1412,1843.92389867,50293830.1524,67540591.9716,4846.7674568,4836.17698075,0.0
0.982743365136,1.12889784148,1.00554859407e-05,-94941697.5673,1.24306546477e-05,0.0,6006896.47134,680.786418362,643.234862478,67424264.8814,1614.70354104,69860785.6302,70099587.8835,4079.36770868,4072.3587241,0.0
1.14906232212,0.844038558784,1.00611498113e-05,-7296651.21521,2.4147773859e-05,0.0,5563551.69787,684.630342032,653.896637672,66285305.4463,1823.9618054,45853790.0435,68609368.6917,4769.75769912,4760.3735681,0.0
1.08537097757,0.944414190447,1.01619800743e-05,-27151012.2374,1.66342434099e-05,0.0,5755571.11849,680.75744454,649.869478515,66817684.7792,1741.26944041,35921501.4221,69245124.3858,4505.37492789,4496.80865212,0.0
1.01935491032,0.945542747293,1.02659394599e-05,-70022408.6122,1.40876689699e-05,0.0,5866957.33823,677.558395114,645.552886707,67065139.1836,1651.83327593,49455967.8939,70852877.705,4231.34223274,4223.05233697,0.0
1.08480606498,1.17230325943,9.96838500993e-06,-27969167.1343,1.38488319253e-05,0.0,5780844.38092,680.778898144,649.842813145,66891177.2282,1740.36462495,35829440.0481,69370567.5462,4503.02997573,4494.47250295,0.0
1.19363906826,1.05607265298,9.96236751567e-06,6248963.12279,2.20216108817e-05,0.0,7775280.67861,687.441030048,656.715097527,65490415.2724,1873.75946315,53330373.7994,66666457.0912,4954.79577235,4943.09545284,0.0
1.11891482948,0.999192178708,1.01846158785e-05,-14436829.7306,1.84515730019e-05,0.0,5625210.163,682.619820978,651.922388224,66434737.5198,1782.85770287,41614069.2078,68655051.9156,4644.61545717,4634.92642847,0.0
1.1137596693,0.760322512673,1.03038911535e-05,-15955357.3787,2.13933364689e-05,0.0,5621976.06161,682.349100556,651.592294843,66406969.3617,1776.98126722,40687244.1687,69229008.9887,4623.21638726,4613.7130057,0.0
1.07232957559,1.10092178706,9.79370389443e-06,-33616494.9934,1.3778888814e-05,0.0,5819749.13861,680.048604771,648.923275566,66997470.0909,1724.05173193,34865001.306,70018586.6641,4451.24006827,4442.87606764,0.0
1.15056676795,1.04432525646,9.85674984028e-06,-7420878.18094,2.05956207715e-05,0.0,5586594.31484,684.742422744,653.991695087,66354591.4887,1825.76154871,45938687.2318,68717243.1878,4776.00265376,4766.59270773,0.0
1.0339523668,0.950013512503,9.77370149845e-06,-58748339.4965,1.41801512338e-05,0.0,5907281.54109,678.32420281,646.501156383,67220633.4682,1673.93684291,42015398.4081,71100837.5974,4291.93627459,4284.54478586,0.0
1.16139091099,0.814037511435,1.03014982626e-05,-1936795.25789,2.57415699031e-05,0.0,5437815.58361,685.41840997,654.704556704,65858728.8109,1836.74720895,48595825.9502,67575551.7381,4820.93367152,4810.49528787,0.0
1.21438987207,1.14991134472,1.03166840977e-05,12287401.8757,2.24620745979e-05,0.0,13532544.5037,688.33620121,658.007483225,65380508.8836,1899.42701476,57828434.2355,66507984.9678,5040.93235896,5029.63758083,0.0
1.14283453602,1.15996280988,9.98526453557e-06,-8869076.49179,1.79000854696e-05,0.0,5567026.89344,684.042153667,653.368662218,66269961.0847,1813.49154966,44957313.2477,68313987.0367,4743.90615902,4733.7856836,0.0
1.10279967716,0.70163319151,9.95903556722e-06,-21746827.0593,2.13908949251e-05,0.0,5696492.4732,682.060178768,651.004944211,66644201.9664,1764.43165858,37625413.3912,68499670.2264,4577.72145989,4568.88166521,0.0
1.12132972686,0.784708121684,1.03881515978e-05,-13766529.8665,2.18972856112e-05,0.0,5591250.92325,682.773814426,652.091586792,66325930.4527,1786.57989642,41901619.7646,67897009.4332,4654.6396962,4645.01027189,0.0
0.974599978934,1.17977222472,1.02154623603e-05,-94685765.5423,1.20782594258e-05,0.0,6035299.56144,681.396571872,642.715321879,67505194.0764,1611.61425499,69635632.0844,69869780.8178,4045.56451255,4039.00584171,0.0
0.938639097601,0.900235165712,1.02977687808e-05,-92675605.1388,1.43808795402e-05,0.0,6030785.11604,687.184083731,640.378908336,67430281.831,1604.29182739,67866172.0087,68077411.0895,3896.29089414,3889.02843994,0.0
1.17863175026,1.02441058321,9.75779063166e-06,2521932.00635,2.12248676029e-05,0.0,5394366.62882,686.603076527,655.752302321,65742470.2915,1856.06902101,51341759.8601,67017745.2318,4892.50039533,4881.20064099,0.0
1.07232957559,1.10092178706,9.79370389443e-06,-33614589.3994,1.37789006447e-05,0.0,5819796.20467,680.048730608,648.923335402,66997460.7476,1724.05857684,34865562.1032,70014489.8844,4451.24006827,4442.87606764,0.0
1.01808923883,1.07092571388,1.02800385896e-05,-73240925.9553,1.29010593303e-05,0.0,5929016.00687,677.416985019,645.494947756,67263618.2691,1652.58920235,51868956.5751,70792102.1519,4226.08843038,4218.92389429,0.0
1.01808923883,1.07092571388,1.02800385896e-05,-73241042.7317,1.29010596539e-05,0.0,5929183.91836,677.41701591,645.494944883,67263617.693,1652.58920492,51869054.1977,70792052.1049,4226.08843038,4218.92389429,0.0
1.13787269124,0.865435455298,1.0077337617e-05,-10034518.8612,2.15774528426e-05,0.0,5558176.8613,683.882736368,653.101189146,66235471.3848,1807.65315418,44308721.5992,67888844.8585,4723.30954134,4713.31750861,0.0
1.02765970199,1.02255953624,1.01845847648e-05,-61822977.7758,1.33810275781e-05,0.0,5860469.36742,677.79302956,646.084784855,67059482.2659,1663.04825055,43805676.287,70975758.1602,4265.81542296,4257.39194248,0.0
1.11876611178,0.903413918872,1.00727655857e-05,-14792795.3984,1.96540288297e-05,0.0,5597217.311,682.765321694,651.902614501,66341609.0462,1781.91126792,41357371.2702,68581291.2442,4643.99813,4633.91978791,0.0
1.20574989961,0.976952392988,9.87738606282e-06,9801735.66819,2.44072645997e-05,0.0,11181368.2507,688.218443521,657.420763817,65302397.3457,1888.07675196,55883595.5877,66911099.2711,5005.06783328,4993.12996804,0.0
1.17405029574,1.01098173608,9.86231093876e-06,2436170.7209,2.1207273248e-05,0.0,5453289.05731,686.189928186,655.486286841,65914776.5798,1851.67586101,51468654.9053,67199773.2411,4873.48277762,4862.89243985,0.0
1.10773631359,0.745466875909,9.91548856005e-06,-20268245.2922,2.0908212569e-05,0.0,5689414.82072,682.336773086,651.302360847,66629411.2158,1770.85645137,38340712.7261,68756247.0617,4598.21343771,4589.29388843,0.0
1.09871526801,1.09215888474,1.00851921144e-05,-23002206.2956,1.58125301482e-05,0.0,5731948.14446,681.5289488,650.736072093,66750260.1446,1758.57622145,37157918.755,68861250.2238,4560.76707751,4551.99178304,0.0
1.1767430697,0.948611782412,9.92237484131e-06,2415837.39974,2.26687586736e-05,0.0,5431934.38301,686.386101504,655.648480624,65855139.3286,1855.40665089,51297041.9974,67119816.2863,4884.66048232,4874.01619411,0.0
1.21430873121,0.751064853021,1.03305769676e-05,12478731.5842,3.09737203389e-05,0.0,13703583.295,688.660468546,658.0039724,65161655.6964,1899.78045582,57937845.3184,66291458.3964,5040.59554325,5029.18994775,0.0
1.18708730085,0.899486860069,9.770040545e-06,4558494.74291,2.42332676926e-05,0.0,6224891.96058,687.21504674,656.256909779,65557305.5106,1866.3099881,52485898.0092,66887785.4617,4927.59938583,4916.01367764,0.0
1.13787269124,0.865435455298,1.0077337617e-05,-10022184.5744,2.15781857076e-05,0.0,5558175.42037,683.884122213,653.102429839,66235536.4778,1807.65300706,44295596.2969,67895335.1467,4723.30954134,4713.31750861,0.0
1.14627860143,1.02318220475,1.01044310209e-05,-7589704.69641,2.03316499794e-05,0.0,5535489.45272,684.247295856,653.58657993,66181499.8621,1817.92594727,45623506.1162,68543034.1686,4758.20247454,4748.02465347,0.0
0.991818708155,0.948533371267,1.04052201636e-05,-95137942.747,1.40109712004e-05,0.0,5911390.759,678.549846878,643.799667482,67143580.2074,1614.23530523,70033884.757,70291618.801,4117.03945755,4108.94384145,0.0
1.12895618638,1.10426907303,9.70412119106e-06,-12673744.6327,1.74505167088e-05,0.0,5639621.79352,683.516199685,652.602067923,66499691.1968,1796.64505953,42738295.2779,68008898.6204,4686.29712966,4676.71741327,0.0
1.04390902181,0.865532015782,1.01240517837e-05,-50424170.6384,1.53876899106e-05,0.0,5863068.98099,678.574654747,647.217996581,67104682.9154,1687.35843436,37755143.6483,70772617.1738,4333.26634953,4325.73251271,0.0
1.04946290938,0.858555347331,1.03210977312e-05,-45173234.8417,1.56999861271e-05,0.0,5795196.94845,678.662841395,647.467457895,66898060.312,1692.14772374,35867091.2805,70338958.8859,4356.32053684,4347.544462,0.0
1.24046022173,0.940055998857,1.00745647008e-05,17794298.6109,2.86631776173e-05,0.0,19336035.8282,690.306928852,659.637414072,64917208.4899,1929.4282693,62334429.4681,67041970.0478,5149.1503804,5137.14273536,0.0
1.10620864264,1.0680787068,9.88653683206e-06,-18862141.8006,1.61877262883e-05,0.0,5664074.90861,682.11855933,651.183416059,66536467.5502,1765.56571601,39250719.0245,68822183.8046,4591.8720756,4582.01059981,0.0
1.04097258257,0.935858146446,1.0306642314e-05,-49614070.4854,1.45795105258e-05,0.0,5821052.57695,678.214730397,646.906128802,66959982.3501,1680.7913737,37340930.5611,70876640.2987,4321.07719025,4312.43826799,0.0
1.06203084504,1.17854292879,1.04650099162e-05,-36545145.0421,1.29018134508e-05,0.0,5815750.26311,678.998757248,648.275363719,66972759.7632,1710.29818619,34615626.1536,70043172.7582,4408.49003776,4400.18922482,0.0
1.14269872225,0.895907550968,1.03084188351e-05,-7974734.88626,2.2303957733e-05,0.0,5516047.44706,684.076759987,653.420446338,66114352.2869,1813.2142027,45199749.9478,68331459.3488,4743.34239606,4733.14781914,0.0
1.18411915305,0.866317264812,1.03459956864e-05,4859751.68004,2.52655948071e-05,0.0,6382183.85155,686.665323785,656.084979663,65594132.0209,1863.56230065,52384457.4546,66783521.9896,4915.27860431,4904.29068987,0.0
1.02765970199,1.02255953624,1.01845847648e-05,-61822949.8512,1.33810280796e-05,0.0,5860481.92665,677.793030121,646.084784454,67059481.9433,1663.04824275,43805637.9123,70975742.8799,4265.81542296,4257.39194248,0.0
1.11166901806,0.971458293599,9.57089403809e-06,-18338133.5238,1.77641735679e-05,0.0,5633417.30357,682.728290327,651.513217959,66447057.2754,1772.31980615,39601250.193,68952315.4606,4614.53809397,4604.2960803,0.0
1.16452800721,0.959252634335,9.96487089272e-06,-612341.724146,2.15551448423e-05,0.0,5437708.66641,685.676751559,654.892609332,65866586.3896,1838.92475756,49590545.4844,67709645.4966,4833.95575793,4823.00161196,0.0
1.27081008002,0.846175686698,1.0615158951e-05,23934267.9181,3.60595734393e-05,0.0,25671180.8497,692.115101869,661.506929352,64167591.6981,1961.97543593,66783289.9825,67663034.8541,5275.13264216,5262.23706045,0.0
1.03925606866,0.903448873574,1.01867684554e-05,-52090796.8166,1.46225303344e-05,0.0,5836981.42792,678.266719241,646.820881719,67009101.1218,1679.06588611,38418641.8959,70873084.4068,4313.95194101,4305.51642117,0.0
1.17357754733,1.15015428963,9.8957223109e-06,1782224.1589,1.89011605487e-05,0.0,5437002.00564,686.108038839,655.450619032,65860660.801,1850.00069863,50969246.7823,67126311.8674,4871.52039897,4860.50965523,0.0
1.15230570055,0.912544804202,1.01264574001e-05,-4760732.35809,2.28820571947e-05,0.0,5526002.22859,684.788058772,654.110770829,66146263.3881,1826.44274359,47374878.5847,68536632.9666,4783.22096298,4773.36139237,0.0
1.16067507831,1.05589761722,1.02531442645e-05,-1323300.17959,1.99480518785e-05,0.0,5441900.91277,685.207499218,654.646189623,65868831.3154,1833.71479378,49025096.8098,67689199.1544,4817.96225006,4806.98767021,0.0
1.15947733976,0.919221250469,1.02633138877e-05,-1276615.56243,2.21916541886e-05,0.0,5429159.84599,685.21883545,654.570105404,65817500.6843,1832.25485602,49025871.2513,67700037.5517,4812.99043734,4802.03334007,0.0
1.04280064769,0.880580925413,1.0039838272e-05,-50441321.3148,1.51736607568e-05,0.0,5825626.99965,678.541030478,647.021453956,66977267.7027,1683.42618919,37699414.903,70922856.9937,4328.66548856,4320.08640793,0.0
0.913741071548,0.909821065964,1.01467306005e-05,-91661807.1187,1.37904765061e-05,0.0,6100976.98629,690.626034752,638.777407656,67599212.944,1597.69934224,66973740.0853,67599212.944,3792.939188,3786.08601246,0.0
1.01503538423,0.929179187566,9.74369856637e-06,-80219111.4655,1.39688863914e-05,0.0,5955764.96118,677.957775805,645.293062456,67320771.693,1648.65037535,57376609.754,70851923.3531,4213.41187994,4206.29035478,0.0
1.11876611178,0.903413918872,1.00727655857e-05,-14794548.8092,1.96594492482e-05,0.0,5597117.37132,682.771144431,651.902763333,66342319.0538,1781.90701036,41355758.2008,68589141.4895,4643.99813,4633.91882968,0.0
1.18244548367,0.763356353696,9.76472519642e-06,4201697.93393,2.66586505867e-05,0.0,6089086.02387,686.95835584,655.995696566,65716535.3242,1862.22990052,52405855.3711,66995290.8046,4908.33120271,4897.48930996,0.0
1.00649294718,0.870313911873,1.01396854451e-05,-88224583.4082,1.47484473038e-05,0.0,5878633.27789,677.840154733,644.739419941,67060121.237,1633.6575427,64041433.895,70706048.904,4177.95222374,4169.53799037,0.0
1.13950627522,1.03675976667,1.00859649099e-05,-9485016.20312,1.9616267407e-05,0.0,5551471.71497,683.992714216,653.26535085,66212397.1244,1809.04140079,44631478.3933,68060003.6953,4730.09054844,4719.92543995,0.0
1.11626048564,0.734646101995,9.4534947578e-06,-16632755.7758,2.11216154552e-05,0.0,5640767.04764,683.139384131,651.799805558,66485397.6706,1779.94733936,40432202.0253,69267840.8979,4633.59727589,4623.85475613,0.0
1.00762743009,0.798103139144,1.00606233644e-05,-84785550.8092,1.50986206973e-05,0.0,5893693.10863,677.868036039,644.811284384,67098231.2039,1635.89993834,61126725.5065,70733534.5976,4182.6614623,4174.52867955,0.0
1.13536394116,0.825112300874,1.04136888549e-05,-10425456.5633,2.34819986126e-05,0.0,5592777.26973,683.582813873,653.036413989,66364587.6048,1806.43961583,43944515.9389,67837501.398,4712.89571976,4703.75498267,0.0
1.05537500925,1.10147530116,1.01159208073e-05,-42466899.243,1.36502637761e-05,0.0,5807614.34149,678.979482947,647.818233967,66938301.6048,1699.87245542,35163795.1006,70095929.5758,4380.8616634,4372.07700681,0.0
1.16619801467,0.987880282838,1.00297193861e-05,189965.626308,2.12661748719e-05,0.0,5431045.4908,685.705730571,654.993824226,65829826.3041,1840.75725528,50034857.0035,67648468.7344,4840.8879589,4829.90543156,0.0
0.983903862024,0.968421463164,9.88641060892e-06,-95177507.1301,1.35055374857e-05,0.0,6002311.10484,680.466576673,643.31069588,67396171.8801,1612.37479234,70068466.3969,70309569.9714,4084.18493126,4077.08178297,0.0
1.12259700432,1.01449075929,9.7212008522e-06,-14662852.765,1.8214135311e-05,0.0,5661374.50353,683.118613504,652.174373016,66564773.9089,1788.81898271,41576200.0511,69030051.9716,4659.90016493,4650.55187657,0.0
1.09580668333,0.961428115324,1.01456234133e-05,-23707225.4989,1.72806252838e-05,0.0,5727954.99837,681.352240405,650.524969906,66732078.2697,1754.89470025,36865672.4651,68977520.7549,4548.6935425,4539.96398223,0.0
1.20574989961,0.976952392988,9.87738606282e-06,9798241.74398,2.44072346689e-05,0.0,11180533.6298,688.218398221,657.420753616,65302396.2444,1888.07670762,55881975.0487,66911102.1942,5005.06783328,4993.12996804,0.0
1.07799501343,1.07056680507,1.00502586993e-05,-30240262.8799,1.45741744297e-05,0.0,5788918.5137,680.348441702,649.385421635,66906623.7103,1731.51508022,35424251.9137,69333740.9457,4474.75730075,4466.30567171,0.0
1.27496088576,0.853275379278,1.02481341415e-05,24377941.3558,3.49069669358e-05,0.0,26151033.4412,692.475665899,661.779240702,64299194.166,1968.06561097,67188387.802,68091039.4276,5292.36263679,5279.71017208,0.0
1.11513371735,0.617950001556,9.83115745183e-06,-16201118.4296,2.3874806362e-05,0.0,5595830.59965,682.914116553,651.695538043,66330576.4373,1777.98744805,40744510.8519,69200825.4529,4628.92006072,4619.00157699,0.0
1.04277277157,0.808397756022,9.9990119069e-06,-50741927.2633,1.58808235585e-05,0.0,5822566.39028,678.60044169,647.016661941,66967261.4782,1683.4371058,37820752.7731,70907225.9084,4328.54977479,4319.97114438,0.0
1.16024693168,0.923078142302,1.03066458167e-05,-2147785.77396,2.21199841569e-05,0.0,5441011.23522,685.238608009,654.626585208,65868981.0656,1834.01511063,48290840.1447,67626417.2285,4816.1850134,4805.42255321,0.0
1.16454317324,1.08379113444,1.0392480813e-05,437305.435873,2.00320360572e-05,0.0,5468549.6399,685.270982981,654.897725904,65942408.2318,1839.70053528,49982273.8636,67537003.0541,4834.01871212,4823.60005945,0.0
1.05138931962,0.817487035962,9.81505739838e-06,-44459433.4667,1.56868479403e-05,0.0,5815654.4926,679.121309697,647.595660245,66952317.9201,1694.69422989,35682030.0769,70564136.3111,4364.31706574,4355.56664807,0.0
0.969855116759,1.01095381578,1.01624385504e-05,-94204623.0577,1.37593220783e-05,0.0,6022495.02439,682.991261302,642.404642103,67462551.0096,1614.64033223,69211898.2192,69441312.5801,4025.86858967,4019.0727261,0.0
1.1521568255,0.982221105985,9.99494798244e-06,-6615973.38763,2.19623685422e-05,0.0,5568168.34008,684.815822072,654.116646015,66301875.9489,1827.77198577,46263438.3045,68711926.3841,4782.60298265,4773.16749898,0.0
1.00458873925,1.18544150383,1.01632699014e-05,-89636455.9921,1.15632700563e-05,0.0,5955377.27278,677.53955776,644.630125784,67287440.1136,1633.18862259,65253454.3055,70848575.9847,4170.04785663,4162.64222692,0.0
0.988815825805,1.11621811184,9.92695728854e-06,-95405402.5502,1.2141537306e-05,0.0,5997823.83513,679.55221563,643.625173203,67390844.4119,1612.89291091,70268939.9208,70511646.2923,4104.57449292,4097.39982672,0.0
1.11691659334,1.02946793847,1.00559958339e-05,-15368645.9428,1.7788834087e-05,0.0,5615913.34823,682.593940459,651.784318878,66396194.2618,1779.39229677,41130179.8114,69082043.4757,4636.32077895,4626.27439085,0.0
1.17405029574,1.01098173608,9.86231093876e-06,2437029.37348,2.12072645669e-05,0.0,5453290.49269,686.189939341,655.486285715,65914781.2673,1851.6758504,51468264.7989,67199608.364,4873.48277762,4862.89243985,0.0
1.08928841502,1.1678917682,1.03136440537e-05,-25573912.129,1.45419599538e-05,0.0,5758388.65174,680.736753096,650.077547174,66824579.573,1746.56760578,36297517.4165,69180249.0146,4521.63621075,4513.10674351,0.0
1.05638248029,1.09938095334,1.03981882001e-05,-39417166.164,1.33600249723e-05,0.0,5827017.56613,678.767069173,647.905494103,66995894.2026,1702.82450139,34772293.0316,69663147.9246,4385.04367568,4376.83143003,0.0
1.1258551177,0.945900493233,9.87733425453e-06,-13316825.2572,1.96032851005e-05,0.0,5581948.59447,683.349171448,652.38252727,66303464.9898,1791.03707618,42231090.8318,67807412.7882,4673.42459357,4663.22293814,0.0
1.03578391949,1.17600134094,9.71290625069e-06,-58032872.6794,1.21908668394e-05,0.0,5916774.34345,678.374172601,646.62072315,67252200.6546,1676.23277884,41644559.9798,71209099.5579,4299.5390498,4292.12263295,0.0
1.14154627557,1.12203458377,1.00993505421e-05,-9040832.57539,1.84309200833e-05,0.0,5562733.36273,683.906442444,653.288268181,66256872.1975,1811.85663997,44905738.3189,68243491.1373,4738.55858989,4728.46182713,0.0
1.10162082423,1.07756337353,1.01194216367e-05,-22019993.4557,1.62558091199e-05,0.0,5720927.21657,681.694690083,650.929774324,66721907.9768,1762.36210393,37556617.53,68555150.4647,4572.82804138,4564.006963,0.0
1.05931634631,0.702487082197,1.02346028714e-05,-38637625.4279,1.76016155964e-05,0.0,5802895.70845,679.201086541,648.097775896,66924310.3452,1706.98618766,34689406.8072,69775287.2349,4397.22215353,4388.96471094,0.0
1.25732124809,0.842844845971,9.91733583018e-06,20949671.4725,3.28125645381e-05,0.0,22770613.6934,691.612813583,660.657257567,64502653.7194,1948.05823771,64740773.4465,65596103.9451,5219.14050082,5206.36637219,0.0
1.03458279663,1.07497053631,9.94549601972e-06,-58303662.1747,1.31182470936e-05,0.0,5859377.33223,678.231468188,646.51868983,67068908.9104,1672.38614184,41683266.7528,71128236.0602,4294.55318881,4286.10505642,0.0
1.18487940909,0.993094886929,1.02463668819e-05,5152374.65903,2.28833808137e-05,0.0,6719244.49593,686.649515295,656.136987394,65692133.6942,1864.74304986,52705295.1894,66935379.3594,4918.43442713,4907.65000991,0.0
1.11358869754,1.0654619712,1.00948005621e-05,-16374755.1016,1.69883092647e-05,0.0,5634421.66983,682.352527296,651.592498006,66453589.5641,1775.26022726,40571902.4407,69280444.3308,4622.50668349,4612.61471584,0.0
1.11764930392,0.919264401238,1.03736986461e-05,-14829697.2013,1.95260756269e-05,0.0,5617863.95902,682.466611883,651.850288325,66401428.3503,1781.73718305,41341470.2311,68635955.9649,4639.36226057,4629.79419884,0.0
1.09871526801,1.09215888474,1.00851921144e-05,-22989208.18,1.58125155703e-05,0.0,5731971.81852,681.528559854,650.735782803,66749811.2455,1758.57004247,37141537.6449,68862880.8644,4560.76707751,4551.99178304,0.0
1.02271995042,0.702362225324,1.01872391075e-05,-67526618.2545,1.62324086411e-05,0.0,5848491.45135,677.796223519,645.769544886,67016190.9493,1656.46974084,47653825.4226,70825225.5314,4245.31051419,4236.96672231,0.0
1.06248203368,0.961121187052,1.02019691845e-05,-36966690.3007,1.49345946094e-05,0.0,5808317.85289,679.295297568,648.300483233,66941204.6172,1710.73422555,34623334.0085,70032352.6484,4410.36292181,4401.96187752,0.0
1.13602772522,1.00461635734,1.01766814655e-05,-10495894.7052,1.98056290219e-05,0.0,5571550.3399,683.73970556,653.068594045,66284264.7038,1805.22489011,44044592.51,67816722.1561,4715.65108739,4705.77404953,0.0
1.11231429504,1.18861848837,9.61110807157e-06,-17854816.5188,1.49307506844e-05,0.0,5690339.2969,682.574648228,651.56674443,66626745.5676,1774.54063744,39873175.3978,69146542.7544,4617.21663871,4607.63871529,0.0
1.0052764284,0.915798002347,1.01179227909e-05,-89749447.7933,1.43743611034e-05,0.0,5884891.15402,677.898005766,644.660427819,67077239.7179,1632.00574196,65347982.8584,70718319.3445,4172.90245429,4164.5082577,0.0
1.163527091,1.11190655894,9.83689665535e-06,-2223342.04017,2.0384422306e-05,0.0,5539624.01057,685.58401849,654.867290636,66213790.3654,1841.21151303,48891429.5914,68333447.1865,4829.80095474,4820.06206955,0.0
1.10515569121,0.869483077689,1.02077464997e-05,-18801510.5102,1.91130337414e-05,0.0,5617951.0115,681.951483085,651.098530032,66394329.6697,1763.65440501,39329844.064,68718761.8901,4587.50127421,4577.46916178,0.0
1.24409268979,1.01207831143,1.01261422275e-05,18592453.3704,2.76405368738e-05,0.0,20225876.3065,690.444933481,659.850252206,64889944.8771,1933.43415062,62974502.7475,66271374.4737,5164.22875532,5152.16160951,0.0
1.07916245537,0.864979583083,1.05904094542e-05,-28614775.0249,1.76487394489e-05,0.0,5756901.84126,680.135048015,649.482193147,66816843.6095,1733.75377202,35521096.0674,69083203.7923,4479.60335224,4471.32563759,0.0
1.0892641279,1.03366489454,1.03732985434e-05,-25394556.9311,1.61402069388e-05,0.0,5747012.46497,680.74457241,650.070970247,66791684.4378,1746.63009756,36316931.519,69113789.2939,4521.53539491,4513.00630379,0.0
1.07234398762,1.01656912457,9.71654447458e-06,-33865776.6654,1.4679976745e-05,0.0,5817162.76165,680.148719349,648.93141541,66988621.7164,1724.13792659,34835510.3739,70067845.7553,4451.29989261,4442.93566954,0.0
1.1767430697,0.948611782412,9.92237484131e-06,2415807.65237,2.26688095503e-05,0.0,5431954.30538,686.388507491,655.649355419,65855523.5646,1855.40597365,51299265.1733,67119617.5951,4884.66048232,4874.01619411,0.0
1.08922392877,0.987103852817,9.6220429904e-06,-27121278.2528,1.59133530283e-05,0.0,5768589.02968,681.340999397,650.120204983,66860111.3826,1746.0924812,36098449.3343,69441667.8714,4521.36852832,4512.64434276,0.0
1.1326596712,0.713136313385,9.97044946211e-06,-10530671.9002,2.39550893481e-05,0.0,5548934.02631,683.84126221,652.851949586,66212641.6296,1800.54077343,44116737.8265,67587654.1747,4701.67029515,4691.65047477,0.0
1.02334806038,0.942968046206,1.00138098918e-05,-67577376.0153,1.39683486252e-05,0.0,5924030.44482,677.788185863,645.832232026,67255978.1627,1659.82598705,47731283.6132,70957516.3129,4247.91779864,4240.67817068,0.0
0.945676017882,1.23014883845,1.02238682558e-05,-93255081.209,1.13997131624e-05,0.0,6089048.8437,685.905619514,640.847576329,67624377.2617,1606.84951979,68375963.7535,68593216.9828,3925.50115023,3919.04361965,0.0
1.04821574148,0.783989166876,9.77510781029e-06,-47117436.6861,1.61573637728e-05,0.0,5818229.17141,679.024601525,647.389612595,66952756.0748,1690.36542452,36578052.9409,70434472.324,4351.14354288,4342.44506878,0.0
1.13392778562,0.985942366039,1.00532894046e-05,-10476203.5912,2.02498090418e-05,0.0,5621892.87222,683.635755663,652.950177619,66454497.1633,1803.99891823,44284212.7812,67840498.8603,4706.93423811,4697.71414485,0.0
1.09317763763,0.966662060193,1.00914920459e-05,-24744924.6024,1.69595299384e-05,0.0,5738258.34891,681.195962336,650.321159633,66774713.4776,1751.46182648,36552168.9368,69081644.0202,4537.7803738,4529.09206825,0.0
1.24157641361,0.933886405579,1.02148411417e-05,18204340.2646,2.9223998576e-05,0.0,19818661.4191,690.298796583,659.693979787,64875718.3713,1930.51501212,62628026.6502,66855615.0384,5153.7836929,5141.76277234,0.0
1.27764662938,0.770262802299,1.03138221989e-05,24840753.0907,3.95329245769e-05,0.0,26553290.9822,692.861810475,661.922023836,63991219.0524,1970.65541491,67349265.9163,68310104.5746,5303.51115856,5290.2986742,0.0
1.09718144286,0.787343513397,1.04872113874e-05,-20882358.1476,1.96547774012e-05,0.0,5632062.44468,681.362831146,650.616840335,66415716.1821,1753.9858958,38179221.5653,68187820.4259,4554.40016931,4544.60056378,0.0
1.12274653775,0.980277909169,1.0121306766e-05,-13542474.3747,1.89914771459e-05,0.0,5610578.79791,682.930587898,652.18310816,66394897.2115,1787.83994794,42254889.0253,68003233.6599,4660.5208782,4650.76827826,0.0
1.13230400414,0.992062783641,1.0089510943e-05,-11424867.7031,1.96685527058e-05,0.0,5583030.69222,683.481338384,652.749681983,66306332.3538,1800.24890652,43502600.0926,67548217.2575,4700.19392119,4690.27932192,0.0
1.21430873121,0.751064853021,1.03305769676e-05,12479391.08,3.09737014475e-05,0.0,13705385.9904,688.660469991,658.003971673,65161568.2207,1899.78010629,57927529.6161,66291259.9812,5040.59554325,5029.18994775,0.0
1.13432055661,1.08141489875,1.0054568538e-05,-11185948.5079,1.8468875482e-05,0.0,5604662.60353,683.664787855,652.965753382,66393245.5427,1803.63415045,43682860.6434,67663141.6369,4708.56463049,4698.92056302,0.0
1.03027207638,1.10794590248,1.02721515427e-05,-60119378.1502,1.28776005617e-05,0.0,5852244.52101,677.775533833,646.245952644,67040615.1827,1666.29847267,42743800.9735,70996239.9342,4276.65938905,4268.19412384,0.0
1.17462363969,0.838526130199,1.00675197702e-05,2409977.39971,2.45829428285e-05,0.0,5369399.51296,686.301092477,655.496860847,65654733.9957,1851.07035159,51136081.28,66913189.1087,4875.86272835,4864.62427262,0.0
1.27540356664,1.0606906977,1.02022998661e-05,24142039.5147,3.09354130428e-05,0.0,25909817.4339,692.467976908,661.794565368,64239122.5611,1967.55865866,66981661.9534,67953181.3554,5294.20020512,5281.01642277,0.0
1.14252031413,0.749429424533,9.79760308811e-06,-8006653.62246,2.42337827045e-05,0.0,5534829.71023,684.352509004,653.352797677,66183020.6984,1813.30922843,45785800.2999,68287516.6248,4742.60182395,4732.49221456,0.0
1.19321127429,0.682853255469,9.8833709182e-06,6263179.95918,3.02553720828e-05,0.0,7821963.88262,687.799703176,656.678537924,65316302.8775,1874.0731534,53348770.5037,66538908.3856,4953.01999958,4941.32760811,0.0
1.12632710279,1.07947771083,1.03503878199e-05,-12458637.8664,1.80654763789e-05,0.0,5599970.3704,682.870689239,652.344270416,66355101.1445,1792.42270988,42821159.6792,67223464.0233,4675.38380368,4665.57037314,0.0
1.01862663778,0.787136196254,9.9558879158e-06,-73913732.6158,1.51554411319e-05,0.0,5931724.35869,677.830057123,645.532087498,67263984.7017,1653.60966901,52386822.76,70850088.724,4228.31917342,4221.14672702,0.0
1.15374997023,1.03042089435,9.71472122317e-06,-5343304.49329,2.01226607112e-05,0.0,5493553.26886,685.129217117,654.190955588,66059192.2268,1826.02669182,47212095.3888,68397265.4578,4789.21612642,4778.42834395,0.0
1.15045220298,1.00565417138,1.03248048023e-05,-4408790.08375,2.0068653544e-05,0.0,5522527.23516,684.334615439,653.890980103,66133393.8195,1822.80278862,47467469.8171,68030897.0479,4775.52709457,4765.3488057,0.0
0.984797296667,1.10077049652,9.60812149126e-06,-95116146.4902,1.28943618858e-05,0.0,6017396.3979,681.738867356,643.370217063,67454019.3915,1619.65368334,70014404.8458,70254430.1957,4087.89357846,4080.85603635,0.0
1.18708730085,0.899486860069,9.770040545e-06,4585966.59346,2.42149031035e-05,0.0,6207138.71388,687.218612967,656.2609764,65559463.9472,1866.33244583,52478205.721,66886755.3541,4927.59938583,4916.02025852,0.0
1.1108061568,1.15740019748,1.02194834767e-05,-17068333.2933,1.5723757365e-05,0.0,5673490.62272,682.041575007,651.445772274,66566347.9924,1772.64086425,40195287.1421,69172419.6889,4610.95635688,4601.60013749,0.0
0.996215347096,1.10337207871,1.02090327628e-05,-95395006.6282,1.27558263862e-05,0.0,5917481.25111,678.458819422,644.082406866,67166613.5236,1619.97265583,70260214.5465,70617488.505,4135.2899058,4127.12361345,0.0
1.09718360201,0.948223292412,9.59496605923e-06,-24476955.2242,1.69431870451e-05,0.0,5744415.23981,681.781848635,650.580986099,66796822.3301,1756.53377066,36764145.3991,69277760.8519,4554.40913194,4545.55919392,0.0
1.03194048302,0.83593016054,1.01105474033e-05,-58410048.4145,1.51247255048e-05,0.0,5843282.79876,678.068924253,646.350136529,67012914.1452,1668.84811729,41713157.0994,70956826.5899,4283.58494502,4275.09242874,0.0
1.09823426604,0.7471441314,9.96335013307e-06,-23165476.1735,2.01533445409e-05,0.0,5714480.76355,681.73464444,650.692199386,66705000.631,1758.41994745,37067192.2667,69058417.2635,4558.77043833,4550.0026024,0.0
1.20053874884,1.09824821122,9.66245079662e-06,8625533.97029,2.13220664378e-05,0.0,10083581.7228,687.918679052,657.166304,65637707.6863,1883.39007026,55195342.9947,66908205.1359,4983.43634643,4972.24887603,0.0
1.14921734933,0.884944059271,1.00179091737e-05,-7361076.96441,2.33630406102e-05,0.0,5568894.15728,684.642022591,653.903778319,66301300.6252,1824.13601544,45838719.0539,68623401.3933,4770.40121707,4761.01460037,0.0
1.09294867673,0.984332997283,9.85371327906e-06,-25315320.8934,1.64686343149e-05,0.0,5753079.72742,681.342445165,650.308999079,66815003.2043,1751.29963163,36469665.8394,69302615.5785,4536.82995711,4528.145131,0.0
1.10072373445,1.10243647822,9.3574111385e-06,-23807759.3118,1.51411178899e-05,0.0,5757531.94359,682.101936575,650.830220549,66837241.2092,1761.18195506,37085116.6254,69468321.4923,4569.1042217,4560.19638166,0.0
1.2246602792,0.993941518921,9.62041955404e-06,13363356.8599,2.53941500257e-05,0.0,14674570.7453,689.595661,658.656688041,65105374.9054,1910.76656642,58732188.9168,66469769.732,5083.56481896,5071.28514405,0.0
1.10295682136,1.09006179161,1.00777119004e-05,-21721941.8423,1.61733314518e-05,0.0,5719883.97768,681.794474009,651.01413461,66721030.8042,1764.11764384,37694163.9366,68625782.8936,4578.37376547,4569.53096283,0.0
1.14627860143,1.02318220475,1.01044310209e-05,-7589682.1718,2.03316177805e-05,0.0,5535502.12576,684.247407749,653.586660675,66181247.1683,1817.92688567,45624535.482,68543156.5834,4758.20247454,4748.02465347,0.0
1.11303025711,1.17755762263,1.03510637008e-05,-16178105.6382,1.57723665014e-05,0.0,5658247.83351,682.063790667,651.550314429,66518478.9154,1775.59366248,40597905.3106,69292986.1786,4620.18859726,4610.696414,0.0
1.00876451662,1.033509019,9.37701168224e-06,-90991841.2454,1.31262311657e-05,0.0,5981379.34639,678.553692501,644.90474046,67368825.1907,1639.44869074,66424105.3638,71328950.0937,4187.38150849,4180.17377404,0.0
1.16033795553,1.10502777111,9.79510981292e-06,-3125557.5281,1.86493999074e-05,0.0,5480457.20768,685.457340817,654.642910073,66006608.0497,1833.94251856,48141044.4317,68141550.1906,4816.56285341,4805.68303343,0.0
1.16084573193,1.05791617707,9.66218432687e-06,-3469182.70466,2.04940807081e-05,0.0,5525081.69604,685.599525905,654.69753105,66172356.2682,1837.06057777,48171888.491,68344820.9459,4818.67063324,4808.54469298,0.0
1.13751154554,0.909729424087,1.00412981649e-05,-8899994.02304,2.1538980943e-05,0.0,5587692.22083,683.88602799,653.160405526,66342127.3958,1807.74245042,45353455.1357,68104572.0624,4721.81042554,4712.29437507,0.0
1.0439379725,1.06921814874,1.003699491e-05,-49577306.3363,1.34270473511e-05,0.0,5834912.64171,678.537978782,647.111631682,67008479.3354,1684.80430592,37282943.9547,71028280.1973,4333.38652385,4324.78906594,0.0
1.11581710324,1.22977858584,1.02740871269e-05,-15567362.5191,1.53693783224e-05,0.0,5656241.74442,682.25610174,651.72179264,66515642.8975,1779.14481966,40908774.0805,69208457.6037,4631.75679555,4622.21830801,0.0
1.14766044723,1.16996198021,9.68192077422e-06,-6920031.15149,1.78739114415e-05,0.0,5576331.04918,684.5787191,653.762735855,66310816.478,1819.90406343,46472397.8362,68741655.019,4763.93851645,4753.94573443,0.0
1.0539298989,0.807453082424,9.55519107698e-06,-42948194.868,1.56412942648e-05,0.0,5835464.9722,679.529232887,647.842531547,67009287.8795,1698.87921991,35377346.8946,70742546.7,4374.86301033,4366.4120703,0.0
1.14599530776,0.936320714555,9.92811994491e-06,-8578268.95382,2.20622576876e-05,0.0,5589466.91146,684.431826728,653.659481392,66357663.4255,1820.05759202,45295394.2752,68396338.5072,4757.02652251,4747.6915123,0.0
1.11574607878,0.959559389562,9.74870689491e-06,-16324918.3022,1.82034357835e-05,0.0,5636092.63031,682.782375697,651.739850306,66467537.6721,1778.33958133,40664417.6902,69336050.9802,4631.46197302,4621.53296978,0.0
0.991818708155,0.948533371267,1.04052201636e-05,-95139132.8916,1.40079496434e-05,0.0,5911346.88778,678.546802055,643.799644534,67143633.3267,1614.23302255,70034930.5313,70288177.0474,4117.03945755,4108.94379133,0.0
1.04897953999,0.888388982121,1.01695063256e-05,-46026169.0209,1.5350386416e-05,0.0,5804375.42653,678.741382164,647.428796268,66922662.6059,1691.46688558,36052644.6636,70366126.1334,4354.3140705,4345.54590592,0.0
0.972857343897,0.915306040796,1.03772808638e-05,-94346427.5584,1.43907608663e-05,0.0,6017302.57369,681.879679151,642.600703513,67459275.9514,1613.34345179,69336952.896,69568658.9701,4038.33083452,4031.79016973,0.0
1.08873480604,0.823847870688,1.00925205418e-05,-26191156.0688,1.83246068224e-05,0.0,5740742.26723,681.031029839,650.065608257,66775654.0188,1745.77510413,36146790.487,69207511.8919,4519.33817987,4510.71940906,0.0
0.993757857639,0.951579604449,1.00082874898e-05,-95337641.2962,1.40074700023e-05,0.0,5919863.68549,679.120951171,643.924656754,67165063.6391,1616.56500628,70209598.4785,70483280.9806,4125.08886706,4116.88179577,0.0
1.07313436029,1.01289361002,1.00691750087e-05,-31882024.2906,1.49490174258e-05,0.0,5790192.33472,679.882945958,648.924022812,66904573.9469,1724.49311323,35134243.8133,69583895.1966,4454.58072956,4446.01456096,0.0
1.05683864985,0.963551011188,1.0354966352e-05,-39351034.9636,1.47754655804e-05,0.0,5819249.50474,678.879075091,647.936959527,66971892.1331,1703.52175038,34758567.2485,69662021.3174,4386.93723553,4378.71796917,0.0
1.15017721266,0.897043068379,9.86734967433e-06,-7444541.67973,2.30639304771e-05,0.0,5574108.59897,684.788237573,653.964663004,66315373.9842,1825.42277587,45891569.0032,68657390.352,4774.38560975,4764.98191601,0.0
1.16940603563,0.660389914027,9.83153675588e-06,868046.631787,2.7894071904e-05,0.0,5391525.53589,686.273356426,655.200864377,65731091.0925,1845.71214127,50450750.5098,67552605.8596,4854.2044539,4843.26821141,0.0
1.22130953438,1.11494975002,9.80548546125e-06,12897953.5269,2.2794030939e-05,0.0,14167474.8366,689.144860563,658.443400948,65237171.7133,1906.95459851,58380860.0533,66496346.2971,5069.65587721,5057.69496913,0.0
1.14335685132,0.99134246095,1.00850294988e-05,-8426987.48028,2.06017948743e-05,0.0,5543627.39861,684.085682938,653.382480974,66201278.3005,1814.3054224,45177627.5347,68332948.9614,4746.07428983,4735.94494275,0.0
1.14772281495,0.801614445888,9.69101629138e-06,-6752212.68689,2.38221100352e-05,0.0,5538687.00541,684.803369391,653.772161792,66195289.1893,1820.41628408,46549219.4548,68638106.0839,4764.19740486,4754.20356941,0.0
1.12895618638,1.10426907303,9.70412119106e-06,-12677315.0353,1.74508690183e-05,0.0,5639831.91644,683.51739834,652.60276619,66499896.218,1796.64422801,42749905.7174,68015695.1209,4686.29712966,4676.71741327,0.0
1.17799582039,1.01200824567,1.04244103554e-05,3423759.46266,2.21554909684e-05,0.0,5469578.80843,686.133662043,655.692657906,65673625.9767,1855.54875937,51549944.2156,66918892.8966,4889.86065044,4878.87494548,0.0
1.2030672032,0.863168165211,9.6946424845e-06,9366154.35453,2.61108640423e-05,0.0,10770241.4051,688.197094078,657.310229779,65532964.3004,1887.02587363,55679844.1576,66917210.6485,4993.93196048,4982.80997614,0.0
1.04744420041,0.867333723716,9.67190014642e-06,-49047334.6427,1.53357794328e-05,0.0,5821987.3827,679.092708745,647.348019208,66967786.4452,1689.0952557,37210259.4897,70926982.5319,4347.9408759,4339.10949175,0.0
1.04363567734,0.953224341746,1.01256882417e-05,-50569264.6164,1.45640263514e-05,0.0,5870443.64243,678.418945793,647.121259434,67127383.2955,1686.94809716,37823397.8501,70820103.1646,4332.13169664,4324.60182276,0.0
1.13848949317,1.04409329585,1.00208647576e-05,-8944726.42097,1.93961778693e-05,0.0,5585765.39094,683.906515423,653.214855279,66338664.8081,1808.51527073,45204626.759,68140201.6371,4725.86988615,4716.13434963,0.0
1.07315700182,0.725101949598,1.02711660191e-05,-31414373.9335,1.85929776027e-05,0.0,5762989.32428,680.044348419,649.055530186,66828451.0933,1725.08089536,35140574.7922,69315892.1167,4454.67471455,4446.20143697,0.0
1.14913801543,1.03883085104,1.00385063013e-05,-6989248.49551,2.02386413858e-05,0.0,5530005.3547,684.488136897,653.799992346,66166987.9038,1821.54903725,46021713.5712,68682730.7883,4770.07190205,4759.84497909,0.0
1.11989727001,1.14734195328,9.79761160122e-06,-15077241.5693,1.61313307172e-05,0.0,5636290.04504,682.875914484,651.982279434,66463242.8195,1783.47094706,41314260.3947,69064729.0609,4648.69356781,4638.69313701,0.0
1.19569880674,1.06544859175,1.03294802796e-05,7875858.94614,2.22403216308e-05,0.0,9352392.82994,687.274998603,656.845231265,65482745.3742,1876.54243423,54440033.9663,66597971.2932,4963.34574678,4952.05566384,0.0
1.03441278249,0.930130156886,1.01374504408e-05,-56000537.2923,1.43882345269e-05,0.0,5842138.34235,678.10690453,646.512121896,67015265.8625,1672.07382414,40371028.5216,70873359.3606,4293.84746012,4285.31496953,0.0
1.25039900383,1.09921383011,9.69061049145e-06,19589732.9387,2.53298659475e-05,0.0,21196912.4056,690.972533089,660.245129947,64944006.8187,1941.18515442,63771439.5373,65261228.4897,5190.4062649,5178.28133971,0.0
1.04390902181,0.865532015782,1.01240517837e-05,-50429646.4801,1.53875318768e-05,0.0,5865934.32064,678.458484905,647.138060855,67113617.4645,1687.35794705,37760858.0617,70777917.341,4333.26634953,4325.73251271,0.0
1.02215345746,0.811660751593,1.03445423195e-05,-69400355.6542,1.53310270955e-05,0.0,5828173.05253,677.59574573,645.726431143,66957202.0519,1654.45030393,48979227.4176,70586740.4249,4242.95900192,4234.20379322,0.0
0.987249088536,1.05306933252,1.00848785028e-05,-95263886.1604,1.29083325567e-05,0.0,5992421.95883,679.573564393,643.524592603,67379257.7795,1612.31109106,70144548.2864,70386669.732,4098.07096651,4091.00254726,0.0
1.04085577187,0.894406502737,1.00880175735e-05,-51797467.7022,1.49746568732e-05,0.0,5829133.09649,678.426527496,646.913276142,66985135.7821,1680.85072711,38304551.0705,70803000.9492,4320.59230903,4312.04461749,0.0
1.15649551952,0.916082044092,1.00559199893e-05,-2444477.93764,2.17147445681e-05,0.0,5499075.04624,685.105162483,654.409731128,66042889.2902,1830.35470026,48717665.2805,68205455.8086,4800.61290153,4790.33253242,0.0
1.20816251203,1.04573161307,9.94101642334e-06,10294204.5405,2.31762995656e-05,0.0,11688251.3619,688.216641231,657.568221931,65421512.0002,1891.861028,56328474.6132,67131622.482,5015.08258744,5003.53546152,0.0
1.02730617254,1.16378666564,1.03606075216e-05,-63517367.4781,1.22912958003e-05,0.0,5838295.61222,677.579636753,646.051934467,66997016.0491,1661.04108939,44905249.8515,70669698.2278,4264.34792221,4255.50659941,0.0
1.26343103374,0.779094195477,9.82138451639e-06,22355649.5605,3.5396925397e-05,0.0,24254183.532,692.040767681,661.083845727,64614330.2867,1957.03586437,65919637.1856,66769194.3794,5244.50222105,5232.32008432,0.0
1.09003178166,0.898040364237,1.01034271506e-05,-25736332.0955,1.7493034679e-05,0.0,5742362.13607,681.048634738,650.132895492,66781124.4133,1747.41292397,36272802.4008,69193074.1316,4524.72192567,4516.08287953,0.0
1.1338003858,0.930289558777,1.06772714068e-05,-10266598.8942,2.18982544439e-05,0.0,5594217.40361,683.252739397,652.924450936,66331924.7163,1804.23246718,43921178.5468,67821528.963,4706.40540146,4697.28942447,0.0
1.04919176594,0.866132383829,1.00661001459e-05,-45257597.5331,1.54191549474e-05,0.0,5810306.74538,678.80374572,647.452439317,66936456.1416,1691.66202665,35878762.0742,70454572.0985,4355.19502042,4346.48050542,0.0
1.09496867109,0.977995722455,1.0235902704e-05,-23901385.1999,1.72197187491e-05,0.0,5733032.51287,681.231716187,650.468145422,66755831.9511,1754.14554757,36759850.9946,68972551.2592,4545.21495369,4536.59733395,0.0
1.04946290938,0.858555347331,1.03210977312e-05,-45147852.9746,1.56999384674e-05,0.0,5795229.94232,678.66293444,647.467469599,66898655.2804,1692.14791808,35824962.3805,70338543.43,4356.32053684,4347.544462,0.0
1.1433601347,1.02672512965,9.83324970523e-06,-8030211.73818,1.9858238911e-05,0.0,5584014.05248,684.290436037,653.493403202,66344194.3943,1815.1566181,45791862.5,68416732.3199,4746.08791914,4736.37687086,0.0
1.00785245845,0.895563653407,9.96229781069e-06,-88426564.2217,1.46318788818e-05,0.0,5883225.66488,678.068527247,644.828107225,67073709.1812,1635.40689223,64214915.709,70807603.7787,4183.59555503,4175.15923207,0.0
1.04781407217,0.953473988203,9.93000417538e-06,-46538303.0837,1.45086174678e-05,0.0,5824068.64006,678.807258402,647.360763554,66973510.6252,1689.73906437,36226557.5993,70422471.0963,4349.47621358,4340.78426875,0.0
1.16233566373,0.996219617762,9.93315298964e-06,-2342645.04985,2.24439955719e-05,0.0,5526989.1686,685.519477873,654.789403697,66175840.3232,1839.78277323,48719728.1777,68309231.2861,4824.85534014,4815.13594068,0.0
1.05119610638,0.908222429545,1.0060013928e-05,-42997601.2659,1.49176743036e-05,0.0,5827265.22825,678.847472617,647.578503128,66988624.4198,1695.12889522,35353131.7837,70548272.0435,4363.51503758,4355.10888617,0.0
1.03693098315,0.846197427758,9.93228659368e-06,-56302262.1524,1.52927176796e-05,0.0,5840871.63151,678.43289305,646.677978702,67013960.8087,1675.64319826,40552884.0028,71032913.7555,4304.30051106,4295.81465121,0.0
1.12095194916,1.06747016307,1.00912349125e-05,-14183008.1682,1.75876698951e-05,0.0,5629118.09812,682.779226092,652.06573236,66450517.6099,1785.55549733,41807212.306,68494042.5501,4653.07154096,4643.39890753,0.0
1.07965976054,0.688863417663,1.03667238128e-05,-28624882.6621,1.97537550717e-05,0.0,5750388.76813,680.404115186,649.519362654,66786454.0156,1734.3238973,35574151.7134,69135235.4403,4481.667666,4473.28677483,0.0
1.18377090327,0.808006361251,1.02573582172e-05,4664367.24948,2.63894262597e-05,0.0,6257120.64935,686.740074741,656.060724949,65585036.8756,1863.33019013,52342579.5509,66814769.3843,4913.83301947,4902.85127587,0.0
1.01081246528,0.865519764527,1.00365874927e-05,-83891673.4501,1.49051968417e-05,0.0,5871320.4135,677.876948893,645.007722499,67042710.1702,1639.39992315,60274195.2744,70692038.2162,4195.88254338,4187.39771026,0.0
1.07024473977,1.13087413945,1.02086627861e-05,-32700332.3137,1.36207142479e-05,0.0,5799483.05216,679.594938715,648.761595587,66929884.2297,1720.61531649,35033059.6206,69640042.1863,4442.58591479,4434.0636742,0.0
1.13789172455,0.959836075913,9.64726836521e-06,-10559149.5298,2.02330634275e-05,0.0,5606251.59717,684.192535709,653.196910545,66399778.1654,1808.57338373,44068954.3274,67837061.2062,4723.38854861,4713.76460275,0.0
1.18628543282,0.975037652381,9.8129959464e-06,5381649.96692,2.25772540064e-05,0.0,7021884.12714,687.008429729,656.222533339,65692495.6917,1865.71623213,53224435.0953,67020346.3319,4924.27083164,4913.15427366,0.0
1.04008874499,0.893743106312,1.00286229949e-05,-51453870.9389,1.48494271012e-05,0.0,5827452.37574,678.445271007,646.871214358,66979838.0893,1679.35257923,38145725.833,70772903.2459,4317.40838045,4308.69785303,0.0
1.10620864264,1.0680787068,9.88653683206e-06,-18896499.926,1.61926026998e-05,0.0,5663978.702,682.120216589,651.183666608,66536018.895,1765.56119196,39315216.9179,68820232.2274,4591.8720756,4582.00983768,0.0
1.2011236279,1.09253623239,9.93656716523e-06,9008978.46259,2.17593776991e-05,0.0,10465782.1697,687.813712289,657.17186038,65463823.9667,1882.65995685,55327047.0293,66831463.8691,4985.86417941,4974.2574131,0.0
1.12751963987,1.00447451973,1.06127372927e-05,-11866107.7322,1.95562946529e-05,0.0,5578719.05877,682.928543883,652.515164314,66302864.6128,1794.17641117,43117881.634,67355825.9006,4680.3340251,4670.60104542,0.0
1.1213869898,0.997170952822,9.94160368133e-06,-14378093.31,1.85656120059e-05,0.0,5602513.85613,682.984548495,652.076894337,66360165.5539,1785.22002273,41638371.023,68269506.0122,4654.87739466,4644.75353104,0.0
1.11367379425,1.03496407117,9.85000117915e-06,-16849147.8466,1.7301762049e-05,0.0,5686731.28106,682.516250722,651.640305812,66630011.5492,1777.30745311,40410803.5731,69253156.0736,4622.85991993,4613.65654275,0.0
1.16619526668,0.833739080089,9.79161039726e-06,-448707.393918,2.37203999512e-05,0.0,5424554.47259,685.975378246,654.999617524,65824074.7956,1841.31211907,49769428.4627,67733854.8291,4840.87655199,4829.89251308,0.0
1.26285206914,1.01247087237,9.70678002358e-06,21815836.8686,2.86445587093e-05,0.0,23728185.4885,691.886786788,661.030877568,64629938.3527,1954.7919712,65460004.5557,66310419.8351,5242.098939,5229.45801729,0.0
1.18623407577,0.802417271382,9.82982384099e-06,4929682.23735,2.6182523209e-05,0.0,6624439.62971,687.123116154,656.222789097,65677991.3279,1866.84580359,52788627.8305,66986307.9994,4924.05764852,4913.15476033,0.0
1.2456498888,1.14342280914,9.70668598569e-06,18305135.2183,2.41076679408e-05,0.0,19938289.683,690.675359643,659.945251205,64937358.4495,1934.8612206,62715859.1044,66937562.16,5170.69268841,5158.29739117,0.0
1.0219274565,0.915932390168,1.04340996799e-05,-66924706.7494,1.4415064046e-05,0.0,5855107.63275,677.462502976,645.720922566,67041669.8618,1655.48439855,47223434.2463,70742466.8195,4242.02087193,4233.77521326,0.0
0.98219253856,1.03300673872,1.01445671483e-05,-95036799.1712,1.3023557914e-05,0.0,6000871.05659,680.177696349,643.199448555,67398076.4209,1610.84142677,69944577.0408,70184023.3846,4077.08122756,4070.08669874,0.0
1.09791956463,0.924787193639,9.53657057572e-06,-24391780.0249,1.72170660343e-05,0.0,5743162.69556,681.879555226,650.633177349,66792985.5971,1757.52404902,36808930.5339,69298468.9095,4557.46411278,4548.60249353,0.0
1.04097258257,0.935858146446,1.0306642314e-05,-49614041.4582,1.45795105087e-05,0.0,5821050.2898,678.214727574,646.906128688,66959982.8864,1680.79137253,37340896.4245,70876643.4387,4321.07719025,4312.43826799,0.0
1.15286238198,0.846396009851,1.04866945007e-05,-3574923.55069,2.30554269531e-05,0.0,5442830.05853,684.737179323,654.162330523,65864630.6083,1824.54980777,47433431.907,67895875.202,4785.5317476,4774.79801581,0.0
1.1094012581,0.713457487649,1.01540474859e-05,-17501810.7852,2.17217960346e-05,0.0,5641772.07227,682.254194311,651.372144497,66482325.1995,1771.29688122,39960308.4702,68956443.5357,4605.12462237,4595.79238921,0.0
1.10545585893,0.890725918691,1.00271911781e-05,-20836368.7459,1.88160515174e-05,0.0,5701882.71159,682.060575105,651.164158426,66667733.9038,1767.68912789,38045798.0705,68694449.3437,4588.74727042,4579.86549944,0.0
1.14996154337,1.01124059359,1.03497383632e-05,-6429827.04599,2.1677412756e-05,0.0,5560946.07026,684.437214198,653.970617226,66283355.4361,1824.7719726,46252005.9856,68588182.0009,4773.49036653,4764.09013352,0.0
0.915975555275,1.0845372174,9.91256011297e-06,-91935016.0683,1.25465250308e-05,0.0,6128409.6551,690.827427521,638.92653597,67683124.1615,1600.78370066,67214055.0885,67683124.1615,3802.21452995,3795.58217933,0.0
1.01270044618,0.838953724751,9.70331378612e-06,-83476187.6919,1.47006606023e-05,0.0,5959303.92793,678.070536266,645.158804454,67318735.3181,1645.54549695,60049716.9767,71211255.6003,4203.71955209,4196.63105145,0.0
1.08481417244,1.01364588615,1.02333558156e-05,-27123799.835,1.58444753762e-05,0.0,5758996.8918,680.643772043,649.833409568,66827640.9371,1740.49038104,35898190.9783,69230519.2814,4503.0636298,4494.50528621,0.0
1.01612952868,1.06250822782,9.87858860769e-06,-77669150.997,1.28025395681e-05,0.0,5954135.73558,677.784911507,645.373522133,67324464.0686,1650.10889611,55324469.4971,70938841.5078,4217.95367355,4210.8164837,0.0
1.20171173564,0.807775059509,9.78920510021e-06,9172056.897,2.73846633229e-05,0.0,10637905.5294,688.126001248,657.226744369,65472306.8184,1885.13701738,55505928.7708,66818708.4675,4988.30541464,4977.09707183,0.0
1.18715183065,0.847224266747,9.90936372961e-06,5076174.97315,2.54451323066e-05,0.0,6663794.20233,687.17496651,656.263259814,65497798.8977,1866.2364953,52698213.7436,66815136.7886,4927.86724903,4916.30829637,0.0
0.976693320116,0.762745635854,9.85746330281e-06,-94804325.6619,1.55130407449e-05,0.0,6023651.41067,682.074581896,642.851323818,67461256.4445,1614.62142232,69739915.0539,69976629.598,4054.2539718,4047.58372281,0.0
1.01034180336,0.963223616569,9.81032777662e-06,-85379025.8777,1.36260961589e-05,0.0,5966516.79331,677.913464813,645.002563676,67339646.2103,1642.33205233,61636919.4536,70980281.5244,4193.92882575,4186.87361827,0.0
1.06203084504,1.17854292879,1.04650099162e-05,-36541676.2757,1.29018235023e-05,0.0,5815760.11461,678.998934594,648.275542229,66972754.8404,1710.29871069,34612827.5258,70042679.1436,4408.49003776,4400.18922482,0.0
1.0841237039,0.80054108695,1.03361025065e-05,-27168591.7818,1.85492424596e-05,0.0,5747131.796,680.623088888,649.79047401,66783362.4749,1740.09047258,35880393.3672,69158120.3282,4500.19749489,4491.74785589,0.0
1.11816844147,0.872683236206,1.01936190885e-05,-15037034.3362,2.0037103224e-05,0.0,5623511.07209,682.628496861,651.874132369,66416694.0789,1782.51009929,41210013.1265,68854056.7132,4641.51720054,4631.93957477,0.0
1.05033408257,0.951647825274,1.03414813052e-05,-44627331.6255,1.48596530893e-05,0.0,5798115.79335,678.647459427,647.518254923,66909813.5671,1693.24076093,35636025.7402,70371429.3701,4359.93677675,4351.14643808,0.0
1.04797029718,0.982768184644,9.60421698464e-06,-49074424.0698,1.41963046563e-05,0.0,5831027.36267,679.121015699,647.382183938,66995579.3047,1689.6936204,37237650.5982,70961409.551,4350.12470359,4341.28464961,0.0
1.04679854499,0.924949231391,1.02530053474e-05,-46010242.0348,1.49906614372e-05,0.0,5808807.35413,678.536101524,647.2899831,66932416.7451,1688.41285337,36184807.3977,70331963.3649,4345.26076025,4336.52820191,0.0
1.0857518699,1.05627049045,1.00697992796e-05,-27331584.483,1.52671831588e-05,0.0,5766487.84812,680.798132568,649.896687928,66849954.4842,1741.68303904,35914405.5278,69303725.0973,4506.95601195,4498.38379867,0.0
1.20223364911,1.0917916045,9.78678214811e-06,8196823.69533,2.16558312733e-05,0.0,9650522.69539,687.988558599,657.259008911,65536151.8983,1885.15165237,54848159.9147,66795622.1413,4990.47187746,4979.03251559,0.0
1.17510789341,1.14634212284,9.93073449665e-06,2293154.81757,1.91985154316e-05,0.0,5459676.31405,686.145417194,655.548581462,65938080.541,1852.97015634,51292437.9925,67210079.8777,4877.87286554,4867.25837743,0.0
1.13568266057,1.10925493411,9.83089304137e-06,-10775462.8024,1.80444327167e-05,0.0,5611382.6485,683.872156891,653.053161006,66408892.83,1805.21743219,44048512.7566,67784169.6988,4714.21872403,4704.52669902,0.0
1.01109335789,1.0027527826,9.82628558963e-06,-84304314.472,1.33108725496e-05,0.0,5965726.50073,677.870631495,645.050937614,67337214.9598,1643.32945357,60738119.91,70899625.4262,4197.0485286,4189.98271991,0.0
1.02469363733,1.02017036702,1.00090434144e-05,-65919141.8732,1.3328486278e-05,0.0,5924735.66903,677.781530105,645.902454248,67260801.4661,1661.59124915,46577741.7933,70931906.7638,4253.50328856,4246.24446539,0.0
1.14269872225,0.895907550968,1.03084188351e-05,-7974104.4642,2.23039520177e-05,0.0,5516047.52365,684.076754788,653.420442612,66114352.8735,1813.2141974,45200177.7816,68331461.2655,4743.34239606,4733.14781914,0.0
1.05278012797,1.00074263799,1.00271386699e-05,-42342013.4688,1.41269219596e-05,0.0,5829996.27538,678.909896883,647.671421534,66999439.9637,1697.17267765,35219021.9616,70593988.9233,4370.0903112,4361.6592014,0.0
1.13381987916,0.931625563994,1.01658361658e-05,-11323911.594,2.1339066802e-05,0.0,5618855.72362,683.600808622,652.944046903,66435415.0832,1804.42868913,43512600.2084,67715646.4349,4706.48631839,4697.37003288,0.0
1.12061970636,0.891230835705,1.05397467884e-05,-13708677.7284,2.03590503041e-05,0.0,5597026.94061,682.56627928,652.042988176,66344707.7968,1785.49471541,41948515.8565,67775700.8004,4651.6924011,4642.07482695,0.0
1.26118662443,0.897809195306,9.8062228842e-06,21497158.0133,3.16985945054e-05,0.0,23383401.9902,691.878743729,660.911991451,64502658.0493,1952.62403129,65209503.1928,66026695.7544,5235.18567801,5222.33414265,0.0
1.07708111043,0.864052858339,9.47966559612e-06,-31646481.9727,1.6330351267e-05,0.0,5786203.50415,680.590271056,649.181837985,66890576.8084,1729.19416258,35228053.2147,69777301.192,4470.96368939,4462.14600665,0.0
1.16164726424,0.910528093512,9.43902341514e-06,-3428596.68074,2.31079729744e-05,0.0,5541092.9758,685.821414822,654.758770541,66236599.2948,1839.03844645,48462400.3021,68633639.9538,4821.99779386,4812.18141418,0.0
1.16771516176,0.885646694342,9.65309949588e-06,-1593893.04249,2.46417478886e-05,0.0,5519140.70686,686.076935503,655.133442122,66158459.9548,1847.21713167,49396579.562,68231538.1286,4847.18563647,4837.48770438,0.0
1.12995773612,0.862844640982,1.00699703215e-05,-11978701.4086,2.12693501093e-05,0.0,5578417.32969,683.511051453,652.665137076,66289826.8407,1797.39991983,43085615.9226,67325880.0076,4690.45456263,4680.57972687,0.0
1.0391613746,0.707262639353,1.01289265284e-05,-53183573.9278,1.64730247364e-05,0.0,5875944.06067,678.275665957,646.824974969,67138361.9729,1681.45877448,39009883.023,70847133.6523,4313.55886596,4306.18456112,0.0
1.14176300419,1.06416056609,1.01668239314e-05,-9003061.53984,1.98366671693e-05,0.0,5596050.9565,683.9752578,653.39736319,66369427.2306,1814.05051281,44946967.8294,68236593.1936,4739.45823039,4730.08322547,0.0
0.989424053063,1.06996016487,9.76275416812e-06,-95269365.4398,1.31489957557e-05,0.0,5998788.57202,680.64391516,643.666044475,67405767.7643,1619.02121045,70149258.3135,70391968.2191,4107.09924426,4099.99261139,0.0
1.18411915305,0.866317264812,1.03459956864e-05,4856925.87765,2.52656151066e-05,0.0,6386434.18316,686.665702946,656.085191609,65594038.8648,1863.5621131,52380051.5355,66784330.255,4915.27860431,4904.29068987,0.0
1.23286975726,1.04755353539,9.91605896652e-06,15799930.921,2.51590716143e-05,0.0,17235586.1757,689.852318999,659.188143744,65047962.2561,1920.16306359,60730450.0193,66775706.889,5117.64236239,5105.54596909,0.0
1.01607576092,0.918673305423,9.73731416376e-06,-79051822.8325,1.40711440456e-05,0.0,5952942.49022,677.987377491,645.372897463,67317321.1762,1650.07699051,56433095.6201,70997511.5497,4217.73048358,4210.59422261,0.0
1.1706521341,1.02223893802,1.01941578596e-05,1877029.51388,2.11611945857e-05,0.0,5428776.08955,685.810864207,655.266001037,65815637.2789,1846.61195209,50808429.8227,67090060.5216,4859.37700865,4848.57023786,0.0
1.04868140725,0.806206911987,9.87339738199e-06,-45097382.9668,1.57594397435e-05,0.0,5834202.06358,678.912099366,647.41999278,67000509.7244,1691.81610999,35889593.247,70457444.447,4353.07652149,4344.70993054,0.0
1.01405798711,0.881956883586,9.63460006472e-06,-82443507.8762,1.43748492253e-05,0.0,5960547.35705,678.139606899,645.245553837,67322933.1076,1647.33572169,59192100.7925,70982513.9076,4209.35470449,4202.24701127,0.0
1.12060984385,1.06279732299,9.71879060618e-06,-15067726.7444,1.72850237065e-05,0.0,5622107.42243,683.021003547,652.023185842,66430104.5502,1784.13175071,41328982.0515,68929377.8189,4651.65146182,4641.54104293,0.0
1.24894434096,0.833175837014,9.91245666087e-06,19360781.0258,3.19314823869e-05,0.0,21028054.6097,691.067639811,660.137663115,64660535.5548,1938.83944838,63492572.1892,64831103.3584,5184.36795932,5171.85704317,0.0
1.14987630624,1.10664798051,9.99532330586e-06,-7312156.70391,1.96966143112e-05,0.0,5587765.21825,684.585263585,653.950710243,66359544.015,1824.74506775,45919031.2465,68716890.7161,4773.1365472,4763.73936195,0.0
1.04666952057,1.0833730849,1.00305371157e-05,-48166928.888,1.33800599221e-05,0.0,5829648.34292,678.675165611,647.294515865,66997342.5113,1688.41297579,36842919.0596,70714738.5619,4344.72517989,4336.08351984,0.0
1.02721496774,0.907741652034,9.88299098252e-06,-63983285.1277,1.43614402568e-05,0.0,5918009.11648,678.013294595,646.068065168,67244418.6783,1664.99152893,45271012.7619,70895611.4587,4263.96933109,4256.67448185,0.0
1.04608944177,0.935873571643,9.84904956887e-06,-47918104.7858,1.45795075424e-05,0.0,5830219.41668,678.805583863,647.258678932,66986920.338,1687.4401183,36767014.489,70754298.3076,4342.31727279,4333.65333992,0.0
1.11166901806,0.971458293599,9.57089403809e-06,-18332777.9874,1.77641546926e-05,0.0,5633385.90116,682.728304973,651.513226986,66447060.0879,1772.3198041,39592578.4028,68952023.9899,4614.53809397,4604.2960803,0.0
1.00090721838,1.05865409585,9.69093268913e-06,-95973365.3461,1.29415678481e-05,0.0,5994595.76969,678.732683965,644.405564454,67411181.9505,1629.34762477,70767679.018,70991297.281,4154.7658635,4147.84320416,0.0
0.988279976926,1.05098532013,1.01393099497e-05,-95071943.3529,1.32048347432e-05,0.0,5937160.21698,679.656433278,643.576477445,67210135.7845,1611.49526951,69975722.6077,70217948.4521,4102.35018422,4094.31118227,0.0
1.12268312172,0.988440432493,1.04707776411e-05,-13594499.4637,1.9208441795e-05,0.0,5601133.36263,682.699802412,652.181504264,66360793.6249,1788.05777607,42401030.8386,67497903.0932,4660.25763826,4650.60560983,0.0
1.01950284047,0.924832684606,9.973170109e-06,-72716923.7691,1.40378089627e-05,0.0,5934939.53099,677.768377956,645.589853785,67278781.1807,1654.71785424,51478441.7489,70933472.4961,4231.95629079,4224.771397,0.0
0.96387676118,0.966802048699,9.85087583401e-06,-94130890.1393,1.39448979526e-05,0.0,6032043.33352,684.201875975,642.017951515,67459312.8621,1612.28036597,69146963.0501,69374113.2702,4001.05243566,3993.99506218,0.0
1.09897838527,0.801965389077,9.37079372258e-06,-24271364.6151,1.86010526309e-05,0.0,5739922.61154,682.109595486,650.699726533,66780350.0277,1759.15327215,36893824.9923,69366004.6069,4561.85927726,4552.9791904,0.0
1.159010084,0.944051262923,9.79707671682e-06,-2892685.88426,2.11761033947e-05,0.0,5498002.68533,685.434416131,654.569258188,66045885.0796,1833.45491507,48468514.4094,68230946.4628,4811.05085868,4800.60761163,0.0
1.07704179316,0.78302377851,9.9373584066e-06,-31014008.1658,1.78255679645e-05,0.0,5781102.99276,680.302748447,649.191412352,66890955.2544,1730.48188211,35269446.8564,69405730.8049,4470.80048341,4462.36362426,0.0
1.06303971653,0.920741070889,1.0280740076e-05,-36763544.4844,1.55239557759e-05,0.0,5804864.83291,679.289474465,648.339977588,66937860.8803,1711.81300127,34615525.9478,70048027.3205,4412.67786332,4404.36145024,0.0
1.14073752611,0.891811186007,9.47918919405e-06,-8399650.05326,2.00400571063e-05,0.0,5543402.32382,684.515651935,653.356996693,66184377.5217,1809.50119555,45497020.4927,68178777.0932,4735.20147088,4724.59679542,0.0
1.08904650287,1.05616562943,1.00745730445e-05,-26199972.1097,1.55097414056e-05,0.0,5757274.62861,680.957490306,650.083487438,66826627.4116,1745.98935488,36175071.8385,69268583.6778,4520.63203341,4512.00839169,0.0
1.16452800721,0.959252634335,9.96487089272e-06,-613104.630143,2.15551440727e-05,0.0,5437719.28133,685.676749057,654.892607368,65866585.4432,1838.9247239,49591898.3886,67709719.3181,4833.95575793,4823.00161196,0.0
1.09382105912,1.00783342828,1.01665074371e-05,-24307950.7534,1.6578546994e-05,0.0,5736240.60264,681.179759629,650.376621833,66755869.3575,1752.26419948,36665086.2338,68996788.511,4540.45121641,4531.75282174,0.0
1.12281170565,1.09992875368,1.02364923535e-05,-13864364.2661,1.73379292848e-05,0.0,5621324.13357,682.794348162,652.189389495,66419013.3382,1788.09944413,41900500.3228,68035222.7246,4660.79139015,4651.13622703,0.0
1.17501745193,1.09872219241,1.01218234491e-05,2337432.93168,2.01379485199e-05,0.0,5389902.84525,686.115613026,655.517656396,65705385.9495,1850.88145402,51105705.322,67016008.9946,4877.49744296,4866.14818359,0.0
1.12778282645,0.776618135605,1.01860430262e-05,-11699500.3289,2.29364989474e-05,0.0,5630078.23789,683.238359253,652.544500855,66455093.11,1796.66535831,43292940.9363,67736728.1991,4681.42651259,4672.42678561,0.0
1.08499348044,1.0668613024,9.56147810559e-06,-28777100.7045,1.46306086003e-05,0.0,5792432.46521,680.92385787,649.721893957,66926143.4426,1740.47509814,35818021.3892,69492642.0131,4503.80793731,4495.1505673,0.0
1.02739772773,1.16788058802,9.47866801057e-06,-67939128.9265,1.20941270303e-05,0.0,5946598.77816,678.349633618,646.098365216,67326008.6328,1664.99091733,48017123.0683,71249137.5507,4264.72796781,4257.43050425,0.0
1.02168860791,0.943463150755,1.03710478151e-05,-67679499.3856,1.42086239342e-05,0.0,5859209.10796,677.510649634,645.700718176,67052524.2566,1655.1296076,47766692.2311,70729593.6466,4241.02941143,4232.78754863,0.0
1.24223324598,1.03107764827,1.0022105459e-05,18059051.1556,2.6787236314e-05,0.0,19692817.8514,690.367158317,659.741662037,64942617.5696,1931.41735153,62546617.3208,67129400.3861,5156.51020406,5144.47000033,0.0
1.21559260719,0.875563595981,1.01370053531e-05,12137111.8558,2.74874787781e-05,0.0,13373006.0605,688.775445061,658.072647751,65174518.783,1900.48580493,57645809.7386,66230937.1155,5045.92491245,5034.13162934,0.0
1.04058616088,1.04021508051,9.81204800613e-06,-52130122.5868,1.34124826632e-05,0.0,5844409.50686,678.584760367,646.90323503,67029386.3202,1679.88451294,38398055.3905,71020134.1382,4319.47315381,4310.75447449,0.0
1.0131699641,0.960152154709,9.73343365853e-06,-82584539.966,1.36997207924e-05,0.0,5962390.72728,677.990027673,645.186349914,67328930.7672,1646.12920881,59307204.8141,70951234.7774,4205.66852098,4198.57338491,0.0
1.27081008002,0.846175686698,1.0615158951e-05,23934157.9485,3.60595728867e-05,0.0,25671997.0455,692.115098134,661.506922994,64167601.0738,1961.97516769,66782431.9947,67663839.0758,5275.13264216,5262.23706045,0.0
1.21831063155,0.934412281026,1.02917470354e-05,12783400.8312,2.6755840359e-05,0.0,13975994.3606,688.813130052,658.254583473,65152095.5724,1903.71186655,58214835.6398,66367513.7579,5057.20743156,5045.47537805,0.0
1.09624746191,0.945957228895,9.92458427189e-06,-24232208.8968,1.73274625255e-05,0.0,5735195.99852,681.528681418,650.548337002,66767016.9816,1755.49245041,36753735.7477,69710090.9761,4550.52321439,4541.78672965,0.0
1.18665464132,1.03313094142,1.01241787003e-05,5185656.53551,2.18724211022e-05,0.0,6778515.74854,686.842466434,656.241888692,65625649.3364,1865.87381667,52704205.4624,66838359.7941,4925.80341612,4914.55800544,0.0
1.09933419287,0.887072012918,9.84575084311e-06,-23205343.6947,1.81391731848e-05,0.0,5727987.20155,681.810780602,650.764131815,66746919.0255,1759.72870652,37104474.1872,69159367.5543,4563.3362346,4554.55108388,0.0
1.03394190644,1.02496132049,1.00026642525e-05,-58437334.3201,1.35785515249e-05,0.0,5855528.7822,678.177604059,646.478148165,67056521.0393,1671.58381609,41756314.0175,71091984.3815,4291.89285363,4283.45500635,0.0
1.02566767333,0.961492936795,1.03882425545e-05,-65051897.5434,1.40883634516e-05,0.0,5828046.95537,677.566161277,645.930267402,66964522.5798,1659.01908518,45928472.5859,70482963.971,4257.54651199,4248.73260878,0.0
1.1862070982,1.05117892516,1.020154098e-05,4914871.98038,2.17859683978e-05,0.0,6473268.33361,686.78783525,656.207892802,65560183.4527,1864.85031083,52452273.3222,66761635.7562,4923.94566463,4912.49474882,0.0
1.27325122066,1.04593359266,1.03266379664e-05,23949039.2968,2.99416438581e-05,0.0,25670528.1105,692.180922394,661.668505547,64343003.9453,1964.88411553,66831140.9441,67722219.0779,5285.26581696,5272.41368048,0.0
1.07975126471,0.904021641902,9.87065942031e-06,-30124620.6036,1.64826639139e-05,0.0,5784626.41353,680.464239587,649.372146333,66904911.0222,1733.94862032,35479076.9097,69357999.0629,4482.04749981,4473.56863035,0.0
1.03397490393,0.714574289544,9.81809986969e-06,-59742285.3647,1.6473461061e-05,0.0,5843092.19808,678.484202484,646.488969757,67015663.2759,1671.80734887,42535091.684,71109393.7914,4292.02982621,4283.59144951,0.0
1.09958375624,0.880697687861,9.88181765411e-06,-23041392.0433,1.82711583571e-05,0.0,5725421.59715,681.812131981,650.786587059,66739178.3907,1760.0702645,37160188.9455,69038127.3594,4564.37217215,4555.58309092,0.0
1.03925606866,0.903448873574,1.01867684554e-05,-52090422.4526,1.46225286852e-05,0.0,5836996.47455,678.266691511,646.820818559,67009096.3905,1679.06585284,38418265.9166,70873605.76,4313.95194101,4305.51642117,0.0
1.23251671768,0.845209083237,1.02737970998e-05,16083645.5927,3.03472389132e-05,0.0,17647705.462,689.727513484,659.145882304,65034780.219,1921.02891046,60987155.5473,66704289.1404,5116.17689509,5104.55133942,0.0
1.04039659951,0.886901097179,1.02613603215e-05,-50199944.3718,1.49900887794e-05,0.0,5821381.37858,678.232395878,646.859114627,66958776.4381,1680.05811127,37623528.3269,70835487.8309,4318.68628457,4310.05672884,0.0
1.02461478746,1.06421424852,1.01708538651e-05,-66020089.6469,1.31570482086e-05,0.0,5865484.62039,677.709726229,645.878332954,67072544.9208,1658.76969035,46608377.0932,70941470.7409,4253.17598275,4244.80177993,0.0
0.981498696667,0.777793898266,1.00490744527e-05,-94828801.1248,1.52663344912e-05,0.0,5992961.97835,681.12182025,643.154882533,67379204.9471,1614.7350586,69761436.0389,69999792.55,4074.20108986,4067.20995322,0.0
1.1154417914,1.0314181453,1.01938908383e-05,-15649393.0925,1.75976085956e-05,0.0,5644675.28531,682.352854624,651.695852862,66494559.8102,1778.50371551,40988739.3852,69223860.4571,4630.1988761,4620.66786956,0.0
1.14103680222,0.908955756931,1.01311468381e-05,-9149144.36727,2.1839012994e-05,0.0,5559410.12184,684.081920086,653.353695813,66264221.3091,1812.26566423,44814000.8066,68122836.7391,4736.44376602,4726.66227539,0.0
1.09261173594,1.11650569498,9.91226091515e-06,-25274475.8503,1.48942889245e-05,0.0,5757484.81975,681.220375567,650.283012412,66825705.121,1750.52051793,36457834.5706,69255083.2717,4535.43131589,4526.70276709,0.0
1.01903070048,0.90954112465,1.02635118431e-05,-70311134.1803,1.43647850004e-05,0.0,5865863.87179,677.573587203,645.535318019,67060504.3684,1651.42314612,49665785.4284,70852821.8578,4229.99643769,4221.71172713,0.0
1.03302420193,0.936890055161,1.01093707341e-05,-57436432.9603,1.42876484764e-05,0.0,5846723.13507,678.065248852,646.415887512,67025964.3091,1670.2244591,41157390.5658,71010574.6101,4288.08346221,4279.57343276,0.0
1.08271948127,1.08553219958,1.00653241853e-05,-28418713.3133,1.47139801945e-05,0.0,5776809.2588,680.631439215,649.71476353,66876860.9173,1737.68821678,35729937.7874,69316017.3753,4494.36856675,4485.84357688,0.0
1.15630362936,0.891627979694,1.01225619777e-05,-2080553.37362,2.21599809315e-05,0.0,5494180.48751,685.054905941,654.395104359,66028055.0577,1829.99025469,48928419.0184,68025223.6405,4799.81636547,4789.54162128,0.0
1.03009528747,0.98785374591,9.59066547476e-06,-63418864.5079,1.3748615667e-05,0.0,5925855.34526,678.351013501,646.248546863,67270166.6373,1668.72892327,44928231.3698,71062636.1772,4275.92553829,4268.58944069,0.0
1.15230570055,0.912544804202,1.01264574001e-05,-4757644.68885,2.2882042123e-05,0.0,5525994.53504,684.786108209,654.110331405,66146172.1925,1826.43629295,47385153.1819,68537074.1829,4783.22096298,4773.36139237,0.0
1.08043502728,0.978482382198,9.77308461429e-06,-30198247.828,1.56543961742e-05,0.0,5791612.73089,680.541296058,649.417215276,66926094.3968,1734.78902459,35506622.4393,69397472.5614,4484.88579824,4476.39631352,0.0
1.0198819449,1.20833186143,9.66538881822e-06,-75276230.3503,1.16956986097e-05,0.0,5960397.65733,677.998423263,645.610496688,67351654.6595,1655.01268961,53452831.0058,71020185.7561,4233.52995328,4226.33967106,0.0
1.08015468023,0.903291271625,1.02400897408e-05,-28674839.21,1.67772199451e-05,0.0,5752486.88931,680.438354111,649.546305706,66790335.0636,1733.81025783,35530330.1354,69190703.998,4483.72207763,4475.04446584,0.0
1.22657603008,0.977995954736,9.9128773892e-06,14269882.529,2.61699785984e-05,0.0,15670300.9582,689.545310061,658.776134754,65040574.4032,1912.55557478,59474187.5464,66567983.7635,5091.51710086,5079.29438508,0.0
1.06835578308,1.05764038821,1.01419617902e-05,-33788503.7768,1.422178978e-05,0.0,5802563.78857,679.607739052,648.676734561,66934021.785,1718.17626243,34841680.2954,69835783.7936,4434.74485557,4426.25224455,0.0
1.0935887419,0.783190132012,1.03642114601e-05,-24015697.3588,1.96597865555e-05,0.0,5717357.7186,681.142298856,650.376636679,66706795.9033,1752.48604425,36821085.9811,68873080.2649,4539.48686763,4530.89069736,0.0
1.19583591706,0.625576901262,9.97351734582e-06,7674375.87406,3.22665968189e-05,0.0,9115885.14789,687.913613703,656.869950747,65352840.9849,1877.97855255,54275654.071,66437346.0891,4963.91489172,4952.60694777,0.0
1.05662288627,1.09135854085,1.002774791e-05,-40480363.578,1.32285223483e-05,0.0,5837177.67248,679.043716365,647.902683379,67027361.7877,1702.83575007,34928678.5962,69949118.6578,4386.04160091,4377.73178075,0.0
1.18233694168,0.913119415642,9.59506175031e-06,3757360.14458,2.31670828726e-05,0.0,5710161.98674,686.976692337,655.980325004,65708213.2188,1860.88819788,52136612.5408,67031103.1431,4907.88064491,4896.60291028,0.0
1.11159328189,1.21128235152,9.75615610037e-06,-19445676.1973,1.50348784967e-05,0.0,5714668.12738,682.447025863,651.535596919,66721189.4122,1775.10737428,38943185.8011,69021881.641,4614.22371313,4605.14317132,0.0
1.08290158149,0.79325414699,9.78024904094e-06,-29211173.5572,1.80383270252e-05,0.0,5768025.547,680.954882844,649.7167158,66857466.948,1738.17356803,35705637.3967,69343600.4822,4495.12446477,4486.59664207,0.0
1.07094585234,1.08938907163,9.93538613751e-06,-33408940.0865,1.39219898461e-05,0.0,5806234.30802,679.876789215,648.831103706,66947062.3589,1721.5512324,34921132.3701,69863732.1156,4445.49623306,4436.96445863,0.0
1.16067507831,1.05589761722,1.02531442645e-05,-1319139.12058,1.99482309851e-05,0.0,5441871.59868,685.207092841,654.646173324,65868822.8615,1833.71517557,49021655.4006,67688940.3761,4817.96225006,4806.98767021,0.0
1.10484819368,1.08235450684,9.91140053504e-06,-21344462.3907,1.61959838973e-05,0.0,5723789.62908,682.023053812,651.133416433,66732431.0604,1766.74088926,37821133.2544,68703189.1756,4586.22485197,4577.35269122,0.0
1.01700952663,0.834294671036,1.00679316271e-05,-73758339.7975,1.49955789011e-05,0.0,5873616.57185,677.794251446,645.406449737,67074604.6101,1648.71948343,52261252.4421,70735996.5663,4221.60654504,4213.35413018,0.0
1.17907003325,0.969721937247,9.88706202925e-06,3182459.71095,2.23336414914e-05,0.0,5435150.96086,686.519786538,655.788761424,65845621.2082,1858.13698375,51745456.612,67144526.7148,4894.31970802,4883.63676198,0.0
1.0128586431,1.06891347965,9.9220177044e-06,-81189915.5321,1.26995362542e-05,0.0,5961218.10467,677.715794487,645.161436688,67327493.7964,1645.68546805,58162036.7132,70839619.1167,4204.37622751,4197.28549146,0.0
1.02424394625,0.586066474318,9.58010984977e-06,-70603633.5792,1.75562971104e-05,0.0,5918818.30776,678.382454657,645.891373899,67234911.659,1661.17443923,49916697.6555,70892499.3717,4251.63662088,4244.38421516,0.0
1.05966593419,0.909169672077,1.02088964584e-05,-38607035.2039,1.54142928254e-05,0.0,5815157.19595,679.163603573,648.120553847,66961934.3892,1707.31413507,34712826.1938,69835090.5064,4398.67329282,4390.4090012,0.0
1.14390626033,1.07025693826,9.94593575231e-06,-8652729.41371,1.92075576165e-05,0.0,5556803.7256,684.166467922,653.427374026,66239092.8847,1814.9624004,45125116.3045,68355244.9693,4748.35488663,4738.21766123,0.0
0.927002096115,1.10020306404,9.67324257046e-06,-92517684.0692,1.29638470674e-05,0.0,6158877.3916,690.304927432,639.65123597,67808072.5817,1610.19443925,67726902.1391,67933060.5642,3847.98570097,3842.08807918,0.0
0.980238727281,0.980086201852,1.0267889905e-05,-94694218.5378,1.37169700705e-05,0.0,5947483.59703,680.542639599,643.059613797,67229173.4719,1608.859185,69643033.3166,69880972.3179,4068.97095694,4061.06257626,0.0
1.00915930242,0.808310557456,9.71130938963e-06,-87773164.6872,1.48941846077e-05,0.0,5966378.67411,678.134875429,644.930755781,67334482.4547,1640.78446825,63659326.4218,71031212.919,4189.02026435,4181.9817231,0.0
1.18751922185,1.11985254118,9.56288484524e-06,4688247.15478,1.99661571607e-05,0.0,6392318.12285,687.13895742,656.312959735,65842142.1953,1868.20495856,52799228.0622,67167618.799,4929.3922899,4918.4600183,0.0
0.947553045128,0.944750718195,9.91837653684e-06,-93431364.7171,1.39411267962e-05,0.0,6098661.64084,686.488608747,640.975073954,67655389.9776,1610.86547642,68531106.3412,68749441.2268,3933.29269033,3927.09354285,0.0
1.15947733976,0.919221250469,1.02633138877e-05,-1281023.14903,2.21915268159e-05,0.0,5429190.4491,685.219238296,654.570107971,65817500.6619,1832.2548313,49028230.7149,67699420.295,4812.99043734,4802.03334007,0.0
1.14600842326,0.776387862988,9.84225362591e-06,-8156481.65487,2.41825823202e-05,0.0,5523139.81991,684.529239742,653.553250588,66135766.2887,1818.05683716,45344497.776,68392211.6913,4757.08096495,4746.90777856,0.0
1.17357754733,1.15015428963,9.8957223109e-06,1782488.01127,1.89013990815e-05,0.0,5436999.32398,686.108449746,655.450968831,65860544.7383,1850.00121794,50964207.5123,67122993.4457,4871.52039897,4860.50965523,0.0
1.04363567734,0.953224341746,1.01256882417e-05,-50577718.3809,1.45640221439e-05,0.0,5870618.73332,678.418685194,647.121327114,67127414.5738,1686.94889986,37829351.9569,70824191.4002,4332.13169664,4324.60182276,0.0
1.09624746191,0.945957228895,9.92458427189e-06,-23983898.1866,1.72298676072e-05,0.0,5738061.55893,681.520588564,650.541144501,66774297.0381,1755.64853409,36825569.4164,69122211.3812,4550.52321439,4541.78586174,0.0
1.12057443437,1.00248344171,1.01479629548e-05,-14065522.5209,1.85128794202e-05,0.0,5618850.71014,682.756838728,652.03933498,66417229.3924,1785.0085411,41855859.4441,68407873.3155,4651.50447707,4641.78845335,0.0
1.04810062226,1.10798696677,9.97268373151e-06,-46235125.6699,1.30390974574e-05,0.0,5831688.2753,678.72081102,647.376744501,66998712.2773,1690.01580769,36103443.2078,70475276.4996,4350.665683,4341.9690804,0.0
1.13444100526,0.89057586035,9.8715540978e-06,-10514916.5372,2.15782232372e-05,0.0,5619835.3984,683.831311206,652.98276359,66443137.0579,1804.78035598,44227730.1348,67805180.5569,4709.06461283,4699.81022217,0.0
1.08920447298,0.822582560531,9.82127680668e-06,-26862659.439,1.81612092353e-05,0.0,5750730.44075,681.272341522,650.114938454,66802650.7943,1746.40364403,36093702.5257,69327580.3144,4521.28776734,4512.66165658,0.0
1.15030237849,0.834561047852,1.0390056062e-05,-5746615.69141,2.44321412038e-05,0.0,5501818.70311,684.65603668,654.028106093,66068032.9896,1823.82385493,46238442.6084,68420587.0616,4774.90517311,4764.96857811,0.0
1.04385592874,0.911924529509,1.04072898154e-05,-47985541.1567,1.50137840606e-05,0.0,5814614.00253,678.303903756,647.114317315,66954182.6635,1685.09716417,36674686.556,70600472.0393,4333.0459602,4324.53850746,0.0
1.10752989479,0.865716734845,9.7925623065e-06,-20448466.1301,1.89206243104e-05,0.0,5700616.25282,682.352256708,651.294261038,66671066.3893,1770.14293821,38314673.7407,68768040.3911,4597.35659327,4588.34019117,0.0
1.04280064769,0.880580925413,1.0039838272e-05,-50442346.373,1.51736614596e-05,0.0,5825623.21476,678.541001261,647.021460647,66977246.2529,1683.42676411,37700961.5638,70922771.9297,4328.66548856,4320.08640793,0.0
1.12140919309,0.801754300784,9.96605784327e-06,-14367663.7618,2.13250172734e-05,0.0,5636751.67362,682.993441405,652.093920766,66476506.2623,1787.49406282,41658329.0648,68803900.5196,4654.96956052,4645.6406694,0.0
1.115401865,0.902121160503,1.00151439171e-05,-15954880.9078,1.93440165864e-05,0.0,5663023.25576,682.534047954,651.711190884,66548230.8389,1779.61564487,40798498.8027,69367371.8763,4630.03314162,4620.80085735,0.0
1.14110441907,1.08662216426,9.92971478918e-06,-8779528.01913,1.91952729734e-05,0.0,5611246.48288,684.075601026,653.378495899,66429806.3719,1813.0458179,45323024.4701,68258126.2406,4736.72444356,4727.36307865,0.0
1.1339484671,1.09218285985,9.7712715736e-06,-11328185.9221,1.80854380619e-05,0.0,5618535.76815,683.81570055,652.940576693,66428624.3629,1803.03370739,43672414.656,67649717.6227,4707.02008693,4697.35685698,0.0
1.1287782157,0.828243396398,9.81317250008e-06,-12493721.5285,2.14998229114e-05,0.0,5612778.07783,683.575764827,652.592246654,66404958.1894,1796.71209331,42796211.8598,67777895.2937,4685.55837337,4676.00708266,0.0
1.13831621609,0.955224806397,1.03185791346e-05,-9893581.50274,2.15736296332e-05,0.0,5597976.98619,683.743527774,653.204702567,66382699.875,1810.12334606,44303197.5088,68005859.3458,4725.15061299,4715.96304967,0.0
1.06847812085,0.773868824498,1.02353845867e-05,-33657045.696,1.75914112925e-05,0.0,5784334.15844,679.65419065,648.675769058,66884251.0344,1718.8808023,34802304.5541,69735816.3583,4435.25267965,4426.8522117,0.0
1.18424655971,0.606754257053,9.71413495255e-06,4454666.54557,3.11721206964e-05,0.0,6290325.47337,687.270478492,656.105398574,65625518.9199,1864.90943064,52520954.7623,66909313.297,4915.80746936,4904.92076541,0.0
1.03140654691,0.858611280232,9.99409536463e-06,-60532503.724,1.50063344127e-05,0.0,5851339.14801,678.174865863,646.328021429,67038483.091,1668.32495979,43015307.029,70932638.6799,4281.36857622,4272.97136697,0.0
1.20901564816,0.663651759193,1.00173428538e-05,10832708.0778,3.28975281254e-05,0.0,12153916.7516,688.652645623,657.599826486,65040995.9974,1892.57754922,56560179.0878,66615817.352,5018.62395551,5006.62487741,0.0
1.07516819791,0.803720558872,9.82784169589e-06,-32223746.8515,1.73505740327e-05,0.0,5791749.77713,680.259249068,649.06461542,66917884.3075,1728.0009752,35056016.1327,69727257.0144,4463.02318952,4454.6153303,0.0
0.913741071548,0.909821065964,1.01467306005e-05,-91661807.2987,1.37904770317e-05,0.0,6100977.2767,690.626036521,638.77740765,67599212.9193,1597.69934936,66973740.3066,67599212.9193,3792.939188,3786.08601246,0.0
1.13708970372,0.992753131833,1.01407608782e-05,-10356580.9007,2.05353555627e-05,0.0,5608219.24495,683.797094817,653.150123755,66401396.3247,1808.28746121,44117952.6912,67923049.2194,4720.05936014,4710.78577038,0.0
1.13137538429,0.839665886791,9.98738928019e-06,-11483354.7416,2.16983757818e-05,0.0,5576591.55621,683.553269341,652.685778412,66301844.3228,1799.07034241,43502892.3279,67480288.4633,4696.33922019,4686.44077888,0.0
1.07678925743,0.763126059716,1.04299398605e-05,-31287905.8511,1.87107089577e-05,0.0,5681353.20482,680.27139228,649.287549185,66569348.6676,1727.36601866,34891042.9343,68850965.8288,4469.75220759,4460.10297869,0.0
1.11165705443,0.974793875674,9.73831959522e-06,-19617728.5196,1.80337328951e-05,0.0,5695862.41046,682.568420722,651.5398162,66664564.2676,1775.29073212,38841927.7929,68965839.4782,4614.48843294,4605.40697978,0.0
1.13697213794,1.03467285617,1.03472558909e-05,-10195907.7664,2.02062098803e-05,0.0,5607973.29099,683.615609218,653.130863679,66412613.8102,1808.3141948,44087111.0524,67956459.3104,4719.57134459,4710.40511189,0.0
1.11426801344,0.924108518034,9.72491141283e-06,-18877805.7871,1.88752074513e-05,0.0,5684604.91906,682.739333464,651.69282478,66634305.8596,1778.70489474,39236804.8738,69063705.1441,4625.32652379,4616.20316358,0.0
1.18566800258,0.944175837121,1.00224536025e-05,4976740.78271,2.35607801394e-05,0.0,6606917.91235,686.857129553,656.186130306,65725849.1472,1866.03914853,52712354.2925,67000972.6488,4921.70787871,4910.92327739,0.0
1.19847811632,0.949573711913,9.9276364093e-06,8345614.9961,2.41859390005e-05,0.0,9776747.81503,687.764203241,657.023794911,65492621.4383,1880.41906454,54835834.1304,66685435.5823,4974.88266084,4963.53826175,0.0
1.10621755967,0.990261647908,9.82130590303e-06,-19064386.4369,1.70919424157e-05,0.0,5685215.2767,682.189188682,651.198258869,66604550.899,1766.82570632,39199731.2291,68746742.9899,4591.90909019,4582.43300606,0.0
1.22131054516,0.823732789622,9.97550919632e-06,13158533.0931,2.90989256307e-05,0.0,14403927.2436,689.31464628,658.436106746,65015997.6853,1906.87292208,58484910.4705,66345213.7332,5069.66007296,5057.53305626,0.0
1.0825885397,1.0362448729,1.015187863e-05,-28143700.4123,1.53455614892e-05,0.0,5770071.97865,680.578321221,649.702328958,66857592.951,1737.55346952,35717459.3741,69276726.2249,4493.82502829,4485.30207517,0.0
1.01503538423,0.929179187566,9.74369856637e-06,-80219124.3115,1.3968886304e-05,0.0,5955764.20128,677.957777128,645.293062038,67320771.4167,1648.65038098,57376615.8726,70851925.6523,4213.41187994,4206.29035478,0.0
0.924249750249,1.01529795311,1.01190368063e-05,-92194681.5746,1.33005978387e-05,0.0,6096063.76452,689.366193931,639.457925549,67597471.436,1601.78732454,67442670.0443,67647220.0571,3836.56071328,3829.80549545,0.0
0.961492297572,0.951867549552,1.01501058025e-05,-93856571.0783,1.41045892629e-05,0.0,6040086.17296,684.202658443,641.866530951,67501144.4347,1612.65861755,68905579.1339,69130477.0516,3991.15452722,3984.47651811,0.0
1.08424878753,0.939132318281,1.00418943841e-05,-27121227.6646,1.62065607542e-05,0.0,5725274.99806,680.829363129,649.791170971,66704541.939,1737.82915836,35947729.6674,68910884.6902,4500.71671704,4491.40647869,0.0
1.15682522513,0.748354284329,1.00067408171e-05,-4963028.12313,2.70144200319e-05,0.0,5525792.38596,685.302178052,654.454077231,66175967.4883,1833.86008157,47139145.8531,68464123.1388,4801.98150951,4792.47070293,0.0
0.97147824331,1.12957870818,9.77677205528e-06,-94672460.451,1.24239440024e-05,0.0,6057126.93444,682.901566643,642.516749898,67553957.6635,1614.07009925,69623585.9803,69857423.0249,4032.60618798,4026.01027863,0.0
1.11318341674,0.890697194187,1.00443601483e-05,-16339292.4785,1.92193747087e-05,0.0,5617231.1597,682.47013103,651.570533796,66393510.2778,1774.72235885,40572798.0401,69189466.1361,4620.82436289,4610.84182587,0.0
1.12622247588,1.07071799418,1.06174858701e-05,-12220577.2994,1.84385141696e-05,0.0,5589528.9288,682.801673988,652.424037816,66334519.7078,1792.44360834,42985183.2778,67281567.9024,4674.94949738,4665.23825544,0.0
1.05165539681,1.14496665318,1.0136717949e-05,-43701087.0114,1.28856308386e-05,0.0,5818984.69237,678.743144387,647.596369465,66969246.6751,1694.75293383,35483799.3369,70442054.8966,4365.42155216,4356.66708427,0.0
0.997873660603,0.881006451507,1.00532689011e-05,-95492606.1602,1.45827176472e-05,0.0,5903940.90408,678.604677676,644.188019037,67123054.3448,1622.13930386,70346295.3427,70699987.5181,4142.17356516,4133.8997532,0.0
1.05342280041,0.917464082579,1.03315293973e-05,-43105818.2901,1.51623039234e-05,0.0,5798289.3955,678.807440366,647.706062807,66906853.9134,1697.88561702,35302457.5221,70342942.4077,4372.7580445,4364.09616432,0.0
1.15408408877,0.838852143835,9.77715231962e-06,-3604575.31991,2.23179609522e-05,0.0,5478728.63365,685.16194338,654.208285662,65997123.7501,1826.31097156,48223536.1813,67898527.284,4790.60305248,4779.86266895,0.0
1.18244548367,0.763356353696,9.76472519642e-06,4189318.55765,2.66582080095e-05,0.0,6085187.01907,686.958175495,655.995917026,65716569.1017,1862.23001965,52398497.9845,66994315.4404,4908.33120271,4897.48930996,0.0
1.07277628863,1.00564381515,9.8270665331e-06,-33300923.3991,1.48967810221e-05,0.0,5810803.37761,680.07809812,648.941773548,66971798.1357,1724.7113283,34902344.8726,69938061.1185,4453.0943741,4444.72347771,0.0
1.15534739194,1.16396412284,9.79033352829e-06,-4962586.32686,1.88925646918e-05,0.0,5578865.5238,685.022799257,654.316530846,66327596.2318,1831.17254208,47480877.808,68777375.9327,4795.84702394,4786.26868715,0.0
1.11655722978,0.957232679889,1.02134180534e-05,-15222137.6093,1.87168908532e-05,0.0,5633755.63917,682.450609609,651.768447359,66464645.1561,1780.0042525,41121448.1222,69025562.2522,4634.82906082,4625.27950078,0.0
1.03275504908,0.853053956994,1.01366886443e-05,-57459641.4536,1.5002142833e-05,0.0,5841516.11703,678.059909629,646.39694559,67009976.8806,1669.92172107,41166953.0143,70984558.3751,4286.96620873,4278.46053022,0.0
1.11624356259,0.791425659064,9.90438881799e-06,-15924604.4975,2.08491299873e-05,0.0,5655805.59066,682.714925316,651.764793261,66525346.6993,1780.84553587,40825347.9047,69376502.1379,4633.52702831,4624.28110222,0.0
1.07296133004,0.933111213219,1.01012271987e-05,-31823962.9881,1.58589601669e-05,0.0,5783884.14201,679.883491614,648.912028639,66885651.3191,1724.32708666,35132713.5017,69543632.7961,4453.862481,4445.29903376,0.0
1.12940189882,0.860648282644,9.64703436353e-06,-12582590.1072,2.09324059302e-05,0.0,5620041.463,683.70610956,652.631117497,66438608.6885,1797.48564992,42766666.3149,67949648.7682,4688.147282,4678.56019409,0.0
1.02253812706,0.85377744979,9.89280106716e-06,-69705511.4237,1.47127893553e-05,0.0,5927203.6442,677.915515565,645.779916125,67261168.9841,1658.77417515,49249826.1541,70860254.7235,4244.55576543,4237.32768105,0.0
1.27486676666,0.742495400753,1.00938706309e-05,24536581.8516,3.92009828078e-05,0.0,26327813.644,692.694047436,661.784826851,64311350.8271,1969.38152174,67369952.8659,68356148.5676,5291.97194841,5279.5227996,0.0
0.998272555194,1.02507287279,9.98409553238e-06,-95537541.7141,1.33717558852e-05,0.0,5914177.59626,678.657107367,644.215191005,67154031.0826,1622.55889237,70385806.756,70724968.5571,4143.82937661,4135.54908471,0.0
1.00524603751,1.00604751695,1.00744376916e-05,-90159686.2135,1.36046589199e-05,0.0,5892180.3936,677.935762408,644.65812101,67098430.5001,1631.88732177,65691812.8556,70779555.9846,4172.7763017,4164.3826016,0.0
1.00649294718,0.870313911873,1.01396854451e-05,-88232778.6643,1.47494638264e-05,0.0,5878670.71916,677.84123869,644.739466445,67059962.01,1633.65664433,64048462.636,70706010.2528,4177.95222374,4169.53814373,0.0
1.20649765739,0.788776465964,9.47311292187e-06,9840647.82944,2.79448448007e-05,0.0,11313013.5803,688.578955927,657.522124304,65540722.4214,1891.86505958,56106596.3885,67046737.1043,5008.17177583,4997.09358433,0.0
1.10361415145,0.836550530062,1.00893372783e-05,-21412492.0208,1.94735734463e-05,0.0,5697774.25253,681.938865021,651.051375086,66654240.0262,1765.19717839,37773080.8954,68599089.1108,4581.10234267,4572.24915806,0.0
1.01117924252,1.05238685619,1.03305964315e-05,-80789543.9463,1.29395620782e-05,0.0,5944140.19513,677.251967313,645.040343905,67281330.0371,1643.3317305,57825818.5975,70610245.5519,4197.4050357,4190.33828879,0.0
1.04799161498,1.04650788683,9.65653354179e-06,-48968063.195,1.35358963501e-05,0.0,5833424.15767,679.051036834,647.381828217,67003932.9009,1689.67359922,37270775.1144,70896371.7044,4350.21319378,4341.37278842,0.0
1.09961128565,0.87553893362,1.01693539806e-05,-22432369.0614,1.86518380436e-05,0.0,5709344.02262,681.633639693,650.797943602,66683531.5689,1759.92865997,37315245.6187,68442433.4226,4564.48644673,4555.69704376,0.0
1.1454493264,1.07964568548,1.01378252929e-05,-8167127.28481,1.99078670012e-05,0.0,5593730.52125,684.18837516,653.621753313,66374220.9928,1819.09456151,45362747.998,68453301.4688,4754.76015389,4745.43220724,0.0
1.135579272,0.993193907919,9.9773023921e-06,-10882340.5555,1.99319659581e-05,0.0,5596659.05344,683.737697346,652.964357659,66367904.6038,1805.33092289,43900669.0901,67712168.2298,4713.78955807,4704.0989668,0.0
0.945601089766,0.821256656354,1.01044337865e-05,-93297107.97,1.45531929174e-05,0.0,6091255.86627,686.236893789,640.848189447,67632028.6632,1608.30752332,68412965.2792,68630224.1948,3925.19012362,3919.01715034,0.0
1.05323974239,0.826731567224,1.01969226887e-05,-43768552.5265,1.62089147558e-05,0.0,5788485.50875,678.948798422,647.692152243,66883125.3997,1697.18148854,35479751.1208,70269817.5422,4371.99817066,4363.16018997,0.0
0.98827382462,0.817831733768,9.80135289578e-06,-95166801.972,1.52682438934e-05,0.0,5987297.44459,680.802448659,643.591997429,67368798.3062,1618.53731703,70058982.4023,70300977.3887,4102.324646,4095.23460597,0.0
1.12630520315,0.969841504881,1.01342962551e-05,-12842011.3789,1.9468829909e-05,0.0,5597620.2008,683.172004931,652.417831657,66342867.196,1792.58609268,42627344.3097,67293013.689,4675.29289828,4665.47891345,0.0
1.13950627522,1.03675976667,1.00859649099e-05,-9467978.39628,1.961634369e-05,0.0,5551447.75153,683.992694044,653.265273453,66212402.1297,1809.03994927,44619958.0853,68060267.9851,4730.09054844,4719.92543995,0.0
1.12057443437,1.00248344171,1.01479629548e-05,-14111607.9748,1.8516675994e-05,0.0,5618718.97292,682.757748991,652.039159351,66416256.1266,1785.00105322,41878033.3262,68416769.6319,4651.50447707,4641.78753692,0.0
1.17061153875,0.779946027989,9.75066416239e-06,1195781.0246,2.50912268797e-05,0.0,5445629.1372,686.216430284,655.285216579,65901014.0521,1847.99955791,50786831.8559,67735161.3058,4859.20849735,4848.6740776,0.0
1.18019438941,1.24798110108,9.92618884915e-06,3083131.79011,1.80470286167e-05,0.0,5419094.04798,686.442090154,655.847769178,65817106.0558,1858.09616674,51633997.1625,67082488.8937,4898.98691044,4887.85603649,0.0
1.03173837737,1.07065752542,9.83747886074e-06,-59922709.5989,1.30042622668e-05,0.0,5916592.94783,678.155167929,646.367308224,67247570.2265,1670.9283887,42744930.1637,71059275.1841,4282.74600446,4275.38633227,0.0
1.14771815923,1.03891388533,1.01268015157e-05,-7572107.63144,2.0742099075e-05,0.0,5582556.48767,684.390000317,653.798960228,66341898.5686,1822.01514624,45691963.6837,68582161.5597,4764.17807896,4754.81548873,0.0
1.11566307397,0.840813664848,1.02386133378e-05,-15660462.9782,2.01640950615e-05,0.0,5626613.93676,682.450439594,651.711505251,66423755.7804,1779.26735598,40864686.7625,69156828.8083,4631.11742005,4621.58143331,0.0
1.05406192033,1.07099356321,1.05284662023e-05,-39889652.5739,1.36524248386e-05,0.0,5803851.25538,678.553476335,647.739061446,66920047.6602,1698.45679282,34802914.5144,69564008.2209,4375.41103129,4366.79722187,0.0
1.12758860069,1.17996933916,1.00738569053e-05,-12436643.6036,1.6603304477e-05,0.0,5616734.32678,683.068479219,652.428979578,66420818.5994,1793.84577955,42926389.1831,67327502.9354,4680.62028146,4670.78594887,0.0
1.03680472415,1.10835195118,9.73232211445e-06,-58081207.8682,1.28617022211e-05,0.0,5863894.57283,678.502483757,646.66610899,67084708.8367,1675.25615255,41574566.8615,71206209.1539,4303.77640995,4295.2939502,0.0
1.10961096145,0.91785164221,9.67046425342e-06,-20544918.7351,1.86966845073e-05,0.0,5712823.36893,682.529663327,651.42853938,66706165.1623,1773.40626336,38296973.3525,68884016.8721,4605.99510098,4597.1467207,0.0
1.09055965943,0.824127874005,1.026184522e-05,-25071037.3089,1.86068172184e-05,0.0,5728040.34116,680.984938496,650.150391266,66728264.9245,1748.14776517,36395318.0312,69024229.7991,4526.91314629,4518.26584237,0.0
1.07193097868,1.04139638541,9.79827423729e-06,-33753793.3467,1.4411586542e-05,0.0,5816945.93987,680.057069385,648.906971177,66987309.9349,1723.58385529,34835509.1471,70015601.9107,4449.5854925,4441.2276429,0.0
1.00762743009,0.798103139144,1.00606233644e-05,-84785538.8709,1.50986205458e-05,0.0,5893694.8593,677.86803681,644.811284411,67098231.18,1635.89993866,61126714.2983,70733539.2923,4182.6614623,4174.52867955,0.0
1.19120913561,0.876866296574,9.98304965515e-06,5826704.92778,2.53159953418e-05,0.0,7377133.38656,687.39417577,656.53615326,65444482.8818,1871.09066498,53078349.139,66672776.6561,4944.70912192,4933.04719149,0.0
1.05518901277,1.00822290261,1.00601486349e-05,-40351399.9895,1.41965791521e-05,0.0,5823468.19695,678.963932909,647.806375028,66983167.5284,1700.19179522,34890921.4309,69860738.2233,4380.08959201,4371.62085723,0.0
1.00372101593,1.1483482474,1.02491308101e-05,-91529818.5729,1.24324140589e-05,0.0,5899474.58036,677.754939484,644.559222342,67123485.7767,1629.96430911,66876183.6028,70726422.7883,4166.44593713,4158.15998618,0.0
1.15746176639,0.979702918286,9.65801616202e-06,-3266650.28437,2.02623107978e-05,0.0,5485911.97975,685.363116758,654.419841618,66019396.9502,1830.51637452,48434194.5205,68368807.6364,4804.62379228,4793.79623314,0.0
1.206059906,0.903472693954,9.7642104527e-06,9099013.76494,2.54727732872e-05,0.0,10490485.0813,688.335522605,657.479569887,65458196.9701,1890.3695396,55386130.8092,66894945.109,5006.35466981,4994.97665923,0.0
1.19250116857,1.12944939483,9.71783014669e-06,5558907.50911,2.04175521411e-05,0.0,7154995.32797,687.424178089,656.614481594,65602417.8162,1872.5912136,53089924.9296,66893933.243,4950.07235073,4938.40637237,0.0
1.10312413226,0.978706786548,9.69733316697e-06,-20718395.4142,1.68606691707e-05,0.0,5704096.91961,682.10316163,651.020990822,66659351.7073,1763.00843968,38474864.6325,68576768.1288,4579.06827301,4569.73995151,0.0
1.10295010903,0.908309881193,1.02029959378e-05,-21367921.1567,1.85871983932e-05,0.0,5700356.60962,681.78718255,651.00576412,66663500.4071,1764.2429875,37778757.6646,68593871.4126,4578.34590258,4569.50384579,0.0
1.07139733531,1.12856693081,1.01081484972e-05,-33897936.1131,1.38498937621e-05,0.0,5816705.3558,679.757483093,648.853028542,66991907.241,1723.46849314,34818822.3326,69831651.9283,4447.37033887,4439.21049731,0.0
1.0584185282,1.12691495304,1.00554874485e-05,-39505334.1689,1.29899081296e-05,0.0,5833987.32271,679.123463734,648.036129163,67021469.4692,1705.20810381,34806560.1264,69801310.9404,4393.49531056,4385.15757648,0.0
1.13852081408,1.07335729201,9.96975023692e-06,-8861601.40127,1.88210800843e-05,0.0,5564050.20772,683.964986976,653.212358514,66265075.5723,1807.43837716,45265711.5973,68124617.1393,4725.99989925,4715.85729991,0.0
1.13536394116,0.825112300874,1.04136888549e-05,-10432518.0629,2.34926121392e-05,0.0,5592645.38552,683.583553298,653.036267049,66364106.1118,1806.43994748,43931702.1946,67837302.4724,4712.89571976,4703.75498267,0.0
1.03631081436,1.06186027416,9.98473018712e-06,-56065194.5725,1.32238650797e-05,0.0,5899082.35552,678.186614319,646.652114591,67200553.5366,1677.06606619,40499400.4064,71060004.2466,4301.72619041,4294.30074505,0.0
1.06617913002,0.887440978108,1.0094668703e-05,-35685776.6213,1.58746196148e-05,0.0,5798709.56241,679.611467368,648.542627034,66917413.4993,1715.64595226,34654090.1483,70039552.355,4425.70956871,4417.25075277,0.0
1.05394047913,0.753089073095,9.76352749944e-06,-45232603.1763,1.69127277429e-05,0.0,5794081.50004,679.377229897,647.753526765,66891745.3583,1697.8431578,35885165.6548,70471734.5361,4374.90692887,4365.96685778,0.0
1.13248949252,0.948854685013,9.77551477785e-06,-12749236.8576,2.03787072569e-05,0.0,5552341.01936,683.889628759,652.820030011,66219909.7807,1799.51876284,42742552.9057,67343187.9445,4700.96388345,4690.51060716,0.0
1.11758779771,1.01487622213,9.7908187308e-06,-15700001.817,1.7683966287e-05,0.0,5632616.6216,682.813549476,651.83600358,66447726.5581,1780.64512963,41005712.6789,69381390.1567,4639.10694829,4629.14628042,0.0
1.0854414633,0.89499351489,1.03017537114e-05,-26865145.207,1.74184002913e-05,0.0,5751256.48121,680.68252785,649.872534165,66797570.302,1741.75435197,35980367.5531,69190150.9012,4505.66751416,4497.19753657,0.0
1.22705385799,0.921308139361,9.97630647012e-06,14400424.1533,2.73295512061e-05,0.0,15805084.9093,689.564676231,658.813600555,65061691.8274,1913.80341467,59572799.6458,66576201.7853,5093.50056452,5081.49152187,0.0
1.15697950362,0.675445333848,9.95011000205e-06,-2619836.02234,2.61510532266e-05,0.0,5433419.92217,685.446980774,654.430682786,65847318.201,1830.2479289,48499389.0012,67706986.5705,4802.62191953,4791.82850983,0.0
1.09017561467,1.06752388791,1.02261941645e-05,-25362791.2686,1.55510982867e-05,0.0,5748393.87479,680.878403915,650.128388249,66788494.4555,1747.44495094,36356639.0203,69122901.1308,4525.3189765,4516.67768064,0.0
1.16032138436,0.938855569992,1.05992957201e-05,-1197351.89522,2.22542364172e-05,0.0,5434169.02874,685.032544453,654.627408558,65798661.146,1834.05730746,48761736.3632,67402254.9371,4816.49406648,4805.83268941,0.0
1.15448228599,0.759540810531,1.0017471884e-05,-4287795.8933,2.59268214858e-05,0.0,5506723.2884,685.08163372,654.247519174,66105197.8632,1829.45125496,47684381.774,68442629.8264,4792.25596914,4782.35846748,0.0
0.989687592354,0.973532971564,9.8973153031e-06,-95196136.8388,1.38531021009e-05,0.0,5934413.88615,679.949218995,643.667245675,67203866.6795,1612.80823853,70084993.4145,70329687.1039,4108.19319586,4100.05191205,0.0
1.21722988847,0.913394569113,1.02420096491e-05,12495966.4027,2.6985083972e-05,0.0,13736259.4387,688.787144032,658.185291746,65166345.4472,1902.55753041,58023739.2743,66311039.8551,5052.72126704,5041.00895382,0.0
1.05537500925,1.10147530116,1.01159208073e-05,-42484726.6607,1.36503056765e-05,0.0,5807742.71213,678.981859551,647.820029024,66938447.8686,1699.88183831,35175791.6163,70087428.649,4380.8616634,4372.07700681,0.0
1.06354920201,0.989527395073,1.00796021015e-05,-36194502.2301,1.47029052222e-05,0.0,5812474.79567,679.422566113,648.372090886,66964176.8139,1711.92421558,34643066.8907,70171357.5256,4414.79273754,4406.37533059,0.0
1.19369133649,0.72249156394,9.83678667404e-06,6478154.50252,2.8701750143e-05,0.0,8022125.99272,687.737107866,656.726149139,65472827.4369,1875.55561679,53597319.5633,66615057.6189,4955.01273777,4943.75474879,0.0
1.13715868479,0.813371676649,9.89525327496e-06,-11665995.6986,2.30733436717e-05,0.0,5514376.3686,684.212729569,653.12700114,66111214.2953,1805.80062069,43381596.3631,67527845.8642,4720.34570056,4709.80901485,0.0
1.02521730004,1.08609640063,1.01532032702e-05,-63498160.9953,1.28296155034e-05,0.0,5914719.71071,677.643742007,645.939632354,67230348.5973,1661.86235704,44914218.1326,70812331.4375,4255.67701247,4248.32085277,0.0
1.18714577171,0.63954661842,9.98031868811e-06,5703877.42755,3.06433089249e-05,0.0,7289704.6015,687.277403522,656.275592533,65478682.7106,1867.46457073,53120327.805,66757386.6093,4927.84209837,4916.70971026,0.0
1.01979848793,1.00707639565,9.88028187464e-06,-73294518.3643,1.3377956349e-05,0.0,5941809.61155,677.843072016,645.608125993,67299577.5019,1655.05600111,51924465.5051,70968601.5405,4233.1835234,4225.99442755,0.0
1.01680168926,0.566246845171,1.03111255774e-05,-74208326.3315,1.79027633683e-05,0.0,5902381.52437,677.54432647,645.40916053,67175952.8595,1651.21044337,52591721.232,70640954.7742,4220.74381212,4213.59754072,0.0
1.03758288955,0.847649116946,9.8394373954e-06,-55988957.3913,1.52390665408e-05,0.0,5890614.01569,678.433399671,646.732095563,67175406.834,1678.85858614,40447473.2782,71096037.0662,4307.00657452,4299.56422731,0.0
1.1781135298,0.813936635918,1.00023581654e-05,2954470.28417,2.5393896931e-05,0.0,5371121.09275,686.565697614,655.717876662,65667295.4842,1856.10895887,51418250.3169,66895176.0256,4890.3492622,4879.25718523,0.0
1.12405242749,0.862043580629,9.78782171698e-06,-13801430.8429,2.04652349697e-05,0.0,5636489.85554,683.249469403,652.266269532,66485678.7927,1790.63618808,41996572.801,68619544.067,4665.94162651,4656.4681755,0.0
1.05070492921,0.782972976391,9.66734989972e-06,-45479907.8,1.59649505403e-05,0.0,5820870.27435,679.209626437,647.54506032,66964031.6871,1693.78718238,36034792.9492,70651891.5311,4361.47616115,4352.73549982,0.0
1.16619801467,0.987880282838,1.00297193861e-05,211368.665174,2.12662252678e-05,0.0,5431027.34052,685.705711755,654.993848168,65829769.006,1840.75856436,50012035.4581,67649571.2225,4840.8879589,4829.90543156,0.0
1.09884910096,0.98552641651,1.01233009588e-05,-22830832.4384,1.726276849e-05,0.0,5721634.14824,681.564536696,650.748870136,66719378.2539,1758.8435257,37206183.1255,68715326.4455,4561.32261808,4552.5452169,0.0
1.06276108492,0.897359496037,1.02073603048e-05,-36789551.8294,1.56155729088e-05,0.0,5803537.45017,679.334158586,648.320427931,66927791.7261,1711.16054372,34625301.2632,70035104.3952,4411.5212635,4403.11586435,0.0
1.07186098471,0.80334508599,1.00538149951e-05,-32490137.6571,1.72816717634e-05,0.0,5780039.29264,679.930181173,648.86039823,66870267.7197,1722.98047852,35036211.552,69619902.9665,4449.29494753,4440.74879793,0.0
1.09336004917,1.00974956694,9.86936258915e-06,-25349723.5814,1.63131743667e-05,0.0,5750302.19752,681.337764714,650.331252795,66808941.074,1751.68163753,36459071.6019,69260032.0665,4538.5375641,4529.84486001,0.0
1.09205068807,1.00610113673,9.9922773085e-06,-25424797.0983,1.63399871316e-05,0.0,5748759.58924,681.177151275,650.24660394,66803663.8791,1749.97079183,36410363.2416,69215487.4324,4533.10240618,4524.43100761,0.0
1.0378482903,0.812587023962,1.02219971967e-05,-53082306.4367,1.5384800344e-05,0.0,5833594.65413,678.197558599,646.717534196,66996199.6775,1677.24871159,38856833.0637,70926620.5196,4308.10825304,4299.69658951,0.0
0.990335035313,0.775000443791,9.83818236469e-06,-95424894.5163,1.49988168627e-05,0.0,5980903.52579,679.68165998,643.722128655,67338741.7836,1614.63943046,70286266.5305,70530285.2761,4110.88073158,4103.68394879,0.0
1.09342915122,1.12157249603,1.02081835448e-05,-24328935.3894,1.51350262254e-05,0.0,5743986.95466,681.075002136,650.349873067,66780437.7807,1751.65688764,36653121.2558,69003782.457,4538.82440671,4530.13123454,0.0
1.08945643193,0.733514608048,1.00701272466e-05,-25984457.8833,1.96806000813e-05,0.0,5732731.83782,681.12343067,650.104348841,66751317.7917,1746.80554995,36195449.0623,69183718.6871,4522.33364894,4513.70359952,0.0
1.18781049491,0.896368887237,9.65210534857e-06,4957551.32734,2.4073320138e-05,0.0,6675010.122,687.251774573,656.324279595,65744321.8626,1868.77323328,52925041.9814,67060463.6518,4930.60136437,4919.66396346,0.0
1.12626327905,0.985073090665,9.89636111707e-06,-13258051.6795,1.91878668392e-05,0.0,5635829.7183,683.275483093,652.426453645,66480995.1195,1793.59040956,42299051.608,68190320.6378,4675.11887134,4665.71086795,0.0
0.983903862024,0.968421463164,9.88641060892e-06,-95177500.5384,1.35055367316e-05,0.0,6002317.55703,680.466573551,643.310695869,67396172.0068,1612.37477711,70068460.4615,70309569.7283,4084.18493126,4077.08178297,0.0
1.18161472318,1.17351718545,9.82333474547e-06,3277476.93488,1.90370653324e-05,0.0,5412674.55168,686.633483959,655.938940955,65798161.6164,1860.04257028,51773887.6913,67069978.6737,4904.88271592,4893.73957894,0.0
0.977093106702,0.921841513755,9.87091717867e-06,-94841845.5064,1.42902235305e-05,0.0,6029146.01291,681.933982335,642.876925009,67478552.0404,1614.52599192,69772809.5593,70009951.364,4055.91348592,4049.2390037,0.0
1.10652150332,1.07431368786,9.98522870964e-06,-20706744.8329,1.64911380371e-05,0.0,5715072.83317,682.062455221,651.22794577,66708880.4181,1768.90810693,38165988.3881,68783346.9811,4593.17076028,4584.2721259,0.0
1.03142814608,0.949006391936,1.02428046547e-05,-59159568.7472,1.43616999923e-05,0.0,5840896.55391,677.902993045,646.316380679,67008416.7513,1667.93186009,42163260.5816,70939041.843,4281.45823438,4272.97550159,0.0
1.15155829405,1.0410212774,9.82121638388e-06,-6662346.57703,2.02818545853e-05,0.0,5543035.34266,684.888140175,654.054756668,66216505.67,1825.18265898,46195243.752,68788072.9196,4780.1184786,4770.05594618,0.0
1.1809130699,1.1935008332,1.02873876185e-05,4487274.01658,1.92607251593e-05,0.0,6183729.29176,686.23258463,655.87780889,65799116.8184,1859.4948436,52318843.0707,67078294.9213,4901.97015315,4891.2572631,0.0
1.11054668489,0.831993205369,1.01280677694e-05,-17326936.9795,1.98996019905e-05,0.0,5665018.06137,682.247830133,651.44494518,66550616.9382,1773.22531915,40094911.6294,69047197.5355,4609.87928898,4600.72565228,0.0
1.06596668972,1.17967265079,1.01801861582e-05,-35496156.2911,1.29123794372e-05,0.0,5813862.25108,679.42535039,648.529619094,66965305.8484,1715.16148551,34674148.8007,70040981.9367,4424.82772903,4416.37223711,0.0
1.13362142277,1.10056616499,9.93283911963e-06,-10770432.6736,1.83338868214e-05,0.0,5638381.24962,683.637245023,652.932568902,66502975.8261,1803.53042728,44069706.1953,67818141.6112,4705.66252592,4696.44732591,0.0
1.093522083,0.970590864629,9.93634062099e-06,-25120005.7036,1.68344894753e-05,0.0,5744250.80908,681.320555477,650.340979056,66790836.3676,1751.91501345,36516609.8651,69184858.4361,4539.21016653,4530.51646053,0.0
1.04296943969,0.96050702515,9.77366603885e-06,-51469431.5675,1.41477962698e-05,0.0,5881702.84645,678.643670897,647.058214273,67151610.8676,1685.53524656,38222815.2074,71054502.651,4329.36614415,4321.66094813,0.0
1.12259700432,1.01449075929,9.7212008522e-06,-14662970.9027,1.8214136733e-05,0.0,5661366.08996,683.11861444,652.17437345,66564773.7017,1788.81898217,41576108.5192,69030071.7233,4659.90016493,4650.55187657,0.0
1.08118034238,0.893455650472,9.96274121386e-06,-29237215.5004,1.67694130207e-05,0.0,5772111.61723,680.684077463,649.605106649,66858673.1894,1735.83381982,35629693.3032,69314171.8319,4487.97960122,4479.47853944,0.0
1.2131835753,1.08044650918,1.00601701354e-05,11752286.2336,2.30862448153e-05,0.0,13032407.2454,688.446572716,657.906531889,65359704.7289,1897.7627899,57392237.3902,66409763.4742,5035.92502107,5024.40003731,0.0
1.11490528207,0.878902679283,1.01751517851e-05,-15645879.7263,1.95091080655e-05,0.0,5634669.75729,682.41140952,651.663870844,66463473.8881,1777.96027216,40739649.5355,69290213.873,4627.97182587,4618.44882465,0.0
1.14156369466,0.850217660219,9.47810645083e-06,-8869979.25089,2.1983662022e-05,0.0,5586098.90971,684.564137113,653.431761138,66349777.4977,1812.96565293,45276684.6656,68155011.2512,4738.63089653,4728.85860774,0.0
1.09402006532,1.08396649419,9.95295350858e-06,-24901289.53,1.54610815261e-05,0.0,5750631.3564,681.282448424,650.373284486,66811121.33,1752.47463083,36566488.7558,69185287.622,4541.27729114,4532.57423476,0.0
1.1708754544,0.934578870511,9.78507037702e-06,974918.939489,2.21569576339e-05,0.0,5428194.97239,686.164627982,655.294626014,65845644.0155,1847.07892026,50582792.0845,67656584.1285,4860.30401121,4849.34154812,0.0
1.01115932842,0.64110528219,1.04317916041e-05,-80403929.7321,1.70354642978e-05,0.0,5842710.49887,677.484789945,645.030565745,66963071.8986,1640.28483242,57500356.4739,70476054.7764,4197.32237227,4188.91438197,0.0
1.0798128627,0.78111556107,9.8988172999e-06,-29977419.9763,1.80454261867e-05,0.0,5770947.14554,680.680734444,649.50435561,66863161.1569,1734.12682896,35529574.2013,69308417.4804,4482.30319307,4473.82262859,0.0
1.05875481678,0.963308329741,9.67433447499e-06,-40954447.6455,1.46870909709e-05,0.0,5819520.8028,679.496478495,648.034231177,66972570.4709,1704.71124537,34982754.3532,69764290.9188,4394.89124445,4386.20051029,0.0
1.23470470327,1.24576652445,9.92860404237e-06,16343514.1465,2.19437440457e-05,0.0,17842523.1529,689.757807761,659.295433784,65220366.9395,1923.09346274,61277394.279,66973040.6391,5125.25922327,5113.58677204,0.0
1.12605644115,1.20847015686,9.80584334457e-06,-13382344.6513,1.60357288739e-05,0.0,5603467.16656,683.267040984,652.39277558,66378775.1336,1790.7768779,42241000.6399,68080499.5011,4674.26028721,4663.9570837,0.0
1.09580668333,0.961428115324,1.01456234133e-05,-23698476.3579,1.72805348829e-05,0.0,5727952.94916,681.35124817,650.524276399,66732267.905,1754.89058216,36846528.1858,68975483.4509,4548.6935425,4539.96398223,0.0
1.00854354444,1.14483670559,1.00869773758e-05,-86589210.8785,1.22639514614e-05,0.0,5893109.14876,677.738143353,644.866080527,67106837.8493,1636.18071581,62649044.6159,70745799.164,4186.46425297,4178.01661413,0.0
1.04725580458,0.935862616478,9.93727986139e-06,-45612775.7661,1.44644172049e-05,0.0,5842555.3094,678.746961136,647.331486466,67024862.6732,1689.84542235,36043488.9481,70499551.2998,4347.15884481,4338.81464717,0.0
1.1960617721,0.978377282482,1.02673182018e-05,7871618.06345,2.38157367383e-05,0.0,9299574.76524,687.398361042,656.866460727,65478565.3671,1877.27032404,54331844.2114,66556436.5181,4964.85241599,4953.56091994,0.0
1.10154853415,0.988518219901,9.76326958328e-06,-19630951.6733,1.62861160317e-05,0.0,5714212.30374,681.92184109,650.91893915,66679850.541,1760.91951925,38945440.7023,68603755.0401,4572.52796526,4563.24631477,0.0
1.11442928324,0.775718256157,9.91786546106e-06,-18125928.7833,2.12205105771e-05,0.0,5669160.78702,682.677470396,651.6931509,66580186.6157,1779.24808377,39572177.1177,69081528.3309,4625.99595473,4616.96557575,0.0
1.07920411154,1.05632179669,1.01808296723e-05,-30353072.3382,1.5119661346e-05,0.0,5785859.29847,680.352446025,649.480008886,66913112.7228,1733.70201263,35278725.2914,69269663.6329,4479.776267,4471.49943913,0.0
1.06554696805,1.04891071566,1.03629296083e-05,-34539245.2065,1.44089845509e-05,0.0,5803831.91201,679.308369604,648.50592257,66940729.2436,1714.82309484,34700721.5922,69879448.2656,4423.08546438,4414.7304777,0.0
1.16914029354,1.11232849794,1.01103846158e-05,833398.386272,1.95246221433e-05,0.0,5461082.30664,685.722016783,655.188624499,65931152.0244,1845.39712944,50300526.7767,67017552.4501,4853.10135848,4842.48286598,0.0
0.875214536768,0.905295064808,9.80521897718e-06,-90222947.7387,1.27291632155e-05,0.0,6210962.56657,695.591454157,636.302207971,67904557.1035,1586.2903271,65707380.738,67904557.1035,3633.01554212,3626.99280738,0.0
1.03012609051,1.18129244274,9.88771678358e-06,-60672158.1932,1.20429211045e-05,0.0,5924203.33719,678.021767821,646.265248672,67267655.7062,1668.72534125,43104611.1012,71055726.3537,4276.05340171,4268.71686245,0.0
1.00977013067,0.994291990707,1.00299816661e-05,-81357959.9762,1.35432511176e-05,0.0,5900137.35982,677.784731974,644.949205533,67121279.1477,1638.62510158,58235440.5194,70941811.353,4191.55581241,4183.38896407,0.0
1.07799501343,1.07056680507,1.00502586993e-05,-30228243.2393,1.45741706376e-05,0.0,5788909.29566,680.348818924,649.385468408,66906663.8042,1731.51446868,35419701.0329,69334680.2197,4474.75730075,4466.30567171,0.0
1.09422764123,0.986648463554,1.00273819322e-05,-24572689.1972,1.67805929173e-05,0.0,5739244.13984,681.30090025,650.394420864,66777809.5221,1752.81695939,36601929.0057,69082105.9249,4542.13893875,4533.43416623,0.0
1.1596827274,1.16357111145,9.87702432586e-06,-3157384.73785,1.78747673622e-05,0.0,5484506.66119,685.333368055,654.600350063,66020551.5011,1833.00095438,48097834.5223,68133212.5095,4813.84300144,4802.97488748,0.0
1.20750185373,1.01725774518,1.00221960627e-05,10320914.0963,2.3972409649e-05,0.0,11669368.4594,688.192379676,657.509942784,65265284.6104,1889.91133607,56264584.078,66993539.5148,5012.34019483,5000.36920461,0.0
1.02940380461,0.93426907388,1.00225307199e-05,-62179880.6857,1.42846227159e-05,0.0,5859150.12916,678.05156161,646.19909873,67060332.3291,1665.60221357,44052657.1409,71017075.7861,4273.05519294,4264.69002834,0.0
1.27948940995,1.31052830538,9.62176224785e-06,24307974.1513,2.3809685047e-05,0.0,26005315.3171,692.723910931,662.074452165,64525166.4832,1973.19698457,67166205.3517,68109907.1461,5311.1605407,5298.23487078,0.0
1.07724694536,0.822311280391,1.00307327721e-05,-30614066.4001,1.74016764855e-05,0.0,5775185.39088,680.415224244,649.331594583,66862590.2563,1730.71344426,35365170.9502,69281361.7735,4471.65207019,4463.21203316,0.0
0.904928055193,0.92082361706,9.58074250444e-06,-91462967.1052,1.41996700528e-05,0.0,6170644.00005,693.544277744,638.219351136,67797395.5551,1603.87452803,66798677.1064,67797395.5551,3756.35635711,3750.16486061,0.0
1.06882387297,0.863115720058,1.01083074427e-05,-34426036.814,1.63158417449e-05,0.0,5789830.28469,679.755683002,648.710852832,66895720.0306,1719.12948914,34743878.6605,69826243.7071,4436.6878967,4428.18765414,0.0
1.0414712218,1.27190792362,9.71145359942e-06,-52151636.4118,1.15077048201e-05,0.0,5856189.62252,678.71585043,647.023142608,67065156.924,1680.8965054,38461003.6736,71097185.4186,4323.14704169,4314.41384996,0.0
1.18256181656,1.10259948517,9.95450362163e-06,4084681.92726,2.04210017261e-05,0.0,5978046.18275,686.598907436,655.993153896,65847592.1403,1862.12960396,52262963.989,67117619.7841,4908.81410054,4898.08360291,0.0
1.16459314816,1.16970678276,9.76595562225e-06,-2271641.96651,1.95041058712e-05,0.0,5544702.0843,685.662773391,654.935051963,66228367.4984,1842.54466832,48976489.9218,68330671.4,4834.22615801,4824.46982417,0.0
1.27496088576,0.853275379278,1.02481341415e-05,24378929.7844,3.49070029244e-05,0.0,26149735.3982,692.475698002,661.779265944,64299182.7045,1968.06515176,67187626.0515,68090513.8416,5292.36263679,5279.71017208,0.0
1.18819312371,1.09761710594,1.03700267783e-05,6079137.05595,2.12598109918e-05,0.0,7557068.23233,686.796239034,656.360718979,65498580.2123,1866.73492885,53030907.3172,66628269.8722,4932.18965652,4920.70647473,0.0
1.2063494154,0.964361639815,9.83192416354e-06,10328434.2469,2.45466159378e-05,0.0,11670045.498,688.188445197,657.47073847,65506272.6622,1890.52088986,56361576.586,67138034.0624,5007.55642333,4996.37703877,0.0
1.242084467,0.985210600481,1.04349560014e-05,18456411.9907,2.87027818084e-05,0.0,20143769.3173,690.191594269,659.715392284,64810515.6986,1930.28696836,62846458.7549,65774920.8124,5155.89262252,5143.74760354,0.0
1.11275850082,1.07328765333,9.98325772525e-06,-15755212.2468,1.65821840253e-05,0.0,5691502.28462,682.30590562,651.568461402,66622702.5846,1775.89517049,41029255.4878,69356102.7553,4619.0605369,4609.89086198,0.0
1.13462748767,0.909686670887,1.02026927266e-05,-11085611.7044,2.17935247822e-05,0.0,5612653.61172,683.63500477,652.994526632,66419135.2817,1805.49113404,43690508.2774,67775501.3167,4709.83870132,4700.70962995,0.0
1.147007177,1.05928745032,1.0375642168e-05,-6858292.63547,2.02866547353e-05,0.0,5539402.36141,684.244346139,653.763541409,66181174.7434,1819.41380062,45809329.1912,68595107.2438,4761.22679173,4751.34698941,0.0
1.10332154717,1.30924120315,9.98202065339e-06,-21677231.3608,1.37653039892e-05,0.0,5738725.37329,681.805125601,651.041330707,66775567.3616,1764.59311398,37753388.838,68672109.4337,4579.8877423,4571.03876997,0.0
1.02261855107,1.07209645684,1.01558704982e-05,-67964577.2053,1.30482813372e-05,0.0,5871135.19927,677.682935072,645.760935271,67084830.5552,1656.0835731,47976353.3177,70853694.9667,4244.88960549,4236.54743974,0.0
1.14990837615,1.01465250549,9.84236330101e-06,-7604976.46656,2.10273930496e-05,0.0,5586921.73159,684.720421738,653.943513211,66353925.0608,1824.96624293,45818089.634,68660863.3442,4773.2696694,4763.87028945,0.0
1.14726250688,0.875857237119,9.8028757187e-06,-6075715.20932,2.28830277433e-05,0.0,5590503.10845,684.575545014,653.77137137,66370661.9977,1821.15244611,46966076.5331,68765141.6437,4762.28666606,4752.95702955,0.0
1.22630630059,0.705315929917,9.6697537392e-06,14075951.8064,3.22454681307e-05,0.0,15529622.3489,689.887005949,658.77454752,65044770.6387,1914.13467585,59330254.4123,66480070.5061,5090.39745375,5078.53576645,0.0
1.04810062226,1.10798696677,9.97268373151e-06,-46235134.5835,1.3039097683e-05,0.0,5831689.29964,678.720810225,647.376744421,66998712.0013,1690.01580656,36103450.8193,70475276.8205,4350.665683,4341.9690804,0.0
1.04277277157,0.808397756022,9.9990119069e-06,-50742091.4855,1.58808260195e-05,0.0,5822565.94373,678.600442504,647.016662422,66967261.8862,1683.43710825,37820863.8097,70907233.8105,4328.54977479,4319.97114438,0.0
1.08384577041,0.962656071742,1.0239637721e-05,-27430963.7017,1.63703191294e-05,0.0,5757681.84218,680.610746262,649.774681131,66823077.9792,1739.25449565,35827479.4697,69228119.9834,4499.04379297,4490.50127588,0.0
0.968429946338,1.02485684616,1.00366569777e-05,-94210657.1129,1.35614357781e-05,0.0,6000013.52435,683.162475506,642.305244468,67375264.5913,1611.39337778,69217318.1427,69447112.3411,4019.95270725,4012.53955511,0.0
1.25676420889,1.24217815632,9.95507040815e-06,20588593.6584,2.42940512441e-05,0.0,22440827.3396,691.214825805,660.620569906,64704915.7456,1946.6479635,64584645.5176,65365009.4544,5216.8282311,5204.05953211,0.0
1.12182470827,0.792413748576,9.857487243e-06,-14340582.2633,2.12944387951e-05,0.0,5641586.3755,683.093233288,652.123080131,66489173.4491,1788.13887518,41678952.0902,68896378.964,4656.69436403,4647.35860181,0.0
1.0596223645,0.687604096416,9.98081506146e-06,-38344535.5576,1.73729746923e-05,0.0,5769801.77001,679.580053286,648.184967089,66812652.7526,1705.32440963,34614677.6385,69749301.1592,4398.49243504,4389.42594178,0.0
0.985785363827,0.725658757602,9.86102797477e-06,-94994963.0191,1.57319835356e-05,0.0,5931868.13928,680.748377816,643.416562661,67189627.1341,1612.70385787,69907913.0939,70150630.4239,4091.99504525,4083.91682963,0.0
1.07576364437,0.784553226216,9.80663453434e-06,-32045819.5549,1.76249476358e-05,0.0,5789784.98287,680.31677711,649.103430151,66912546.6667,1728.78797372,35083504.7267,69701950.0902,4465.49488778,4457.07781655,0.0
1.22207773708,0.691354825485,9.95463583081e-06,13390516.7556,3.30311906018e-05,0.0,14657577.1219,689.536102013,658.48566809,64918799.9939,1908.15365788,58665782.7022,66272909.1993,5072.84468662,5060.70329193,0.0
1.18896734123,1.16167035593,9.89535387083e-06,5314484.09906,1.98809244012e-05,0.0,6896347.12905,687.066847502,656.383486291,65601757.176,1867.8836247,52885393.403,66925445.9615,4935.40343345,4923.78460161,0.0
1.04773615222,1.00275829152,9.69837972675e-06,-47629379.1393,1.4022039492e-05,0.0,5835597.80905,678.982155913,647.362691925,67002553.8284,1689.51694129,36692857.0988,70683591.9313,4349.15276787,4340.43988481,0.0
1.08574888171,0.928972011904,9.58786494058e-06,-28410573.0071,1.62391261953e-05,0.0,5775783.4278,681.193838336,649.904854841,66875903.2623,1741.57799551,35853312.3771,69441623.5662,4506.94360798,4498.2743551,0.0
1.16024693168,0.923078142302,1.03066458167e-05,-2150437.69392,2.21199426541e-05,0.0,5441004.07612,685.239242835,654.627017163,65869149.9412,1834.01662973,48283988.0906,67625158.0438,4816.1850134,4805.42255321,0.0
1.16592202352,1.13558366029,9.92837399432e-06,-118367.555155,1.87231119248e-05,0.0,5454745.41494,685.653588161,654.979531218,65919829.3625,1840.29282875,49957315.5303,67786211.7122,4839.74231963,4828.76474257,0.0
1.24172502896,0.935830980921,1.00774431971e-05,18085839.7578,2.88955632529e-05,0.0,19616682.5775,690.385775031,659.708076527,64889121.9603,1930.84106415,62541372.1295,67063442.4292,5154.40059521,5142.3480881,0.0
1.14922237221,0.938390976971,9.80650006236e-06,-7410868.46386,2.16333935043e-05,0.0,5527863.18983,684.80507962,653.878803033,66154965.3835,1821.90868082,45839906.9935,68627504.5386,4770.42206704,4760.19207933,0.0
1.06825500511,0.988284044748,1.00151767663e-05,-35093194.0142,1.48692715636e-05,0.0,5803001.11665,679.745796939,648.678192325,66933166.5944,1718.28836841,34709538.2636,70009653.8928,4434.32652621,4425.83520124,0.0
0.99661838928,1.00086496819,9.87906559693e-06,-95491941.5574,1.36555841904e-05,0.0,5920998.04937,679.067170734,644.110701112,67169941.444,1620.32753767,70345586.8593,70692120.6825,4136.9629339,4128.70950016,0.0
1.01867775223,1.06792028953,9.94193904289e-06,-74050282.3677,1.27835508702e-05,0.0,5945200.72277,677.750698665,645.526084557,67305087.0516,1653.52916261,52497364.9149,70860966.8785,4228.53134951,4221.35817722,0.0
1.06781707523,1.03730492264,9.74117959876e-06,-36402185.752,1.41591167029e-05,0.0,5818104.92269,679.903253706,648.648858527,66984856.0824,1717.66693866,34700250.3288,70283153.0238,4432.50867928,4424.02568479,0.0
1.07634492788,0.792908394802,1.00616941268e-05,-30656715.9352,1.77550952333e-05,0.0,5762644.81038,680.367388352,649.270918165,66825500.109,1728.89109598,35341248.2152,69274223.4941,4467.90779563,4459.29106819,0.0
1.0846916234,0.700739121451,1.02144359308e-05,-27231098.5107,1.98273427226e-05,0.0,5738067.07696,680.78637363,649.825662416,66762967.3691,1740.57951126,35931743.3211,69174263.1188,4502.55492873,4493.99923883,0.0
0.992761983814,1.02649436815,9.66690812562e-06,-95414961.304,1.36440143558e-05,0.0,5991327.9152,680.457429877,643.880836699,67387410.9675,1620.75681641,70277457.6921,70522255.23,4120.95499481,4113.80275487,0.0
1.2287002383,0.730897924186,9.8898770194e-06,14977932.3968,3.21204695687e-05,0.0,16372393.3515,689.842284749,658.929004266,65067654.3604,1917.23223853,60026655.7083,66629943.2907,5100.33468918,5088.71311362,0.0
1.17189068606,1.09633441555,9.85882031819e-06,1401666.27612,1.94858270122e-05,0.0,5472320.786,686.022675002,655.367110745,65969858.1191,1849.17915738,50859669.321,67690800.0102,4864.51823784,4853.96718839,0.0
1.16454317324,1.08379113444,1.0392480813e-05,430003.591966,2.00319978342e-05,0.0,5468432.78393,685.27074043,654.897559118,65942512.0391,1839.69707644,49986061.8798,67536540.6685,4834.01871212,4823.60005945,0.0
1.255157954,0.794808717993,1.0166864723e-05,20715220.027,3.45366958486e-05,0.0,22592416.4074,691.392070236,660.521533098,64487793.832,1945.67343203,64603898.1076,65422917.1911,5210.16066705,5197.53950529,0.0
1.17612445952,0.940628065962,1.03778296622e-05,2903719.23579,2.34152402664e-05,0.0,5349912.60003,686.147006684,655.571814232,65566752.0497,1852.34892703,51211220.8418,66724949.9386,4882.09263147,4870.72180161,0.0
1.02871779524,0.880178218384,9.87797907132e-06,-63293828.4066,1.47083898678e-05,0.0,5865000.79755,678.161112809,646.139565177,67069228.0152,1664.69677798,44790386.0011,71005125.9377,4270.20756804,4261.84647366,0.0
1.06772480689,0.738864688208,9.86520053386e-06,-35856834.6258,1.76027498256e-05,0.0,5793861.61857,679.929531524,648.642681589,66912326.1122,1717.78233643,34660600.0926,70110310.4724,4432.1256734,4423.64265639,0.0
1.136721109,0.940404010933,9.9617256233e-06,-10626540.0407,2.07800447685e-05,0.0,5586341.92128,683.95252006,653.117913354,66336594.2957,1806.83670013,44095848.973,67769401.8691,4718.52932346,4708.81975683,0.0
1.10043425494,0.925932472551,9.97654372767e-06,-22500366.4265,1.78734347791e-05,0.0,5722100.14933,681.786001449,650.850404266,66718620.7066,1761.11407565,37351008.338,68729031.3487,4567.90259226,4559.10011066,0.0
1.19176330229,1.06177227511,1.01288848102e-05,6055402.18461,2.19539458728e-05,0.0,7556340.6805,687.21295337,656.588955529,65472738.115,1871.33284456,53114918.8254,66557711.1248,4947.00946781,4935.36376725,0.0
1.19402618611,1.04899130878,9.9684104934e-06,6345394.71368,2.21854453439e-05,0.0,7864813.28957,687.470724205,656.742196282,65482072.8058,1874.22949418,53388568.0205,66644323.5338,4956.40269854,4944.69520304,0.0
1.09974556038,0.952546876348,1.03354795553e-05,-20020052.6009,1.76736511747e-05,0.0,5644363.79709,681.510047089,650.776899096,66472051.6936,1756.77187966,38619375.5543,68472231.2755,4565.04382114,4555.19956371,0.0
1.21953801402,1.38398035784,1.04172556824e-05,13040724.8157,1.96184401961e-05,0.0,14271111.6375,688.543853601,658.322976238,65206469.4204,1903.61218996,58436568.515,66555787.2789,5062.3022962,5050.3257183,0.0
1.06726228027,1.0093229483,9.9907716797e-06,-35149600.9345,1.47640959977e-05,0.0,5816838.00431,679.688679605,648.616690368,66987377.891,1717.46541366,34691600.985,70114959.314,4430.2057254,4421.91807025,0.0
1.04543100605,0.955986662756,1.01994914047e-05,-47776632.8419,1.45627390002e-05,0.0,5815899.24418,678.528907421,647.210939951,66951859.2747,1686.69501719,36665456.0853,70430785.2067,4339.58410611,4330.87392479,0.0
1.05138931962,0.817487035962,9.81505739838e-06,-44459580.6371,1.56868494389e-05,0.0,5815659.44936,679.121307687,647.595659428,66952318.039,1694.69422137,35682136.869,70564128.7792,4364.31706574,4355.56664807,0.0
0.998710114676,0.92965622815,9.94013836693e-06,-95516813.2823,1.44759876462e-05,0.0,5910310.76484,678.894165162,644.240959974,67144260.7828,1623.32958169,70367484.8241,70742220.628,4145.64568602,4137.43925889,0.0
1.2697858598,0.884474771416,9.90095121225e-06,23127009.0104,3.3460010319e-05,0.0,24992805.1038,692.439127221,661.478004949,64323503.7184,1962.34682424,66315923.1076,67301027.1541,5270.88110403,5257.87165633,0.0
1.11336486827,1.03243421456,9.75483896112e-06,-17090035.7787,1.70352079672e-05,0.0,5650348.3442,682.617033288,651.613768555,66508346.3225,1775.19293262,40324186.8818,69184257.5927,4621.57756819,4611.68944604,0.0
1.01040023629,0.88598632413,9.75973221785e-06,-85776850.4799,1.42610745316e-05,0.0,5964856.28096,678.00707427,645.007573021,67332058.8496,1642.43506667,61971409.783,70975211.71,4194.17138084,4187.11534936,0.0
1.06299329894,0.981451091253,1.01130773278e-05,-37082413.2328,1.47121023293e-05,0.0,5811850.65541,679.38100789,648.333654465,66962531.5481,1711.39247962,34629797.679,70056172.7793,4412.4851839,4404.07616012,0.0
1.09121333735,1.00901972345,9.96439252624e-06,-25793415.9025,1.62138670788e-05,0.0,5752426.06899,681.163860843,650.207618611,66813147.1833,1748.86865124,36313012.7638,69271837.7927,4529.62656334,4520.96902923,0.0
1.02130068304,0.880003392716,1.0235304849e-05,-68460801.3904,1.46670590687e-05,0.0,5860152.37607,677.646387982,645.679073603,67048991.6959,1654.47273101,48322838.4862,70679510.7164,4239.4191353,4231.09809237,0.0
1.09653756654,0.923617632128,9.39490286816e-06,-25071533.2566,1.68998204622e-05,0.0,5755589.38251,681.881024853,650.532567294,66825562.8872,1755.8366591,36676418.3059,69416806.5242,4551.72743871,4542.8876432,0.0
1.10447077885,0.919705637838,1.01384203246e-05,-21089618.6896,1.8542780153e-05,0.0,5699498.17292,681.911040235,651.099307726,66661991.1255,1766.21890653,37925660.4308,68658973.607,4584.65820301,4575.7921225,0.0
1.13442364527,0.919553359665,9.85911065034e-06,-12081100.6765,2.10848735365e-05,0.0,5537735.01857,683.985799234,652.953857372,66178942.2695,1802.0045327,43149117.823,67456934.3053,4708.99255152,4698.50422741,0.0
1.28838618742,0.844744591353,9.94697664517e-06,26298339.2852,3.57906520376e-05,0.0,27882086.9195,693.30598034,662.424269289,64018076.7975,1982.79147233,68090214.4627,69022636.0227,5348.09106398,5334.769276,0.0
0.969855116759,1.01095381578,1.01624385504e-05,-94204624.2393,1.37593200347e-05,0.0,6022496.14105,682.991248081,642.404642087,67462551.4845,1614.64029895,69211899.2936,69441314.0991,4025.86858967,4019.0727261,0.0
0.955172131332,0.883985824731,1.01702609247e-05,-93586417.3922,1.44304473946e-05,0.0,6051659.54955,685.02041218,641.459280649,67525554.0411,1610.75618736,68667740.2739,68889418.2532,3964.91951716,3958.32999114,0.0
1.16539017531,0.851417530023,9.79206835622e-06,-659098.611979,2.33109902561e-05,0.0,5430185.78517,685.914072581,654.949930572,65840739.8417,1840.28501371,49632255.3202,67749697.4667,4837.53461771,4826.56501756,0.0
1.27474809913,0.789335213193,1.02324679762e-05,24129447.1948,3.65859391748e-05,0.0,25862257.4987,692.625558012,661.749684857,64089041.8021,1966.8002308,66869531.171,67779693.5074,5291.47935949,5278.29556465,0.0
1.09494595017,0.906258992752,1.00835068473e-05,-24062643.2107,1.78233954754e-05,0.0,5728582.5216,681.353269054,650.45865496,66747595.7571,1753.72754574,36769061.2296,69013946.7803,4545.12063916,4536.40426314,0.0
1.1060536428,0.992233515342,9.93204264501e-06,-20895158.6715,1.75470414303e-05,0.0,5712305.12222,682.113147184,651.203476239,66698625.6355,1768.40674113,38036514.2693,68739151.0728,4591.22867126,4582.33679948,0.0
1.05640989285,0.948218095851,1.00622307321e-05,-39599479.1455,1.45012730754e-05,0.0,5793305.35452,679.206302955,647.956419538,66880847.0524,1700.85585582,34725241.4665,69655104.9028,4385.15746522,4376.14568166,0.0
1.14927707889,1.12854947452,9.80354198374e-06,-7451427.91922,1.86365019341e-05,0.0,5547563.16178,684.692743026,653.880829377,66215586.5473,1821.74762991,45800321.3746,68688356.3213,4770.64915447,4760.41822626,0.0
1.06563165103,0.77901838042,1.00197072767e-05,-36211845.9997,1.70355949622e-05,0.0,5796108.12106,679.679584276,648.506960196,66917509.6721,1715.01296208,34648317.6597,70116001.1411,4423.43698343,4414.98673272,0.0
1.11121255282,1.04332403142,1.00848236255e-05,-17110733.6721,1.70752217296e-05,0.0,5640958.32268,682.261717075,651.471439403,66469845.4531,1772.22092799,40186341.6799,69093649.041,4612.64330676,4602.79130146,0.0
1.13149510963,0.708235604668,9.70427517909e-06,-10875321.4419,2.36390388381e-05,0.0,5565114.0231,683.929965102,652.771652902,66265901.8331,1799.02293671,43931965.8925,67461865.4374,4696.83620007,4686.81341895,0.0
1.01067288744,1.0465689618,1.02233784766e-05,-82482464.8524,1.30133551754e-05,0.0,5949313.41741,677.397932044,645.020510334,67294830.4144,1642.62895579,59216782.0246,70741229.7115,4195.30315576,4188.24355213,0.0
1.1521568255,0.982221105985,9.99494798244e-06,-6607015.97698,2.19624020711e-05,0.0,5568187.13687,684.817387639,654.117119681,66302065.1407,1827.77205752,46256695.4386,68715280.8862,4782.60298265,4773.16749898,0.0
1.14897129717,0.852617241307,9.94173447356e-06,-7584629.66854,2.38347524415e-05,0.0,5570699.90969,684.683299598,653.880814125,66304890.2714,1823.90172173,45765371.0172,68584138.0711,4769.37985455,4759.99550484,0.0
1.15125778323,0.842839773156,9.74571720707e-06,-5478632.09489,2.33360085174e-05,0.0,5506538.14196,685.03864287,654.033222936,66102222.6252,1824.01105438,47164742.1096,68686052.154,4778.87105819,4768.51954922,0.0
1.18698876599,1.21860639645,9.88457850301e-06,4549540.58817,1.89287087357e-05,0.0,6190224.7673,686.913218198,656.251909594,65652415.2129,1865.6379479,52422474.5587,66965048.4346,4927.19036762,4915.63280779,0.0
1.2777736039,0.948159984837,9.89584117213e-06,24403679.6812,3.16152744765e-05,0.0,26105582.1074,692.758116409,661.957965986,64327113.2893,1971.25749393,67175437.6952,68100603.7645,5304.03822979,5291.14523123,0.0
1.19634758674,0.953580699079,9.90088158302e-06,7367442.50039,2.38325137627e-05,0.0,8817924.72025,687.669966046,656.908338931,65540219.371,1878.06120299,54146966.5686,66630168.9744,4966.03883256,4954.73540891,0.0
1.21469175717,1.01414751861,1.01497713737e-05,11914580.4482,2.46698589539e-05,0.0,13135515.7346,688.593817473,658.009975494,65247104.655,1899.15981807,57480167.0667,66291196.7459,5042.18548401,5030.40875688,0.0
1.09926117599,0.786171739542,1.03036116317e-05,-20037684.7221,1.95700406307e-05,0.0,5647382.34783,681.590369933,650.759139863,66472649.7096,1757.05776604,38584562.3288,68361155.2359,4563.03314153,4553.3865046,0.0
1.1597600061,0.994801298303,9.9744514099e-06,-2899733.72844,2.05312584298e-05,0.0,5462533.86018,685.379831265,654.603255446,65956322.2494,1833.30701645,48150255.482,67732861.0591,4814.16378532,4803.31995167,0.0
1.11446894586,0.762117879415,1.06022845988e-05,-15122766.8006,2.17398697031e-05,0.0,5602037.60126,682.20185274,651.638905382,66352274.9181,1777.76555254,41040832.6355,68763747.3647,4626.16059426,4616.64606604,0.0
1.11488462273,0.774099662076,9.74362431491e-06,-16653621.9044,2.07739678187e-05,0.0,5619349.3833,682.853149691,651.695570681,66416021.5166,1777.32644112,40389802.9988,69208638.102,4627.88606895,4617.97197928,0.0
1.14715631182,0.762339986622,9.74765247301e-06,-6773420.85065,2.4476647178e-05,0.0,5521053.14336,684.661222134,653.644595244,66147714.368,1819.18271096,46447719.034,68606258.0201,4761.84585036,4751.65518297,0.0
1.00458873925,1.18544150383,1.01632699014e-05,-89705510.7309,1.15671822182e-05,0.0,5955227.43147,677.543828486,644.629751365,67287275.2389,1633.18319635,65312662.3343,70862195.5159,4170.04785663,4162.64372419,0.0
0.946552198019,0.976157833684,1.02009625301e-05,-93249408.1366,1.35424470022e-05,0.0,6074925.83377,685.972906717,640.904148922,67582448.1544,1607.58944567,68371017.3549,68588657.1852,3929.13817398,3922.66851253,0.0
1.07500470616,0.926335697365,9.58588872254e-06,-33174621.7471,1.57437245839e-05,0.0,5806928.83279,680.528714968,649.166270957,66959580.797,1727.69079814,34955287.6174,69982960.7961,4462.34453527,4453.93920466,0.0
1.03245212522,1.02661962713,1.00649091299e-05,-58195231.6535,1.3456868991e-05,0.0,5903465.43944,677.973779187,646.399588648,67210425.98,1671.94837255,41695275.7833,70990992.1005,4285.70877179,4278.33884893,0.0
1.04181736417,1.00901409596,9.67457721056e-06,-53108882.2075,1.39572690076e-05,0.0,5833464.50906,678.775726309,646.982264569,66996872.2537,1680.90406342,38978151.8184,70865846.2132,4324.58387867,4315.67127011,0.0
1.30265792683,1.30036229465,9.6793962893e-06,28078454.0698,2.66250199552e-05,0.0,29479276.6481,694.180385276,663.534277729,64161490.7285,1999.00445178,69014063.0594,70186651.4742,5407.33305427,5394.04149919,0.0
1.14606949498,0.639536505487,9.99430704441e-06,-7069524.96884,2.80058986611e-05,0.0,5545445.7434,684.584156108,653.675695664,66217098.5635,1819.86452587,46191890.512,68478147.8811,4757.33447366,4747.89473681,0.0
1.06731945118,0.933679393815,1.01199041001e-05,-35079458.4789,1.54552298147e-05,0.0,5797720.00331,679.639248517,648.617683314,66917156.0726,1717.1036071,34689687.394,69957620.6013,4430.44304185,4421.96637433,0.0
1.14133681594,0.913989315146,1.00393818452e-05,-9139457.84461,2.15574821938e-05,0.0,5542874.56032,684.179944044,653.366973917,66193580.0257,1811.87768953,44859638.4113,68141852.5752,4737.68912297,4727.5943446,0.0
1.05111991217,0.986663647124,9.776001937e-06,-44834493.4928,1.40288080264e-05,0.0,5828442.00915,679.06846182,647.576600633,66990529.7204,1694.20629046,35810607.4717,70616719.5517,4363.19875542,4354.45272803,0.0
1.1549824956,0.925429102001,9.40739989143e-06,-5415682.5201,2.19731763314e-05,0.0,5546599.72313,685.397857024,654.28843693,66243175.2186,1829.89496586,47450169.6727,68834297.8842,4794.33233924,4784.30733157,0.0
1.23295071309,1.02678140782,9.907720459e-06,15820650.0123,2.55921354671e-05,0.0,17255604.3471,689.879090809,659.193168557,65038299.2519,1920.30947831,60747237.6649,66766578.7377,5117.97841004,5105.88051442,0.0
0.988815825805,1.11621811184,9.92695728854e-06,-95405402.5865,1.21415374442e-05,0.0,5997824.73228,679.552215662,643.625173044,67390844.4306,1612.89291304,70268940.0198,70511645.1769,4104.57449292,4097.39982672,0.0
1.08966483642,1.08546159518,1.03532534841e-05,-25309020.6936,1.55174615338e-05,0.0,5750190.7394,680.759070925,650.095600353,66802373.6779,1747.11693405,36351460.2756,69133447.034,4523.19873598,4514.66343853,0.0
1.17891636463,0.79577598639,9.61940873764e-06,2542446.53751,2.53346960486e-05,0.0,5378737.94162,686.871713136,655.776561887,65697615.1177,1857.22530456,51405195.1483,66678099.5925,4893.68182958,4882.48169984,0.0
1.04141181586,0.7269188666,9.64715525794e-06,-53448724.008,1.67044175523e-05,0.0,5816541.78667,678.90166312,646.951656128,66942684.1858,1680.57533301,39162356.5702,70951680.8939,4322.90044763,4313.99459823,0.0
1.08793336054,1.14673970562,1.03262454324e-05,-25989501.0276,1.46827336773e-05,0.0,5760527.13097,680.67720304,650.007101198,66828945.8037,1744.8139688,36174464.4407,69186006.0413,4516.0113796,4507.50288659,0.0
1.15611581301,0.682572601021,9.89072526328e-06,-5171248.20672,2.81423241148e-05,0.0,5522102.68348,685.313255682,654.360815949,66153065.1078,1832.81768875,47130499.0988,68529259.6573,4799.0367398,4789.44275536,0.0
1.15622284428,0.720757353582,9.73359190905e-06,-4517526.31995,2.65195981663e-05,0.0,5501832.53889,685.425773353,654.361007234,66097823.9504,1831.70004384,47603401.4356,68494183.0775,4799.48102661,4789.43317128,0.0
1.06258499902,1.00702255194,1.02974918538e-05,-36929599.815,1.46150362121e-05,0.0,5810517.55979,679.218866563,648.309468972,66954357.5998,1711.14273281,34627350.1039,70041363.5043,4410.79033093,4402.48095062,0.0
1.15787505701,0.829940822018,1.01698369353e-05,-2720288.62146,2.34794268122e-05,0.0,5479046.75013,685.192554886,654.492713094,66003337.6391,1832.40767581,48342029.317,68001464.3134,4806.33936165,4796.03344549,0.0
1.24477395287,1.04785378091,1.02524204815e-05,18796481.9108,2.72162705785e-05,0.0,20493281.3338,690.394535254,659.888253956,64873563.0506,1933.93315153,63156559.4514,65595557.6328,5167.05667836,5154.97700558,0.0
1.18851950274,0.925192670524,9.77145056466e-06,5226845.01455,2.36340735278e-05,0.0,6828169.9087,687.231066442,656.361386382,65664071.9287,1868.91827187,52959235.388,66949164.3256,4933.54445587,4922.36557512,0.0
1.05745532432,1.06199851755,9.53626051616e-06,-41267939.6426,1.32284745798e-05,0.0,5846836.18164,679.478062113,647.964403788,67050708.1161,1703.39421757,35075674.6651,70694016.4575,4389.49705125,4380.99039545,0.0
1.05638248029,1.09938095334,1.03981882001e-05,-39413402.218,1.33600521995e-05,0.0,5827085.4864,678.768259761,647.906860277,66995952.3149,1702.82322157,34775375.9441,69663569.0091,4385.04367568,4376.83143003,0.0
1.10052155729,0.706838889436,1.01530325683e-05,-22120169.7958,2.12756166034e-05,0.0,5693142.89269,681.782629512,650.858098873,66634959.3077,1761.29122834,37371980.2719,68417997.1487,4568.26498431,4559.46123891,0.0
1.15120009486,0.768663493237,9.61750909265e-06,-6021474.45583,2.47075540985e-05,0.0,5534719.50704,685.110590175,654.030846456,66193637.5447,1825.23639675,46957808.6939,68795814.534,4778.63159376,4768.69668491,0.0
1.12292945548,0.920518692151,1.02229916685e-05,-13503778.4094,1.98882854974e-05,0.0,5601247.53136,682.916508041,652.19458681,66350278.495,1788.28878548,42194827.0682,67845603.5458,4661.2801697,4651.52406589,0.0
1.08166242327,1.01166141613,1.01402005264e-05,-28548949.8868,1.55830790617e-05,0.0,5771235.56539,680.548954707,649.647670409,66859905.1371,1736.36155544,35685872.9551,69274628.4027,4489.98071899,4481.47216555,0.0
1.00784310589,1.02527969448,1.0044740316e-05,-87756325.7902,1.34287590991e-05,0.0,5888425.73264,677.879368774,644.822433508,67090556.6744,1635.32549436,63640652.1448,70760667.6538,4183.55673255,4175.12056269,0.0
1.0225986754,1.01345753838,1.0088630076e-05,-68492978.6697,1.36077491885e-05,0.0,5870044.05675,677.781355139,645.764238822,67080419.2314,1656.08664285,48359896.3048,70783528.6654,4244.80710159,4236.46525457,0.0
1.01060250591,0.97480452068,1.00190069736e-05,-80864822.326,1.37261401776e-05,0.0,5897412.61346,677.791994541,644.999453986,67113635.1055,1639.74366433,57902596.4225,70823288.1056,4195.01100203,4186.8309046,0.0
0.934630325981,0.851968510349,9.61052901105e-06,-92939893.4445,1.45195178796e-05,0.0,6120574.91032,689.166785967,640.139258258,67680826.4575,1609.61788952,68098469.7674,68308928.8991,3879.65048315,3873.31623489,0.0
1.08835772022,0.874325531258,1.00622496758e-05,-26401610.3386,1.76136848065e-05,0.0,5746740.09334,681.01603083,650.04874269,66793412.6919,1745.24342812,36092589.1166,69241657.5403,4517.77289663,4509.16001706,0.0
0.971399030934,0.968419538917,9.55853473742e-06,-94472743.0464,1.41028372292e-05,0.0,6029217.11996,683.957781217,642.50490209,67464077.5953,1617.09187126,69447935.675,69680939.2402,4032.27737741,4025.13617319,0.0
1.06098405952,1.05740949967,1.02217514421e-05,-38744066.5945,1.40437986408e-05,0.0,5802061.36345,679.197850308,648.197635333,66926000.5553,1708.09676792,34738854.2567,69828839.9003,4404.14483107,4395.50957996,0.0
1.07342491557,1.10509174206,1.0416373938e-05,-30760504.3922,1.4248342165e-05,0.0,5781357.88369,679.806723611,649.083111043,66875799.4552,1725.13059909,35248339.1252,69236687.7509,4455.78682453,4447.30937006,0.0
1.1258551177,0.945900493233,9.87733425453e-06,-13316291.6469,1.96032862787e-05,0.0,5581955.34652,683.349132016,652.382487074,66303461.5864,1791.0369872,42230864.6556,67807377.0048,4673.42459357,4663.22293814,0.0
1.08739575116,0.977931549105,9.57370727423e-06,-27902401.909,1.58375841292e-05,0.0,5775094.40015,681.28318961,650.012352815,66876339.0671,1743.70236595,35960615.7379,69458198.505,4513.77976307,4505.08458097,0.0
1.1173337133,1.03162143751,9.9606055126e-06,-15564014.7141,1.77703554014e-05,0.0,5669493.09884,682.622932926,651.830661846,66570360.6159,1782.00299012,41019929.7233,69363453.5121,4638.05224391,4628.78863709,0.0
1.09771161875,1.12304148266,1.01936350995e-05,-23008858.7494,1.54324059322e-05,0.0,5732310.95346,681.38342136,650.671646907,66751928.0134,1757.2349726,37122065.1688,68842032.7801,4556.60092943,4547.84142724,0.0
1.04690813555,1.02970213402,9.58003857449e-06,-49766857.3128,1.36529860173e-05,0.0,5835002.72813,679.176029498,647.38821661,67009270.5134,1688.23896284,37510264.844,71247017.7664,4345.71567067,4336.8931171,0.0
1.00530418467,1.11201709066,1.00107343886e-05,-90624097.7848,1.25533277476e-05,0.0,5901858.72615,677.993108241,644.660802784,67127469.2256,1631.86551525,66085142.6074,70821383.4922,4173.01767057,4164.62302053,0.0
1.02644423935,0.809253901107,1.01249567843e-05,-64400812.6615,1.54244347501e-05,0.0,5848469.42907,677.902685739,646.001609335,67019931.924,1661.34955837,45495562.6479,70830897.7491,4260.77003754,4252.34622608,0.0
0.995866723762,0.779919163201,1.00817073148e-05,-95371005.3094,1.52949828467e-05,0.0,5902753.69361,678.777667034,644.05957293,67116790.96,1619.51809522,70239145.9178,70603508.1134,4133.84277034,4125.60152952,0.0
1.00428170341,0.901194545193,1.01232141324e-05,-90596363.0054,1.44790576733e-05,0.0,5886294.23299,677.946837396,644.594952222,67079937.9593,1630.68422323,66058533.4894,70710674.4055,4168.77335085,4160.39539852,0.0
1.19871847618,1.14173714737,1.00137463109e-05,8750636.69944,2.09231868224e-05,0.0,10156312.9589,687.563339076,657.041465618,65594930.694,1880.73654439,55164026.1061,66845435.1753,4975.88039462,4964.75302422,0.0
1.17154128213,0.935218096438,9.80236734187e-06,-183051.553084,2.42164679187e-05,0.0,5502490.57777,686.181176899,655.367858684,66114485.8583,1851.77420491,50039019.855,67838854.1512,4863.06786212,4853.307641,0.0
1.08961846593,0.872127047667,1.02060225355e-05,-25555171.3899,1.78521315494e-05,0.0,5736483.10743,680.958031433,650.100458918,66766798.2486,1746.88069241,36268667.49,69116364.4172,4523.00625208,4514.37366932,0.0
1.03578391949,1.17600134094,9.71290625069e-06,-58016571.46,1.21908580632e-05,0.0,5916429.7297,678.373951119,646.620505667,67252000.2007,1676.23277733,41627358.2947,71207676.7012,4299.5390498,4292.12263295,0.0
1.02427835084,0.9186755346,9.99329452783e-06,-66925810.0391,1.43023404899e-05,0.0,5870972.82375,677.94648873,645.875076363,67086403.0953,1658.74135845,47250348.3704,70943878.4408,4251.77943434,4243.49605214,0.0
1.07925715606,1.15056765883,1.01429404275e-05,-30471864.2038,1.41109772292e-05,0.0,5792973.74994,680.341942393,649.48142725,66933962.307,1733.72083845,35276655.5877,69296410.1327,4479.99645481,4471.71807405,0.0
1.03727235823,1.1031030364,1.01224619366e-05,-53546104.1436,1.28449269543e-05,0.0,5847350.91056,678.143018354,646.67227207,67033608.2918,1675.74491613,39140823.7772,71145807.3025,4305.71755901,4297.13873775,0.0
1.20101997347,0.766575430115,1.01888025629e-05,8675438.37022,2.91166237515e-05,0.0,10031211.3294,687.987507774,657.149867194,65200547.9264,1882.76324739,54859926.8757,66519510.1732,4985.43390987,4973.5981029,0.0
1.18754569603,0.934477213958,9.64747223386e-06,4890759.90399,2.33066359187e-05,0.0,6602295.14925,687.211501823,656.309253673,65762751.2527,1868.40077662,52869548.0378,67078538.3368,4929.50218422,4918.56944645,0.0
1.13104746819,0.909024029393,9.9856128239e-06,-11621751.634,2.06219293176e-05,0.0,5584291.93132,683.496767751,652.663406439,66325138.1512,1798.57641066,43443561.9386,67476884.8093,4694.97804046,4685.08515718,0.0
0.954259885137,0.841600192011,1.02304180129e-05,-93530012.6929,1.46453164692e-05,0.0,6050048.02309,684.972934476,641.400267695,67519725.8559,1609.85622519,68618106.552,68839300.3153,3961.1327832,3954.55846443,0.0
1.19305209343,0.853826173081,1.01953587449e-05,6574930.62858,2.62194396951e-05,0.0,8040879.76887,687.437738983,656.681284905,65353505.7258,1873.1731533,53380027.7437,66428534.0544,4952.35923983,4940.68970312,0.0
1.1117905844,1.1536659879,9.80855235052e-06,-19246728.1974,1.57229127139e-05,0.0,5708037.50675,682.440664202,651.544451714,66702467.59,1775.39516954,39042599.6089,69022979.6516,4615.04271584,4605.95901006,0.0
1.08920447298,0.822582560531,9.82127680668e-06,-26863515.8643,1.81612119962e-05,0.0,5750667.42551,681.272308438,650.114979653,66802616.8541,1746.40348997,36094055.7392,69327698.2681,4521.28776734,4512.66165658,0.0
1.15365202463,1.02504278771,1.01166616082e-05,-5938853.07054,2.14849851999e-05,0.0,5560999.74567,684.806481301,654.206173466,66283683.447,1829.5498043,46624790.4386,68603338.1238,4788.80955424,4779.35003082,0.0
1.09172202444,0.814527012746,9.63553404162e-06,-26168848.008,1.81789580403e-05,0.0,5748038.90424,681.534494322,650.260526321,66801000.9229,1749.51279046,36284338.6854,69367954.7411,4531.73812345,4522.97467574,0.0
1.14154627557,1.12203458377,1.00993505421e-05,-9039361.82851,1.84309162845e-05,0.0,5562737.58146,683.90644123,653.288271747,66256889.0389,1811.85670024,44905292.0264,68243352.7786,4738.55858989,4728.46182713,0.0
1.04136316185,0.882771393662,9.91686696002e-06,-51339273.3307,1.49866735872e-05,0.0,5828023.98015,678.590988749,646.943512219,66982387.6844,1681.03895913,38139662.6795,70881179.2042,4322.69848484,4313.9670655,0.0
1.05376906053,0.595405595725,9.68379124522e-06,-42515458.6862,1.80207188811e-05,0.0,5819170.23147,679.392387912,647.745265199,66961570.6266,1698.85559236,35291356.1207,70667410.841,4374.19537026,4365.74822144,0.0
1.04065734193,0.941067189539,1.03887352737e-05,-49012968.1476,1.43435339132e-05,0.0,5824591.12068,678.125369894,646.891513631,66975237.781,1680.63417231,37068069.2196,70869245.8253,4319.76862635,4311.22248135,0.0
1.15729546063,1.00992941735,9.64274245059e-06,-4552201.61695,2.10385308237e-05,0.0,5538079.29695,685.230774351,654.340705985,66209322.1607,1832.70661016,47678612.8099,68616450.347,4803.93345708,4793.8675057,0.0
1.19731691697,0.946465665664,1.02467161081e-05,7802154.15131,2.45176224663e-05,0.0,9262677.83602,687.522239164,656.947397725,65452033.9229,1879.00354391,54390810.6443,66549351.3628,4970.06252234,4958.74594446,0.0
1.06856900065,0.973953609903,9.8231603606e-06,-35061776.0973,1.4721443758e-05,0.0,5775263.46155,679.939267094,648.681739495,66844285.5381,1716.86161944,34641880.8845,70057006.855,4435.6299217,4426.41570591,0.0
1.01104993545,0.975217163635,9.67629765198e-06,-85817125.3963,1.3568082875e-05,0.0,5970683.00351,678.082291026,645.046851582,67349156.4405,1643.24376113,62007149.1935,71018743.3803,4196.86828205,4189.80308605,0.0
1.10777223233,1.05583239921,9.8832248598e-06,-20732437.7534,1.69788044163e-05,0.0,5725128.18637,682.214574262,651.314293776,66751601.3663,1771.23387047,38114337.5882,68833013.8237,4598.3625364,4589.64416927,0.0
1.20711171918,0.965766719185,9.91697031196e-06,10073773.7128,2.47829188385e-05,0.0,11435396.574,688.274643152,657.48974789,65263802.0712,1889.72808232,56078433.1698,66957545.5028,5010.72074632,4998.75730557,0.0
1.0008492675,0.905991296075,9.7647734224e-06,-95958755.1177,1.42188673009e-05,0.0,5984403.32041,678.639535828,644.400918266,67380422.5781,1629.37390117,70754067.717,70926965.0571,4154.52530939,4147.60346057,0.0
1.06855435345,0.910555065674,9.76367015438e-06,-35951141.5619,1.55897904953e-05,0.0,5806980.68706,679.980290667,648.69686477,66952712.648,1718.72835402,34691017.4504,70189310.3304,4435.56912117,4427.07457381,0.0
1.10162082423,1.07756337353,1.01194216367e-05,-22020030.5641,1.62558042338e-05,0.0,5720929.3878,681.694509523,650.929640907,66721894.2333,1762.36211594,37556128.8652,68555071.0819,4572.82804138,4564.006963,0.0
1.04839379478,0.893355282358,9.52844308465e-06,-45242427.5569,1.4540945639e-05,0.0,5838415.58627,679.187646619,647.407843262,67001739.4114,1690.35635849,35957204.7484,71032564.1307,4351.88264213,4343.00297079,0.0
0.963473776253,1.32575557337,9.69178494686e-06,-94229975.6671,1.09641881169e-05,0.0,6064781.60116,684.526157777,641.994361582,67553692.2978,1613.59256993,69234110.6659,69461789.7758,3999.37964523,3992.40697875,0.0
1.04523586473,0.82637704711,9.8555612446e-06,-48365739.3919,1.55908456491e-05,0.0,5825181.17911,678.806855578,647.20680536,66969848.8743,1686.38386524,36966215.4016,70924047.4762,4338.77407449,4330.12399217,0.0
1.04914211052,0.755339003917,9.76574565605e-06,-45908978.6797,1.61755774633e-05,0.0,5819145.50504,679.065422645,647.443490043,66958004.2935,1691.73452561,36177634.1681,70527167.2807,4354.98890077,4346.27507658,0.0
1.13363576943,0.821190257312,9.72593322577e-06,-11390892.554,2.20824936709e-05,0.0,5597468.05506,683.961451167,652.918373967,66378015.63,1802.93422044,43585891.9935,67551947.8197,4705.7220789,4696.06403742,0.0
1.10707990761,0.945000421038,1.0650802181e-05,-17573728.9236,1.86870705397e-05,0.0,5597986.87172,681.711919863,651.189426885,66328895.1196,1766.27904809,39842924.1776,68805188.7817,4595.48869649,4585.42300661,0.0
1.2936373518,1.08280284916,1.01438910033e-05,27099752.8215,3.11721110855e-05,0.0,28544176.9203,693.571161528,662.910690141,63984335.0963,1987.61965636,68379566.1864,69508279.1949,5369.88864732,5356.38943057,0.0
1.23054500723,1.04537598152,9.70221130519e-06,15211107.1987,2.46710735768e-05,0.0,16602497.511,689.791493665,659.049233323,65196830.9861,1918.49492544,60299845.3106,66818479.2313,5107.99232501,5096.22266783,0.0
1.15760466908,1.05186872423,9.73117085491e-06,-4245175.12391,2.04307238805e-05,0.0,5534230.50922,685.297843836,654.450619601,66198413.5731,1832.99070001,47758198.5965,68528068.4485,4805.21698135,4795.14581092,0.0
1.07376546965,0.888801963675,1.01161045946e-05,-31385128.1507,1.64278030259e-05,0.0,5778140.72007,679.939379399,648.966523328,66870125.9896,1725.41938996,35179793.6142,69470266.5193,4457.20046452,4448.62436702,0.0
1.2196640479,0.823570799168,9.95762499148e-06,12954691.6344,2.86980234829e-05,0.0,14169460.8769,689.17715615,658.338847056,65117094.328,1905.46353142,58340002.3509,66344540.9268,5062.82546283,5050.97860891,0.0
1.01585183871,0.788425897615,1.01504939657e-05,-75346215.477,1.5100859532e-05,0.0,5924996.9675,677.573780369,645.349203253,67235108.7029,1649.54409442,53488561.2012,70681249.396,4216.80098249,4209.57939393,0.0
1.05931634631,0.702487082197,1.02346028714e-05,-38636992.3549,1.76015427236e-05,0.0,5802884.96458,679.200959348,648.097649076,66924431.455,1706.98597567,34688910.4094,69775548.0025,4397.22215353,4388.96471094,0.0
1.15793301251,1.02961571309,9.58099628367e-06,-2677509.379,1.93496242176e-05,0.0,5527356.53875,685.220447991,654.368825411,66148596.607,1831.90291943,48898071.5272,68492066.4196,4806.57993493,4796.15991829,0.0
1.05140755126,0.669676018407,1.04987798997e-05,-40992528.7438,1.72930163964e-05,0.0,5806051.14765,678.565024856,647.572060456,66930120.2971,1696.21536092,34920984.9322,70114549.026,4364.39274528,4356.16521334,0.0
1.01874798953,1.16045645375,1.02561753605e-05,-68884562.247,1.2057072138e-05,0.0,5897456.31869,677.450860513,645.521109582,67152287.5058,1651.57715195,48651139.4067,70848375.6541,4228.82290454,4220.85315958,0.0
1.0756150144,0.951627026789,1.01047334894e-05,-30832731.5272,1.58170415529e-05,0.0,5773832.76383,680.219000103,649.221391131,66859631.0297,1727.80243729,35334122.4393,69301173.2249,4464.87792477,4456.2727024,0.0
1.04421358786,1.10527989284,1.02582452373e-05,-48159411.217,1.30493731305e-05,0.0,5826420.25006,678.361171681,647.134902026,66982699.1711,1684.96816895,36799091.1137,70647467.7683,4334.53060321,4325.84027889,0.0
1.04914121809,0.966910297714,1.01309809273e-05,-46471061.0859,1.4647864603e-05,0.0,5812331.03566,678.754975385,647.443403361,66951139.4794,1691.79540241,36235751.6746,70364127.4898,4354.98519629,4346.30346017,0.0
1.03787937952,0.824866477323,1.0002379482e-05,-52855923.653,1.54017745093e-05,0.0,5829398.82939,678.378749329,646.71021975,66980453.6454,1676.46113726,38635446.5049,71100143.1823,4308.23730439,4299.56294811,0.0
1.04661653093,0.867510325899,9.74544736039e-06,-50043763.7313,1.54972336825e-05,0.0,5810086.32793,678.997479905,647.290645585,66930905.6014,1687.41189911,37619134.4353,70730752.0323,4344.50521989,4335.51246987,0.0
1.01853207221,0.875250089859,1.00681955605e-05,-72884459.6318,1.4507091176e-05,0.0,5924681.52257,677.690020686,645.523122653,67241357.5702,1653.0807011,51598727.4275,70850030.8688,4227.92663174,4220.6666391,0.0
1.04073045682,0.89339712548,9.97749448654e-06,-51369652.3239,1.48705609334e-05,0.0,5827898.59327,678.511598353,646.906813548,66981291.291,1680.19802949,38175571.4634,70831728.7252,4320.07212626,4311.35108156,0.0
1.17911547421,1.12283307192,1.00917408097e-05,3172168.93032,1.99172319792e-05,0.0,5402048.45646,686.346878507,655.77617982,65744281.8423,1856.76813165,51553729.8395,67015131.8692,4894.50833345,4883.39682908,0.0
1.03458279663,1.07497053631,9.94549601972e-06,-58303653.3166,1.311824733e-05,0.0,5859382.90525,678.231467705,646.518690937,67068906.8432,1672.38614268,41683254.6066,71128252.5486,4294.55318881,4286.10505642,0.0
1.01953159779,0.928955589084,9.69256757702e-06,-75351379.9972,1.40462946182e-05,0.0,5946429.39334,678.055692207,645.585468825,67308280.88,1654.70485048,53505638.4139,70959344.5527,4232.07566243,4224.89035995,0.0
1.2050904061,1.07936213003,9.60285327902e-06,8623243.21315,2.18800560281e-05,0.0,10077746.2219,688.278942762,657.431902166,65519105.6226,1888.53996473,55164463.6599,66887859.36,5002.33027572,4990.75026775,0.0
1.13249217868,1.0732078655,9.46628278279e-06,-12281453.9667,1.78794371279e-05,0.0,5643663.66514,683.900500434,652.840276391,66518550.6513,1801.6266435,43009338.2899,67932606.3663,4700.9750337,4691.43919306,0.0
0.906720062371,0.923429572045,9.91190369269e-06,-91448005.4959,1.36568340339e-05,0.0,6126751.88515,692.049766382,638.326367726,67668747.9257,1597.48729228,66785494.4323,67668747.9257,3763.7949789,3757.04641799,0.0
1.19416866878,1.08798162686,9.77046565959e-06,6536675.0449,2.11812288597e-05,0.0,8104752.75439,687.476361851,656.750883924,65709909.0176,1876.07256838,53816846.7207,66891149.912,4956.99414411,4945.94454134,0.0
1.08498696064,1.08155784763,1.01620633165e-05,-27323583.4764,1.49706713202e-05,0.0,5766236.05457,680.680091301,649.84726878,66850829.8864,1740.65698116,35903799.1433,69278724.0089,4503.78087362,4495.22058235,0.0
1.03259867646,0.959575780729,9.90490648901e-06,-58982168.6594,1.40699529287e-05,0.0,5905954.46143,678.157319761,646.415039092,67215855.777,1672.14778013,42156323.7666,71039486.8406,4286.31710599,4278.94507764,0.0
1.09724494271,0.877074311098,9.98096766258e-06,-23472880.9851,1.81916122611e-05,0.0,5727523.00848,681.585936904,650.617842539,66744267.9888,1757.00054856,36970787.6686,69067726.0926,4554.66375719,4545.91072476,0.0
0.960223063441,1.11957785492,1.03717979419e-05,-93834377.4977,1.24655368724e-05,0.0,6041340.02758,683.563135231,641.782686812,67498042.5159,1609.23391938,68886004.3842,69108722.7719,3985.88593634,3979.19602259,0.0
1.07567799778,1.13956048867,1.04066136776e-05,-31969562.605,1.41515305707e-05,0.0,5717396.97244,680.01797607,649.20867528,66678466.675,1725.56606383,34854336.1323,68939367.7344,4465.13936878,4455.51004671,0.0
1.14703895443,0.7972597482,9.66258914837e-06,-6996002.93339,2.37940013831e-05,0.0,5542248.2413,684.773628279,653.719219169,66204510.64,1819.56714998,46421258.2694,68595789.9387,4761.35869984,4751.37621792,0.0
1.18487940909,0.993094886929,1.02463668819e-05,5160199.11862,2.28835013854e-05,0.0,6742309.61525,686.650062304,656.137559421,65692253.4746,1864.74385689,52713591.2611,66933390.5383,4918.43442713,4907.65000991,0.0
1.18926455703,1.08844045535,1.00394971742e-05,5327891.33411,2.12087188855e-05,0.0,6894665.48409,687.060780247,656.406054462,65558480.1038,1868.39541956,52765509.6235,66799877.0006,4936.63717623,4925.03763623,0.0
1.20003130079,0.865124048038,9.72560813872e-06,8208491.76407,2.57535954534e-05,0.0,9677792.84981,688.031975934,657.135824,65544979.4184,1883.26423794,54793571.6145,66750071.3373,4981.32992958,4970.14697786,0.0
1.05268212136,1.07867185202,9.26021026169e-06,-48088229.165,1.32553523181e-05,0.0,5839663.25206,679.563768539,647.676902569,67029289.7986,1695.7828647,36875590.8223,70682608.1849,4369.68348577,4360.76424114,0.0
1.11301322513,1.01342169811,9.58525937482e-06,-19398562.4718,1.74184249278e-05,0.0,5703996.77382,682.729749075,651.626099844,66686613.6401,1777.1559898,38993960.206,69033432.3419,4620.11789751,4611.01457523,0.0
1.20993584527,1.02221299812,9.80966310772e-06,10614094.2949,2.3627686197e-05,0.0,11986597.4824,688.421054002,657.67400894,65379699.0322,1893.88496127,56540161.0524,66997374.0866,5022.44369372,5010.77124124,0.0
1.06434832375,1.07946890257,1.01252770899e-05,-35675075.4838,1.37817891665e-05,0.0,5814729.90917,679.39504623,648.423897486,66962317.7303,1712.90330868,34663708.6228,70132606.3392,4418.10989189,4409.68074521,0.0
1.11584147432,0.851933001616,9.97378146448e-06,-15917768.067,2.0002986358e-05,0.0,5659426.35308,682.611904004,651.737011234,66536188.9335,1780.2367137,40838359.7296,69379845.3241,4631.8579599,4622.61947945,0.0
1.12493840967,1.11395965796,9.8007954515e-06,-13609348.75,1.70479600221e-05,0.0,5653915.50383,683.175351634,652.325928315,66541084.4387,1791.51593526,42122836.4898,68542747.9739,4669.61933854,4660.13131379,0.0
1.15585952285,0.811795966515,1.01761107498e-05,-2046045.11512,2.36113651368e-05,0.0,5484062.82175,685.044540341,654.365464945,65998311.8968,1829.50515096,48869578.6912,68088412.2939,4797.97287935,4787.70572949,0.0
1.04822194103,0.925511789453,9.99929428276e-06,-46162161.0718,1.4780682354e-05,0.0,5851866.79564,678.718437756,647.402183355,67066026.0754,1691.93662269,36215311.603,70470632.8938,4351.16927722,4343.20170812,0.0
0.962925455912,0.86530038885,9.71021275286e-06,-94118451.055,1.46908278626e-05,0.0,6041405.77715,684.762648749,641.9587771,67481563.1952,1613.67781134,69136023.8443,69363294.9328,3997.10356749,3990.13885856,0.0
1.11358869754,1.0654619712,1.00948005621e-05,-16409548.0209,1.6993648674e-05,0.0,5634303.87403,682.354691001,651.593429235,66453001.79,1775.25679617,40572477.1325,69277444.8951,4622.50668349,4612.61394209,0.0
1.02420587312,0.984264599949,9.91777897183e-06,-67453299.5211,1.36593131156e-05,0.0,5927721.98385,677.890693462,645.886064104,67267348.7486,1660.94933154,47644912.782,70997236.9458,4251.47857932,4244.22671682,0.0
1.04487611404,0.989508875227,1.01445541452e-05,-48571050.7671,1.42724697163e-05,0.0,5823335.49479,678.538754519,647.18164595,66976070.4679,1686.12763897,37020906.9001,70843347.262,4337.28074938,4328.66812072,0.0
1.121012211,0.895400337187,9.99663475224e-06,-14430662.231,1.99871254609e-05,0.0,5644925.19143,682.899653206,652.069059443,66501900.5687,1786.87532873,41593838.6134,68829121.6239,4653.32168786,4643.99925486,0.0
1.00032414017,0.875698261817,9.64048484572e-06,-95933516.5862,1.45085354258e-05,0.0,5989062.18964,678.959489808,644.370598734,67391784.2651,1628.66573451,70733931.3158,71026442.6178,4152.34550585,4145.43121656,0.0
1.13456028719,0.938396249563,9.97064789227e-06,-10237766.0786,2.0097329693e-05,0.0,5570267.3096,683.804951747,652.971229186,66278424.5974,1802.76180623,44378260.4066,67803514.6566,4709.55975213,4699.52452237,0.0
1.11232714642,0.928143902682,9.83354018641e-06,-17111709.1261,1.84274540374e-05,0.0,5685554.72836,682.502076441,651.564086385,66623012.6734,1775.72154458,40270535.4055,69148410.3441,4617.26998479,4608.08828148,0.0
1.05373927836,0.831791826317,1.00859735179e-05,-43835617.0239,1.63841372899e-05,0.0,5775329.52053,679.038377356,647.711792198,66843478.4885,1696.80456977,35485468.9742,70198767.9957,4374.07174447,4364.95957557,0.0
1.11285947764,0.711169883764,1.0156103674e-05,-16269170.3429,2.19531197349e-05,0.0,5624927.76052,682.421081983,651.550438181,66429288.047,1775.53616141,40479346.7455,69200285.0806,4619.47969168,4609.99067143,0.0
1.10297506548,1.13150101653,9.75174159904e-06,-20761282.7885,1.51456851013e-05,0.0,5668589.79487,682.03255204,650.992984893,66544937.7504,1760.81539336,38482404.9156,68535083.7789,4578.44949681,4568.36124257,0.0
1.0925341847,0.98589430209,9.89556939534e-06,-25550582.2366,1.65608898004e-05,0.0,5749782.66485,681.286878653,650.28691598,66803990.7057,1750.6280847,36426365.9339,69258968.1465,4535.10940069,4526.43054984,0.0
1.02641410609,0.928181067512,9.64102896285e-06,-67489399.9398,1.4184615214e-05,0.0,5930459.0756,678.238594291,646.029132505,67276724.1462,1663.86145561,47689156.2433,71116102.891,4260.64495438,4253.3615565,0.0
1.02271995042,0.702362225324,1.01872391075e-05,-67530544.5137,1.62324080294e-05,0.0,5848412.30607,677.795588813,645.769607079,67015828.5245,1656.46618415,47657246.4875,70823445.3476,4245.31051419,4236.96672231,0.0
1.07043579814,1.1420566186,1.03491489e-05,-32426339.1811,1.36664549126e-05,0.0,5798206.4052,679.488445764,648.758309211,66933366.0829,1721.1793429,34976499.4124,69536106.3009,4443.37899808,4434.94809741,0.0
1.2663216437,1.05547063103,9.96783122584e-06,22543376.1212,2.8900142819e-05,0.0,24474695.9562,691.979453348,661.251718432,64504891.6991,1958.0011981,65927831.2925,66852487.234,5256.501143,5243.67935261,0.0
1.17354356546,1.16416648029,1.0181334016e-05,2198317.32881,1.90595282678e-05,0.0,5430589.53544,685.919396495,655.441060623,65833878.0961,1849.9882522,51036799.4654,67089884.0244,4871.37934022,4860.47426816,0.0
1.06781782404,1.14644182517,9.62841185474e-06,-36190933.4219,1.30239644881e-05,0.0,5839711.38203,679.930002243,648.652568112,67047079.6678,1718.11083167,34713712.0108,70417248.2836,4432.51178759,4424.21730217,0.0
0.972196177456,0.873768403651,9.83815438624e-06,-94641839.557,1.46200437652e-05,0.0,6040089.71412,682.733054152,642.562417755,67503928.3953,1613.78730429,69596676.0234,69830938.8827,4035.58633262,4028.98053784,0.0
1.23437462507,0.913561915405,9.8984502991e-06,16423750.5547,2.8225847205e-05,0.0,17909408.8594,689.984131219,659.277893366,65098908.3606,1923.20175779,61289248.8083,66842088.0867,5123.88906867,5112.22295195,0.0
1.13775793675,0.861574992854,1.01416896686e-05,-10168809.5409,2.26403911476e-05,0.0,5595271.54508,683.894946871,653.190736271,66362771.1408,1809.2550631,44236662.3132,67927397.9325,4722.83319545,4713.54890288,0.0
1.00557885985,1.01160361244,9.79793197755e-06,-91312752.7715,1.31745128144e-05,0.0,5980628.53315,678.0658562,644.701982545,67373208.9698,1635.87867528,66684448.2884,70994097.7485,4174.15784724,4167.16966607,0.0
1.13230658358,0.958655240117,1.00334206356e-05,-11473918.5689,2.00793097098e-05,0.0,5582903.02045,683.533127506,652.747995953,66305854.9707,1800.30856588,43402098.9418,67522382.0802,4700.20462844,4690.28998542,0.0
1.00954639066,1.00703884116,9.77786813235e-06,-86660107.419,1.32617643168e-05,0.0,5971671.7149,677.967022406,644.956834983,67353782.6852,1641.22787082,62713198.7456,71013115.2508,4190.62706763,4183.58307259,0.0
1.02494968141,0.887292389268,1.02073424713e-05,-65306521.4191,1.471001573e-05,0.0,5853098.45845,677.752930525,645.902908991,67035862.0331,1659.34086375,46117005.4934,70849401.939,4254.56612753,4246.18654521,0.0
1.227905046,1.27033749213,9.82449306668e-06,14419760.9285,2.07371791153e-05,0.0,15851329.627,689.426326752,658.874710675,65265464.8032,1914.8205633,59668543.7712,66808169.3089,5097.03384595,5085.19955233,0.0
1.06248203368,0.961121187052,1.02019691845e-05,-36964864.9813,1.49345980889e-05,0.0,5808301.82534,679.296852515,648.300601537,66941372.5143,1710.73393596,34621310.1055,70032338.4069,4410.36292181,4401.96187752,0.0
0.976374448734,0.870052129421,9.94711036568e-06,-94788644.4946,1.46398937986e-05,0.0,6025586.43934,681.843881522,642.830211901,67467933.3755,1613.64835002,69726011.7498,69962384.1442,4052.93033669,4046.26688384,0.0
1.14437111103,1.06013207153,1.00074327741e-05,-8368868.15971,1.94737997696e-05,0.0,5551139.34162,684.157644078,653.447294441,66225020.8819,1815.5456133,45254574.5549,68406605.1372,4750.28448189,4740.13936435,0.0
1.12897253869,0.885089400804,1.03190562637e-05,-11708537.1459,2.10953887311e-05,0.0,5574360.73189,683.174041661,652.52502612,66280297.9827,1796.03038889,43113067.8527,67355998.2819,4686.3650081,4676.50685011,0.0
1.08563689855,1.09726412023,9.91290373275e-06,-27884354.6244,1.4676558029e-05,0.0,5776213.07303,680.894891136,649.896427855,66877672.2017,1741.50839558,35889988.371,69372276.6698,4506.47876588,4497.908345,0.0
1.08824212094,0.72092745685,1.03287177553e-05,-25793284.327,2.01000272703e-05,0.0,5729699.83216,680.85335993,650.014569746,66736001.7164,1745.5571991,36208480.9257,70667503.7845,4517.29304402,4508.77977372,0.0
1.09805851379,0.824347921803,9.767036481e-06,-23446040.154,1.8552130426e-05,0.0,5727116.99677,681.79793008,650.664059622,66734234.7349,1757.88713218,37030056.3469,69201158.1619,4558.04089074,4549.17632648,0.0
1.01821267403,1.03474653185,1.02109128037e-05,-71547664.7289,1.33001599882e-05,0.0,5876623.33872,677.584170619,645.484072357,67090034.3861,1650.23465259,50582645.1062,70874020.2614,4226.6008099,4218.3291765,0.0
1.09918799582,0.937833990475,1.01727082163e-05,-22571733.4756,1.78673011038e-05,0.0,5715212.82354,681.573018685,650.770059208,66701071.1595,1759.31749977,37269014.6786,68534355.5433,4562.72937065,4553.94663386,0.0
1.26643551822,0.941877452109,1.04169169983e-05,23049468.7145,3.30990415089e-05,0.0,24803168.6806,691.897234402,661.263565814,64341460.4011,1957.71248378,66259830.0323,67139903.3541,5256.97383613,5244.18869966,0.0
1.07893447192,0.948993901466,9.84856457041e-06,-30554060.8921,1.59124600181e-05,0.0,5790605.46806,680.411275683,649.317108124,66921910.1713,1732.84324179,35402683.9145,69365530.9995,4478.65699294,4470.19079686,0.0
1.10399922914,1.1273114394,9.9212009316e-06,-21644682.7997,1.55954593558e-05,0.0,5728872.21592,681.950090748,651.082447137,66745183.3658,1765.59821855,37801804.755,68656564.9499,4582.70080016,4573.8420587,0.0
1.13602772522,1.00461635734,1.01766814655e-05,-10803563.5399,2.04491792881e-05,0.0,5616692.88909,683.696586105,653.085582161,66433260.5407,1807.20498151,43851407.6193,67873336.969,4715.65108739,4706.49983049,0.0
1.17125782883,0.797803111624,1.00343374951e-05,1656981.56925,2.52601818079e-05,0.0,5428808.781,686.077748486,655.313938451,65839831.7553,1848.62685271,50886599.4464,67497690.3594,4861.89124747,4851.3434209,0.0
1.01082164625,0.856879450397,9.49670046929e-06,-87095355.7982,1.46124175351e-05,0.0,5962986.64937,678.370372599,645.041282711,67317429.2225,1642.36476351,63082091.5693,71048398.888,4195.92065358,4188.68333048,0.0
1.07842348386,0.794602381332,9.88683732451e-06,-30607023.4278,1.77492687543e-05,0.0,5780246.89169,680.416114313,649.281885558,66889636.7571,1732.28333171,35382789.9322,69322402.6097,4476.5358815,4468.07760997,0.0
1.07213860837,0.701588487465,9.85373810356e-06,-33955641.117,1.84161127667e-05,0.0,5779810.31399,680.181734407,648.909478621,66866596.7685,1723.59874888,34828580.6295,69798638.3081,4450.44736334,4441.8965606,0.0
1.17954778788,0.977422630129,1.0419033568e-05,3800297.9271,2.29076766587e-05,0.0,5716133.38047,686.256328779,655.786350667,65643794.9101,1857.49529811,51764992.8751,66903681.9578,4896.30286749,4885.28953348,0.0
1.11133042768,1.04897839151,9.79993103215e-06,-19371089.6249,1.69748392287e-05,0.0,5702235.50816,682.467717311,651.517695746,66683838.623,1774.89099619,38955802.8241,68980330.2289,4613.1326053,4604.05627799,0.0
1.11723318809,1.03019535399,1.01868915848e-05,-14873697.653,1.78343311866e-05,0.0,5633993.76176,682.4870474,651.810502474,66459009.6573,1780.65506069,41327122.2726,68947107.173,4637.63496376,4627.97509659,0.0
1.12005321702,0.773639914717,1.05000108684e-05,-13903458.2247,2.2056186946e-05,0.0,5588880.62728,682.628405183,652.006698735,66319281.3578,1784.91184308,41839132.6912,67933633.0787,4649.34090385,4639.73185959,0.0
1.10830806504,1.06219798366,1.01693837058e-05,-18042580.6586,1.68417571951e-05,0.0,5626731.01733,682.046423793,651.286548851,66426228.8758,1767.52156508,39721240.1787,68913851.0981,4600.58677798,4590.4995701,0.0
1.15644488712,0.935398342772,1.05749170035e-05,-1894642.6552,2.19704248414e-05,0.0,5434337.94587,684.821044343,654.37802295,65822121.3086,1828.53709958,48426692.7552,67590378.2323,4800.40272644,4789.59036411,0.0
1.0513457307,0.776324675784,9.85657068689e-06,-46140759.9053,1.65215058654e-05,0.0,5798883.15499,679.158444426,647.585754241,66904079.2832,1694.39076766,36138872.0312,70552239.1423,4364.13612814,4355.24036755,0.0
1.06615311378,1.34267593152,1.00567059962e-05,-35944681.1816,1.16226487046e-05,0.0,5825875.0798,679.479765763,648.541469348,67000456.9817,1715.32344722,34687354.4069,70156965.9504,4425.6015753,4417.14316646,0.0
1.11231429504,1.18861848837,9.61110807157e-06,-17856159.8149,1.49307480737e-05,0.0,5690306.55683,682.57460318,651.566695546,66626702.4585,1774.54035946,39874688.5716,69146872.8626,4617.21663871,4607.63871529,0.0
1.03675877867,1.1343741766,9.81438528458e-06,-56745542.799,1.25660282567e-05,0.0,5908298.38048,678.338899761,646.68866962,67230477.2329,1677.58844506,40892027.104,71100194.1161,4303.58569026,4296.15522655,0.0
1.16315889883,1.04769345546,9.85296343708e-06,-2269563.41782,2.14516044705e-05,0.0,5533824.92959,685.588331749,654.844008638,66195833.7066,1840.8159769,48841680.3393,68324483.5665,4828.27258904,4818.5397273,0.0
1.02676782756,0.920137294621,1.00771134816e-05,-64688676.0525,1.45019039026e-05,0.0,5855313.66965,677.929634076,646.026809342,67043704.8136,1661.7221506,45713113.1706,70864363.0038,4262.1132522,4253.70444004,0.0
1.12091878488,0.937768358115,1.00338878066e-05,-14197987.3021,1.92900366556e-05,0.0,5620639.06827,682.875601298,652.0552007,66421018.2862,1785.53687893,41886382.2787,68509579.0584,4652.93387604,4643.21114055,0.0
1.15081647304,0.878389460329,1.01942520457e-05,-4555516.91104,2.19756727376e-05,0.0,5515041.43576,684.512665369,653.917330065,66108301.684,1823.47280376,47418490.4576,68594196.0355,4777.03917959,4766.85385606,0.0
1.10244383049,1.1290670416,1.01538239275e-05,-21678769.164,1.56997539476e-05,0.0,5720734.20171,681.692862123,650.978697902,66724152.7052,1763.39275343,37643156.1892,68618619.9334,4576.24434036,4567.41027592,0.0
1.01753936008,1.0035911132,1.05370365006e-05,-68260562.0599,1.33962393908e-05,0.0,5882930.93356,677.197551337,645.437697129,67111637.5837,1650.28149943,48185460.4742,70671323.6229,4223.80588369,4215.94096739,0.0
1.15030237849,0.834561047852,1.0390056062e-05,-5744936.22299,2.44321679087e-05,0.0,5501704.35719,684.655735358,654.027937166,66067742.7865,1823.82166266,46246723.1652,68419841.0016,4774.90517311,4764.96857811,0.0
1.06434005015,1.20211036232,1.04846770647e-05,-34938708.9001,1.28771581727e-05,0.0,5820421.24262,679.09216023,648.429263894,66989822.7243,1713.83082506,34661442.3504,69919401.5974,4418.07554817,4409.92864872,0.0
1.10490740437,0.95627090953,9.97058163716e-06,-21191197.0669,1.79156847028e-05,0.0,5711381.73264,682.043804197,651.135337492,66693640.3293,1766.92604604,37909261.1397,68681555.3443,4586.47063554,4577.59753856,0.0
1.18695495838,0.935822957755,1.02315849196e-05,5678696.17875,2.39898070813e-05,0.0,7185892.79506,686.896829045,656.261009829,65475977.8376,1865.64357853,52884305.1333,66700882.6054,4927.05003224,4915.58952879,0.0
1.0052764284,0.915798002347,1.01179227909e-05,-89748685.5753,1.43743621837e-05,0.0,5884904.10733,677.897951192,644.660389434,67077243.5773,1632.00540571,65347157.4486,70719320.4875,4172.90245429,4164.5082577,0.0
0.980826966473,0.853340965301,1.03323080196e-05,-94856215.6108,1.48646164002e-05,0.0,5999716.30767,680.332340011,643.114256536,67408721.2107,1612.13070893,69785800.2146,70022750.8046,4071.41273783,4064.77136701,0.0
1.18101509125,0.787097373016,1.02264899306e-05,4293117.8655,2.63848343943e-05,0.0,6036113.25515,686.588857258,655.875772651,65581081.7632,1859.62333074,52108144.3571,66888260.0002,4902.39364378,4891.3557789,0.0
1.03992746823,1.05098224359,1.02610652877e-05,-50387193.1895,1.34310871889e-05,0.0,5832739.55932,678.150834518,646.834158754,66992655.8054,1679.31618201,37653271.4744,70821526.4959,4316.73892062,4308.11699081,0.0
1.17096827351,0.796749016514,1.01342735647e-05,1457214.79649,2.53764185114e-05,0.0,5415578.89576,686.025715812,655.293177043,65793701.7887,1848.07498109,50609905.8484,67398636.1651,4860.68930334,4850.03896204,0.0
1.08670306369,0.900661583982,1.00821002664e-05,-26936664.9112,1.71811667488e-05,0.0,5752402.87572,680.905444245,649.95250004,66808283.613,1743.05401063,35985113.0286,69256297.1033,4510.90441738,4502.31736912,0.0
1.20799818109,1.08372217535,1.02745774412e-05,10581484.0884,2.30622652709e-05,0.0,11859499.0573,688.016105867,657.529532327,65252933.5277,1890.14670889,56381053.9164,66627882.8628,5014.4004497,5002.4474524,0.0
1.06571968919,1.03101263298,9.58381431676e-06,-36625079.7717,1.36943896896e-05,0.0,5799814.39113,679.929815165,648.497333492,66909780.5989,1713.12347593,34629915.376,70205784.1703,4423.80242983,4414.63554168,0.0
1.06456067744,1.06992450575,1.00673248988e-05,-35787780.8286,1.3864303715e-05,0.0,5815905.95107,679.45307573,648.437662094,66976146.2951,1713.18574017,34665859.2339,70180468.37,4418.99137205,4410.55816224,0.0
0.992466201458,1.01325436095,1.00972716728e-05,-95244629.4303,1.36364216702e-05,0.0,5924985.74968,679.202911683,643.844079493,67181873.5843,1615.07351185,70127771.6409,70379164.8314,4119.72720225,4111.62135134,0.0
1.15502521286,0.971607750737,1.05413153218e-05,-3013424.00849,2.12608090079e-05,0.0,5445583.80831,684.754521415,654.293926746,65876850.6846,1826.99850598,47736126.3414,67740744.992,4794.50965858,4783.7374749,0.0
1.16470173165,0.948949566624,9.46771367793e-06,-2426822.40766,2.24319892894e-05,0.0,5501368.6592,686.025883621,654.936057773,66091545.9731,1841.68960726,48854093.9574,68112303.7271,4834.67688808,4824.37883717,0.0
1.163527091,1.11190655894,9.83689665535e-06,-2270262.13596,2.03845287738e-05,0.0,5539537.10853,685.583452267,654.866036638,66214085.6532,1841.20141342,48824995.278,68335082.6821,4829.80095474,4820.06206955,0.0
1.06367122883,1.20917803071,1.00072193656e-05,-37257546.7409,1.24984044798e-05,0.0,5827727.74663,679.4182986,648.379766692,67010873.4193,1712.13876247,34678290.9816,70140678.344,4415.29927087,4406.87966163,0.0
1.22336101403,0.764678333328,1.03832970359e-05,14091672.0012,3.15176098861e-05,0.0,15400507.6735,689.26154323,658.572540625,64933330.6777,1909.39261315,59243539.4181,66377509.5889,5078.17156924,5066.235222,0.0
0.971562511313,1.00280893634,1.05179362705e-05,-94118891.9858,1.34674053847e-05,0.0,5953659.02069,681.687257874,642.497345153,67245181.5664,1608.2924173,69136693.4395,69367485.0343,4032.95598446,4025.15210164,0.0
1.13511802417,0.862712333021,1.03527357858e-05,-10650468.9768,2.27591540594e-05,0.0,5600008.28142,683.590495151,653.025515659,66384073.8788,1806.10820823,43870814.9486,67825647.3127,4711.87491833,4702.73807734,0.0
1.06325283035,0.852046273279,9.86021675261e-06,-37953183.6283,1.59811796876e-05,0.0,5812933.50439,679.64173169,648.351898967,66962273.1242,1711.80248475,34688288.3538,70050419.6421,4413.56249878,4405.14942322,0.0
1.06800491552,1.10789267987,1.00100696699e-05,-35248376.453,1.35830542403e-05,0.0,5811563.82058,679.687295677,648.661640792,66959016.6669,1717.87451498,34708567.1383,70059517.3428,4433.28840432,4424.80099856,0.0
1.17519637893,0.835591152387,9.97104346549e-06,2214308.18768,2.46314018778e-05,0.0,5387998.56814,686.388526388,655.542878917,65714109.2767,1852.52959165,51074069.818,66955444.8911,4878.24016894,4867.19891287,0.0
1.00684262989,0.97968559511,9.65291816979e-06,-91196832.5043,1.34971336746e-05,0.0,5981688.96121,678.249339692,644.780530516,67377103.1477,1637.55983334,66599748.5553,71226539.8211,4179.40375667,4172.39781785,0.0
1.16509215598,0.788258513678,1.01041546675e-05,153571.337726,2.4889468062e-05,0.0,5405794.79174,685.739392399,654.922962984,65751930.453,1839.64180806,49953877.9125,67551287.1261,4836.29753947,4825.33484196,0.0
1.05221395795,0.858372454365,9.81476640464e-06,-45923075.9396,1.56854958194e-05,0.0,5804034.06481,679.201533138,647.643627215,66920117.2411,1695.46986053,36076960.3657,70564611.5885,4367.74013945,4358.83002739,0.0
1.08956639384,0.994565702491,9.76188240644e-06,-26749396.2154,1.60229598446e-05,0.0,5767277.72645,681.258457894,650.139412737,66851937.3131,1746.87398606,36173540.0046,69406023.278,4522.79010083,4514.15822377,0.0
1.18518422757,1.24250473823,1.03990473429e-05,5549170.6143,1.88798569821e-05,0.0,7073523.7784,686.470560812,656.163482345,65616179.514,1863.37333862,52765656.176,66749301.455,4919.69972864,4908.48314843,0.0
1.10515569121,0.869483077689,1.02077464997e-05,-18799885.0826,1.91130366177e-05,0.0,5617953.94554,681.951485771,651.098534052,66394269.3532,1763.65437202,39328807.8402,68718804.0707,4587.50127421,4577.46916178,0.0
0.927540395751,1.04666303652,1.02424019003e-05,-92384358.2784,1.28309078701e-05,0.0,6101576.09087,688.47112502,639.673227782,67617370.1548,1601.57487124,67609583.6634,67815679.0911,3850.22018276,3843.68286882,0.0
1.17606233252,0.947133865816,9.77444659571e-06,2346076.87215,2.23584933581e-05,0.0,5425748.17529,686.445528097,655.607853948,65838414.6958,1853.93286719,51309304.9283,67101573.5704,4881.83474229,4870.99052506,0.0
1.19505087607,0.976385201564,1.00920561591e-05,8138640.52734,2.36668405127e-05,0.0,9587263.83865,687.41763871,656.821868701,65557966.2528,1876.44271197,54648936.2339,66662362.1019,4960.65618657,4949.58010789,0.0
1.1649729695,0.974421548657,9.61655604341e-06,-531049.996796,2.06972710432e-05,0.0,5481996.2238,685.853047925,654.934985358,66009083.025,1840.28212809,49952397.8734,67982652.0887,4835.80279639,4825.16073808,0.0
1.09454438078,1.09917724207,1.03304307232e-05,-23802109.9161,1.57139198717e-05,0.0,5738935.71744,681.099041599,650.445186263,66774922.2561,1753.47479076,36801482.19,68935476.622,4543.45372462,4534.84270233,0.0
0.990169492201,0.918896407836,1.00077377086e-05,-95180701.8813,1.42413739864e-05,0.0,5925619.50711,679.620420529,643.697618406,67180593.9243,1612.43986492,70071415.1948,70316826.2751,4110.19356213,4102.04469975,0.0
1.19205516926,0.958620718028,9.90874756017e-06,5815852.8717,2.35966638818e-05,0.0,7383770.90382,687.418552608,656.590910312,65490187.1816,1872.09141611,53119326.712,66727325.6152,4948.2210076,4936.56328362,0.0
1.02184078726,1.07379956316,9.81598672147e-06,-71387366.9778,1.27900493268e-05,0.0,5942862.55035,677.914536271,645.73736795,67308788.5617,1657.73795701,50483367.8687,70978487.323,4241.66110792,4234.4429561,0.0
1.12396759767,0.925334399937,1.07117844239e-05,-12870523.3869,2.03229030179e-05,0.0,5527369.50361,682.732721259,652.251383268,66133441.3154,1787.79442938,42459862.4289,66987815.08,4665.58949793,4655.14602544,0.0
1.12567471049,0.899550763117,1.02363356619e-05,-12837046.5371,2.01259011264e-05,0.0,5593056.97604,683.089155866,652.375921563,66327231.6565,1791.91034643,42600152.5035,67381889.9363,4672.67572324,4662.89086408,0.0
0.977171189467,0.993041723225,1.03670265049e-05,-94556755.4655,1.36035934355e-05,0.0,5946905.92194,680.774192902,642.860680137,67221815.8386,1607.64545132,69522109.4671,69757109.8372,4056.23760748,4048.34774951,0.0
1.24409268979,1.01207831143,1.01261422275e-05,18581697.538,2.76399499676e-05,0.0,20222792.2992,690.444840992,659.850064302,64889152.8833,1933.43185937,62955033.7996,66266741.0211,5164.22875532,5152.16160951,0.0
1.07382787734,1.09841903422,1.02788258352e-05,-31152555.7036,1.42684530515e-05,0.0,5785683.42573,679.928865014,649.10341791,66887572.5701,1725.67434459,35203914.309,69341657.201,4457.45951884,4448.97578043,0.0
1.11052191531,0.971651090996,9.95234099463e-06,-17374645.2598,1.79027657135e-05,0.0,5637604.2037,682.36323945,651.432244154,66464634.1464,1771.2236169,40070931.0749,69031241.075,4609.77647045,4599.83990616,0.0
0.981980529266,0.966091492166,9.6489819745e-06,-94964890.6258,1.40941042583e-05,0.0,6015544.42701,682.08454897,643.188926956,67442227.7891,1618.68730829,69881140.8964,70119807.3041,4076.20117698,4069.20163113,0.0
1.10510434704,0.880199351187,9.77432925975e-06,-19922892.7688,1.84039838164e-05,0.0,5638783.97227,682.26767396,651.117761697,66456308.4661,1763.84531443,38866204.5863,68600834.8656,4587.28814456,4577.16099276,0.0
1.1567738597,1.0933191561,1.03411757914e-05,-2708106.86873,1.92000419674e-05,0.0,5501974.90332,684.859164934,654.420815212,66039767.2899,1830.59589966,48233533.9504,67921211.154,4801.76829161,4791.4812258,0.0
1.09127613116,0.917138688792,9.94217034369e-06,-25822092.4495,1.72510529793e-05,0.0,5746502.31356,681.224288989,650.212213686,66795270.0106,1749.03069215,36304562.3058,69264517.4539,4529.88722045,4521.22870334,0.0
1.00556133078,1.08892798562,9.98367500861e-06,-90590650.8908,1.27800436445e-05,0.0,5900681.66511,678.035149371,644.677141438,67124066.4747,1632.2184865,66056996.3081,70832846.3425,4174.08508407,4165.68623258,0.0
1.00417016724,0.811754136517,9.62329263692e-06,-95507120.5543,1.47929235445e-05,0.0,5954574.53321,678.574952381,644.605218916,67273725.0657,1632.47909847,70363621.7452,71041325.6535,4168.31036421,4160.82588362,0.0
1.02631476801,0.827406077326,1.01286805068e-05,-62352467.2804,1.51069776439e-05,0.0,5900370.12741,677.770088874,646.000328012,67187802.9189,1663.46614372,44114806.3056,70804753.7607,4260.23260201,4252.86060392,0.0
1.14851307561,0.786550990164,9.96021924285e-06,-7637574.01059,2.50730466514e-05,0.0,5565189.60979,684.675729343,653.84873883,66289854.1847,1823.38296319,45696934.9464,68532584.6978,4767.47777686,4758.10245018,0.0
1.1440776977,0.831151098275,9.73210132613e-06,-7935512.08774,2.30120008025e-05,0.0,5567944.45822,684.506314225,653.540207425,66293415.6123,1816.34608094,45836589.0288,68386612.5071,4749.06652315,4739.34196143,0.0
1.07916245537,0.864979583083,1.05904094542e-05,-28614372.055,1.76487522152e-05,0.0,5756881.43695,680.135064687,649.482197316,66816838.4421,1733.75373651,35521150.8298,69083281.7533,4479.60335224,4471.32563759,0.0
1.11821650301,1.04546850052,9.59003634468e-06,-18101639.4207,1.76127125876e-05,0.0,5701575.28534,682.986618154,651.934331905,66684647.7321,1784.51849854,39618214.1155,69291439.6041,4641.71670399,4632.73343212,0.0
1.2660880469,0.847192973671,9.83052934648e-06,22490681.8858,3.38953474087e-05,0.0,24413660.0799,692.272672752,661.229765043,64346690.9357,1957.97460894,65846611.6086,66758478.5916,5255.53148268,5242.46956527,0.0
1.00069192531,1.17232717742,1.02345781243e-05,-95788358.8945,1.22010472181e-05,0.0,5909188.03335,677.980556346,644.367694225,67148302.692,1625.922079,70605227.5404,70605227.5404,4153.87218196,4145.63372452,0.0
1.12725929616,0.90990294641,1.04182524286e-05,-11970830.5143,2.06604805712e-05,0.0,5577941.06054,682.982275555,652.409093757,66290187.8997,1793.77851512,42964934.1973,67269240.9774,4679.25333836,4669.42415607,0.0
0.970380248875,0.682143130688,9.99646805514e-06,-94231793.9341,1.64245738297e-05,0.0,5978000.83237,683.169157161,642.430772041,67310073.8682,1612.57300122,69235976.2184,69466904.0731,4028.04841308,4020.60556812,0.0
1.05601767861,1.18925175062,9.95930513634e-06,-41080191.7531,1.23394207785e-05,0.0,5843474.47092,679.159112432,647.951818383,67043902.0756,1701.96115193,35041272.2106,70313327.0996,4383.52938391,4375.22896328,0.0
1.10543515294,0.867143078288,9.95954859367e-06,-20990808.2412,1.9058720175e-05,0.0,5703222.87627,682.121326925,651.166251677,66670203.8627,1767.6994113,37968458.3705,68684133.6167,4588.66131985,4579.77987641,0.0
1.0870323447,0.779654884267,9.7376220569e-06,-27464206.0724,1.83946175962e-05,0.0,5754408.55956,681.236345997,649.983735907,66815253.6139,1743.39763864,35943544.9207,69358444.1003,4512.27126285,4503.58180514,0.0
1.07080080527,1.07168979291,9.97199723677e-06,-33340773.2547,1.41137159882e-05,0.0,5804186.6907,679.84662456,648.819860057,66940520.1434,1721.37452465,34934251.165,69837041.3801,4444.89414268,4436.36464578,0.0
1.16764257862,1.16504423386,1.03335201355e-05,1027420.69622,1.87097120362e-05,0.0,5447335.84157,685.471960259,655.087007037,65879597.0584,1842.69081912,50244308.3948,67383549.5565,4846.88434385,4836.09705494,0.0
1.13089022625,1.00237228988,9.64032766756e-06,-12232934.1425,1.90487703713e-05,0.0,5626962.45374,683.737303956,652.731482531,66462923.2265,1799.25621403,43011466.5556,67440917.446,4694.32532916,4684.71360974,0.0
1.07234398762,1.01656912457,9.71654447458e-06,-33865589.952,1.46799777222e-05,0.0,5817161.29978,680.148733032,648.931427655,66988620.672,1724.13800122,34835462.6648,70067816.6443,4451.29989261,4442.93566954,0.0
1.11332338874,1.02990733551,1.02016471056e-05,-16118963.242,1.75438096413e-05,0.0,5644012.24725,682.236689657,651.566718542,66484927.4175,1775.46235589,40645567.1285,69337897.2242,4621.40538666,4611.81175494,0.0
1.05953627136,0.899456042668,1.01904186826e-05,-38373227.7947,1.54006620627e-05,0.0,5812147.13027,679.16918541,648.110990355,66958723.5177,1706.88218859,34672459.3104,69872381.9974,4398.13506242,4389.77993324,0.0
1.04251512801,1.10432193842,9.84026702113e-06,-51008805.311,1.28595990094e-05,0.0,5843005.47421,678.597822635,647.005685782,67029415.3829,1682.3952562,38006153.9309,71023421.0028,4327.48029637,4318.72997519,0.0
1.1896669313,0.960632251826,9.84579796326e-06,5421635.00152,2.32641128993e-05,0.0,7030009.02854,687.274555046,656.430858838,65555892.8505,1869.40411861,52932176.1299,66823003.9351,4938.30743183,4926.78092098,0.0
1.08945296752,0.898452154008,1.00805062907e-05,-26005169.147,1.74239774322e-05,0.0,5744457.74022,681.038858151,650.103305293,66788133.6382,1746.65134718,36203884.9871,69220577.8134,4522.31926818,4513.68927291,0.0
1.06142397656,0.916869316371,1.01025887679e-05,-37851223.4753,1.52904301888e-05,0.0,5812030.5601,679.332465971,648.233546631,66960306.0815,1709.3724493,34658086.032,69970691.9948,4405.9709267,4397.58638603,0.0
0.975028774718,0.750751563896,9.95996236714e-06,-94578556.2526,1.54080006135e-05,0.0,6010841.20805,682.3005668,642.739808744,67422069.8873,1614.21704281,69541024.0698,69775618.0506,4047.34444385,4040.44684654,0.0
1.18148293634,0.754241749406,1.02196638567e-05,4552248.45578,2.74076282249e-05,0.0,6259041.30307,686.644457745,655.910750454,65583915.1028,1860.40544627,52311874.9235,66876451.7432,4904.33566875,4893.39048681,0.0
1.09232271995,0.922875303163,1.03029714741e-05,-24455631.1285,1.75358500503e-05,0.0,5728299.72574,681.029313219,650.275688429,66734225.4927,1750.3606066,36681749.6725,68932657.4408,4534.23161051,4525.55670303,0.0
1.01264256143,1.03806226974,1.01326521194e-05,-81730716.0834,1.33260247361e-05,0.0,5874159.29796,677.657699861,645.12544819,67055818.0503,1641.74802534,58588253.9101,70667600.2684,4203.4792725,4194.96439097,0.0
1.08646520143,1.16268393531,9.97261875879e-06,-27425582.0029,1.40530639334e-05,0.0,5775577.4816,680.866445308,649.944080795,66877915.3422,1742.54299199,35966217.1245,69366279.021,4509.91705114,4501.3337136,0.0
1.09723949939,0.94978118932,9.81130754409e-06,-23994698.3392,1.71834484478e-05,0.0,5740411.5158,681.655085144,650.603393933,66779586.603,1756.94093011,36843672.2794,69182744.2394,4554.64116197,4545.88897342,0.0
1.08922392877,0.987103852817,9.6220429904e-06,-27118710.8825,1.59127761069e-05,0.0,5768550.19185,681.340036368,650.119109302,66860133.0423,1746.08574612,36090489.7628,69441746.0105,4521.36852832,4512.64452541,0.0
1.10970145871,0.942854656743,9.92460314016e-06,-17666167.1345,1.81316535584e-05,0.0,5639604.21153,682.349739841,651.38517088,66468666.3465,1770.20401747,39895059.4654,68978792.6318,4606.37075511,4596.44923193,0.0
1.13911775766,0.981139039228,1.01933485387e-05,-9367191.5921,2.05152804618e-05,0.0,5543278.19636,683.923381005,653.23361716,66191061.2995,1808.62537906,44608596.7003,68050054.8944,4728.47781205,4718.3447619,0.0
1.01280057311,1.00984726534,1.00104678752e-05,-78181739.7256,1.34902239157e-05,0.0,5896439.71121,677.785688068,645.140033151,67121697.7231,1642.97322019,55730872.8845,70742380.9611,4204.13517898,4195.949853,0.0
1.11078992112,0.940384212299,9.58362845918e-06,-18651742.4372,1.77272715297e-05,0.0,5636345.2668,682.685986626,651.465415198,66454405.2041,1771.26655374,39441124.5885,68823372.6026,4610.88896257,4600.67765669,0.0
1.13447629758,0.986392530189,9.79898764591e-06,-11070931.869,1.97701152353e-05,0.0,5605329.68576,683.889176487,652.977816028,66388836.5292,1803.81867825,43781464.1163,67661683.5237,4709.21111125,4699.53912068,0.0
1.11128555245,0.889548035358,1.03601423258e-05,-16571186.619,1.92378622979e-05,0.0,5640402.99369,682.11054477,651.457943596,66460888.138,1773.59906508,40340622.7804,69114358.8756,4612.94632822,4603.48462885,0.0
1.10591105919,0.769569249851,9.74074303541e-06,-19443595.0264,1.97339618588e-05,0.0,5677964.7578,682.33973325,651.186991786,66583853.9373,1766.94418745,39063276.9813,68653963.2024,4590.6368067,4581.26238979,0.0
1.08159149077,0.971163090432,1.01908036919e-05,-28394288.6991,1.60811773329e-05,0.0,5766478.07492,680.522688306,649.640802324,66845419.5414,1736.29486516,35678203.2038,69248179.9412,4489.68627819,4481.17882722,0.0
1.23121425302,1.0691200092,1.00763180726e-05,15526207.4395,2.50222579385e-05,0.0,16987623.9076,689.609801051,659.091407617,65176704.6915,1919.37629858,60549279.9546,66808821.1929,5110.77036429,5099.13943744,0.0
1.19107080375,0.980821739579,9.98586161549e-06,5719094.41006,2.32131891838e-05,0.0,7268173.50995,687.29331682,656.526889709,65501240.4022,1870.8014349,52994581.1655,66722285.0118,4944.13490637,4932.50200577,0.0
1.14130842888,0.753787097869,9.89442374319e-06,-8395256.04209,2.43008447911e-05,0.0,5562117.01464,684.298792103,653.378080904,66274290.1104,1812.82812433,45563950.1633,68215797.7669,4737.57128828,4727.89410472,0.0
1.1326596712,0.713136313385,9.97044946211e-06,-10532133.1124,2.39550878784e-05,0.0,5548956.00191,683.841179694,652.851902434,66212561.8719,1800.54067648,44116584.554,67587535.0144,4701.67029515,4691.65047477,0.0
1.05722890051,1.01611849572,1.02023825889e-05,-39787182.0243,1.42025710468e-05,0.0,5827398.83596,678.990532259,647.955330661,66995359.1934,1703.99591011,34817443.0674,69667004.3474,4388.55716602,4380.33044023,0.0
0.940180988799,1.29816696257,9.96326944977e-06,-93187574.2762,1.09212135858e-05,0.0,6130528.15627,687.124653021,640.500065137,67740763.936,1607.59856517,68316421.3264,68531247.9459,3902.6912845,3896.59018104,0.0
1.0755641478,1.37811213668,1.02061994853e-05,-31855177.839,1.20415419843e-05,0.0,5810205.33008,680.004673357,649.226692256,66982368.0833,1728.76320472,35044408.5467,69501073.6396,4464.66677752,4456.44528416,0.0
1.14723677789,0.878189972167,9.93650776817e-06,-8096982.32901,2.31879837864e-05,0.0,5579342.90483,684.534341664,653.740302475,66329627.0095,1821.6791136,45457609.9315,68467132.0925,4762.17986502,4752.82498424,0.0
0.964539963834,0.984491879883,1.02727292543e-05,-94041191.7428,1.37886434819e-05,0.0,6044016.65469,683.271673652,642.066432781,67526196.5226,1612.16705397,69068109.2694,69294934.4096,4003.80538987,3997.37790322,0.0
1.20255249639,1.16586610097,9.79849195461e-06,9210939.38741,2.05484855337e-05,0.0,10645295.0223,687.906562679,657.27808042,65606486.8217,1885.57376214,55586578.2406,66978135.2725,4991.79541251,4980.57209963,0.0
1.23695172833,0.811434739114,1.02230271812e-05,17013462.8146,3.14534677251e-05,0.0,18605823.7707,690.141342466,659.434671304,64875167.7784,1925.72146096,61681018.1617,66799485.1921,5134.5866243,5122.6507253,0.0
0.956155890319,0.687079926905,9.96183293756e-06,-93721996.2363,1.61163402935e-05,0.0,6063925.17603,685.38941725,641.528770931,67565349.3251,1613.33765552,68787106.667,69009672.9142,3969.00310071,3962.68883448,0.0
1.02646639721,0.766051344831,1.03513374935e-05,-64476184.7064,1.58771078856e-05,0.0,5815251.60144,677.719746653,645.99197865,66925923.112,1660.21267585,45532267.4093,70503141.8083,4260.86201482,4252.03474953,0.0
1.12192674265,0.90362744152,1.01589983181e-05,-14172428.9209,2.05322018808e-05,0.0,5655566.19147,682.829057934,652.147614856,66547349.9409,1789.03602696,41864986.154,68611826.4523,4657.11790874,4648.18984697,0.0
0.982443945858,0.793654339089,9.72885024804e-06,-94938565.7533,1.54116418313e-05,0.0,6003213.14557,681.859337703,643.217994839,67407077.6392,1618.084863,69858045.1801,70097271.756,4078.12481926,4071.11862652,0.0
1.08702333973,0.890943789523,1.03547161989e-05,-26146598.5197,1.76326604661e-05,0.0,5744430.99936,680.717483455,649.955442513,66779218.8657,1743.81807395,36106656.4651,69127659.841,4512.23388322,4503.73946406,0.0
1.02334806038,0.942968046206,1.00138098918e-05,-67577340.4766,1.3968348374e-05,0.0,5924017.45506,677.788178739,645.832231522,67255987.5127,1659.82598548,47731249.8344,70957465.1187,4247.91779864,4240.67817068,0.0
1.08100611438,0.700017164137,9.32804582415e-06,-31013695.5323,1.87801302132e-05,0.0,5798667.63353,681.000087746,649.454804422,66943955.8818,1736.27104099,35315031.5308,69864686.9584,4487.25638079,4478.85447193,0.0
1.08268766183,0.95389195613,1.01085317887e-05,-28277379.8733,1.62937226632e-05,0.0,5765854.40598,680.649373739,649.710081711,66844363.8483,1737.75235095,35744092.4831,69272118.7619,4494.23648426,4485.71198935,0.0
1.17877879499,1.07321767246,9.7269044297e-06,2618166.22304,2.03529109196e-05,0.0,5401541.48096,686.592547516,655.76237063,65764737.9497,1856.17825723,51463136.0015,67043196.0367,4893.110778,4881.80407012,0.0
0.954470305958,0.776538494904,1.00748299679e-05,-93649359.8907,1.51775266561e-05,0.0,6069110.66921,685.225425624,641.419542154,67579000.2593,1611.48689239,68723113.5636,68944926.5546,3962.00624003,3955.71463107,0.0
1.15928231428,1.00964189257,1.00231740608e-05,-2473537.33729,2.02872988696e-05,0.0,5463444.89885,685.297730201,654.571240469,65959868.3719,1832.51274888,48407404.9375,67740033.8792,4812.18088658,4801.34479404,0.0
1.24885441417,0.91789615523,9.67876005464e-06,19301593.81,2.9042760068e-05,0.0,20873709.4173,691.06928358,660.138600001,64775567.8896,1938.81631473,63412075.8981,65310127.0884,5183.99467322,5171.54322694,0.0
1.08278762745,1.14471428614,9.48966860316e-06,-30272356.1818,1.37347445903e-05,0.0,5808246.05233,680.808104195,649.572461902,66975959.0983,1737.73152254,35585079.8897,69510325.5611,4494.65144154,4486.12539161,0.0
1.0532775912,0.976024864614,1.03447611529e-05,-43138424.7335,1.46055808968e-05,0.0,5801670.4068,678.767175144,647.696998553,66917043.6017,1697.6532776,35323220.1931,70348259.2809,4372.15528107,4363.49574552,0.0
1.07682790709,1.20129030473,1.02197004775e-05,-31238785.0915,1.35295513513e-05,0.0,5798563.49003,680.1207133,649.314206457,66948651.3434,1730.49992223,35118022.2031,69280891.9332,4469.91264233,4461.67195478,0.0
1.07667667562,0.92029619804,9.96901677629e-06,-31099804.2848,1.61552587416e-05,0.0,5789656.10168,680.201774137,649.167235715,66917387.0511,1729.8965337,35265389.2352,69489120.687,4469.2848805,4460.85367594,0.0
0.993806146328,0.826337882583,9.81765487062e-06,-95552882.5602,1.49420107682e-05,0.0,5976415.25643,679.427333441,643.948221285,67334759.4569,1619.0142706,70399074.6947,70636027.048,4125.28931341,4118.12607059,0.0
0.945676017882,1.23014883845,1.02238682558e-05,-93255081.1194,1.13997130434e-05,0.0,6089049.09389,685.905619288,640.847576277,67624377.2647,1606.84951659,68375963.6308,68593217.0254,3925.50115023,3919.04361965,0.0
1.12388044745,0.987353118653,1.0146208484e-05,-13197730.9829,1.90249053669e-05,0.0,5606138.57605,682.984731565,652.257776638,66383826.771,1789.28577752,42446714.5659,67696616.2843,4665.22773736,4655.45602169,0.0
1.02408404265,1.00058885291,1.04179965699e-05,-66553679.7668,1.36949519876e-05,0.0,5832962.94154,677.489437892,645.842842949,66976501.5825,1656.89320936,46956681.5021,70453589.4529,4250.97286104,4242.18542699,0.0
1.08059065456,0.986919890272,1.07134407807e-05,-27074972.592,1.61741777711e-05,0.0,5747632.96557,680.067057449,649.558294872,66780044.1907,1734.89850516,35755593.4686,69055961.171,4485.53180708,4477.03839574,0.0
1.0009970005,1.20729613625,9.91249186046e-06,-95750290.2152,1.17429334865e-05,0.0,5921681.03816,678.473785022,644.388085488,67180421.9075,1626.03387561,70573042.7455,70809439.6686,4155.13854908,4146.81394461,0.0
1.1381719851,0.97074489127,1.03427584748e-05,-9879071.92182,2.13484025493e-05,0.0,5598676.03318,683.709705461,653.194139457,66384705.678,1809.91524764,44294224.0952,68005462.8676,4724.55191015,4715.36663676,0.0
1.24527661896,1.17837440398,1.00790045299e-05,18712987.6824,2.43192965337e-05,0.0,20323876.2341,690.419424978,659.924762355,64953289.3754,1934.5992895,63103994.3757,66100091.261,5169.1432453,5157.05432633,0.0
1.04385592874,0.911924529509,1.04072898154e-05,-47989579.8419,1.50137849211e-05,0.0,5814628.31242,678.30390418,647.114320439,66954222.3843,1685.09731459,36677974.3106,70600728.9818,4333.0459602,4324.53850746,0.0
1.20634783884,1.06781079728,9.87740331327e-06,9865591.1892,2.27086826998e-05,0.0,11252560.0015,688.17556885,657.452016041,65335671.8824,1888.63345735,55948033.5792,66974783.0166,5007.54987902,4995.600835,0.0
1.04069608073,1.09490030115,9.52754811387e-06,-54528581.4883,1.30622127069e-05,0.0,5847474.99011,678.803599692,646.897664064,67037151.3539,1679.31516497,39736148.8961,71349522.9894,4319.92943111,4311.03534334,0.0
0.944508599215,1.07421586578,9.60702983508e-06,-93364105.6508,1.3003565094e-05,0.0,6107236.77363,687.812263357,640.77559588,67661739.4231,1612.73710194,68471900.2416,68687581.4938,3920.65519534,3914.18459674,0.0
1.08845250601,0.824126382613,1.00304697113e-05,-26487323.6061,1.8248031248e-05,0.0,5744194.4781,681.068474932,650.056855131,66785352.7215,1745.41346711,36112987.6552,69245873.2913,4518.16635245,4509.55199219,0.0
1.04821574148,0.783989166876,9.77510781029e-06,-47117439.828,1.6157364492e-05,0.0,5818233.97362,679.024602112,647.389612507,66952756.595,1690.36542557,36578043.7186,70434467.3282,4351.14354288,4342.44506878,0.0
1.02482488387,0.909360915259,9.82398610457e-06,-67612876.6306,1.42961190235e-05,0.0,5926494.5277,678.023669247,645.928302291,67263915.7595,1661.78994202,47762893.2555,71037631.3136,4254.04809294,4246.78739634,0.0
1.15085634095,1.2705374836,9.95786914336e-06,-5882695.27857,1.67834039961e-05,0.0,5552061.06179,684.507490492,653.925908332,66233760.0802,1823.33360919,46793774.9787,68797989.3836,4777.20467128,4766.96703025,0.0
1.13593209929,0.9499704517,1.01958832162e-05,-10782666.2515,2.12977373586e-05,0.0,5611491.0145,683.69939046,653.078083891,66417991.4432,1807.12526097,43859848.8271,67864076.5569,4715.25414415,4706.10440306,0.0
1.17164937765,1.0807703973,1.02458217716e-05,1502176.90691,2.04198887143e-05,0.0,5393599.54394,685.855259421,655.31090865,65715614.2211,1846.78858447,50534743.5719,66981957.0356,4863.51656663,4852.22763481,0.0
1.05588366119,1.03697002865,1.00221091268e-05,-40852377.8414,1.37298068112e-05,0.0,5835863.26629,679.035446089,647.858826535,67021636.1936,1701.88845315,34983683.0559,70157614.8471,4382.9730776,4374.67473782,0.0
1.11565522581,1.05093061993,9.75862090404e-06,-16357718.0155,1.69811670125e-05,0.0,5644180.59578,682.718613121,651.734768613,66492829.7803,1778.12276894,40647365.8205,69353872.2276,4631.08484234,4621.15740011,0.0
1.09413697993,0.858943521742,9.9714678063e-06,-24761182.8645,1.82128854159e-05,0.0,5732966.35757,681.378680151,650.379627904,66757685.4061,1752.81441973,36586109.8614,69121449.1085,4541.76260369,4533.05925349,0.0
1.1747218006,1.17015687182,1.0164373134e-05,2716332.12576,1.90017306256e-05,0.0,5427623.38089,685.988186495,655.511716165,65827584.9662,1851.31673526,51381281.2291,67085452.2715,4876.27019429,4865.34665896,0.0
1.05547650083,0.952263865046,9.62033030989e-06,-43093836.7532,1.44878794868e-05,0.0,5822090.36908,679.405803408,647.84228556,66976809.2282,1700.01191349,35389821.6162,70608114.6931,4381.28295495,4372.46441844,0.0
1.13126414217,0.958708664795,9.59696948233e-06,-12228323.263,1.96557025692e-05,0.0,5624092.33522,683.809633984,652.755712726,66453565.5854,1799.79787283,43030376.893,67740306.8382,4695.87745415,4686.25954251,0.0
1.1282000379,1.02885556437,1.00353910501e-05,-12302520.8721,1.86749111063e-05,0.0,5603008.19816,683.212076618,652.469415813,66379355.261,1794.79858363,43016570.937,67305945.1964,4683.15835732,4673.31368456,0.0
1.13392778562,0.985942366039,1.00532894046e-05,-10481713.0583,2.02497843691e-05,0.0,5621780.29176,683.634388703,652.948726388,66454789.1637,1803.99995244,44267774.1905,67841829.0557,4706.93423811,4697.71414485,0.0
1.11576081945,1.15940916758,9.34476926523e-06,-19376808.9989,1.57625952253e-05,0.0,5728140.62573,682.983483256,651.805718765,66772509.1762,1781.37607666,38951297.6697,69202800.2277,4631.52316154,4622.57870373,0.0
1.19239672003,1.01103130368,9.89727672204e-06,5884283.54433,2.26832854519e-05,0.0,7438618.10588,687.415979132,656.618194215,65505512.6098,1872.4157073,53160100.0624,66747499.1107,4949.63878484,4937.96148326,0.0
1.03963591266,1.0067541117,9.90335038363e-06,-52363497.2729,1.37594240069e-05,0.0,5840472.04077,678.477760213,646.834921334,67016686.4064,1678.65366391,38516126.3568,71025638.9408,4315.52867345,4306.82556461,0.0
1.25925976163,0.866610995889,1.03432372192e-05,21741419.4901,3.36619599822e-05,0.0,23741456.4298,691.492186288,660.803756878,64485508.6672,1950.19455414,65314457.7748,66236318.365,5227.18727053,5214.67502415,0.0
1.01306618649,1.25554889818,9.66997329418e-06,-83462150.6879,1.13057426659e-05,0.0,5979307.67487,677.980348139,645.182732579,67380095.5628,1645.813976,60042302.0895,71249922.1073,4205.23774012,4198.14390479,0.0
1.12611429475,1.05459500469,1.02363563351e-05,-13168596.0203,1.88215519464e-05,0.0,5651143.73414,682.996794534,652.428147104,66524816.1163,1794.44447165,42451560.8301,68029619.1444,4674.50043751,4665.50660605,0.0
1.14096290229,1.0565101204,1.01223379916e-05,-9258648.56538,1.95166478272e-05,0.0,5576804.30407,683.889053677,653.267149951,66317868.1173,1812.00669178,44748630.845,68164542.6124,4736.13700741,4726.35674896,0.0
1.04444983687,0.88343843039,1.00610768777e-05,-49072195.3244,1.52121384367e-05,0.0,5821212.29082,678.625666494,647.15408031,66967652.9711,1685.61152694,37141984.4467,71037625.8184,4335.51127285,4326.90553889,0.0
0.972243374748,1.0224391027,9.72193962224e-06,-94563245.7486,1.34260323925e-05,0.0,6039817.5064,683.233611558,642.562574339,67500980.6788,1615.71239366,69527558.6392,69760710.771,4035.78224858,4028.92159196,0.0
1.18992987912,0.835980314342,9.89263148233e-06,5429595.8277,2.59795520401e-05,0.0,7035036.89705,687.393036182,656.446712413,65453154.1677,1869.73360675,52902997.6791,66748555.4328,4939.39892823,4927.76047691,0.0
0.928840375472,0.995930558321,9.70182536736e-06,-92560914.4415,1.40637810085e-05,0.0,6146158.83685,690.088049885,639.769386106,67774486.2176,1610.75495788,67764943.7267,67971937.5456,3855.61639858,3849.69478196,0.0
0.968902147569,1.0454463497,1.03875315883e-05,-94206924.7645,1.32158613597e-05,0.0,6032614.27454,682.324768067,642.346359843,67500057.7928,1612.05769699,69214140.7695,69443945.4794,4021.91281456,4015.42607617,0.0
1.09317763763,0.966662060193,1.00914920459e-05,-24742728.6597,1.69595336608e-05,0.0,5738258.10971,681.196150655,650.321219643,66774713.5991,1751.46236168,36552483.1806,69081549.0659,4537.7803738,4529.09206825,0.0
1.0363720261,0.970459883893,1.02044591155e-05,-53705838.6946,1.41041690738e-05,0.0,5837584.38478,678.090251601,646.616207249,67003211.6933,1674.65500933,39180801.7254,71110133.4062,4301.98028034,4293.41605713,0.0
0.962338468726,0.852853258038,1.02948410927e-05,-93847242.7889,1.46965877231e-05,0.0,6029310.67491,683.646936929,641.920239241,67470623.5239,1611.16166509,68897345.8092,69122438.6534,3994.66698368,3987.97708979,0.0
1.01821687156,1.20263900754,9.93828590002e-06,-74640631.3973,1.16939995058e-05,0.0,5952848.05166,677.713211523,645.506673004,67327125.5033,1652.84570978,52950279.1584,71856595.9958,4226.61823385,4219.45160544,0.0
1.20497826938,1.07842282647,9.90104397063e-06,9607084.15454,2.2443050101e-05,0.0,10977521.5393,688.086250777,657.380537269,65353210.1966,1886.96303174,55744279.268,66912128.399,5001.8647962,4989.93767507,0.0
1.09027783158,0.672498642636,9.81874525801e-06,-26460616.0727,2.0546024728e-05,0.0,5735724.85633,681.3961873,650.17169497,66758156.6426,1747.95121115,36159071.7634,69279763.3064,4525.74327889,4517.1003841,0.0
1.14743051904,1.04068577723,1.03452951894e-05,-5694651.71835,2.05388087833e-05,0.0,5548461.82424,684.140908952,653.713110697,66213852.3357,1820.00423713,46755110.0953,68681425.2727,4762.98408453,4753.20556823,0.0
1.1660264554,0.590616839927,9.77113896309e-06,-389675.046296,2.93620590284e-05,0.0,5386500.6688,686.207184964,654.988562156,65705959.23,1841.59754105,49773582.3235,67621848.219,4840.17581637,4829.19480558,0.0
1.03649295011,0.869917667815,9.78695190551e-06,-56950554.8214,1.49844808186e-05,0.0,5896332.32494,678.440728323,646.670402096,67193148.0087,1677.38053686,40955696.4434,71033388.8648,4302.48223591,4295.05560367,0.0
1.23782451771,0.675572904235,9.87437585789e-06,17271095.2333,3.51284482343e-05,0.0,18764061.0546,690.402197806,659.445483258,64936231.4192,1927.99443098,61926900.8382,66836064.3674,5138.20957301,5126.53893302,0.0
1.08074255749,0.975479781105,9.79774562379e-06,-29990604.4713,1.57227646454e-05,0.0,5789610.24027,680.545944706,649.438311596,66920875.0632,1735.1961052,35554621.0823,69390972.4949,4486.16235614,4477.66809531,0.0
1.16469134708,0.861826594953,9.82024360479e-06,-802724.511144,2.30896198184e-05,0.0,5432830.38198,685.846942656,654.906231566,65848749.777,1839.38206857,49560185.9418,67749224.6963,4834.63378173,4823.67670858,0.0
1.12190419923,0.848488788566,9.76899905439e-06,-14435733.0976,2.04133345521e-05,0.0,5643419.3293,683.128857114,652.125160648,66502593.7705,1787.89530135,41660764.9311,68956185.6364,4657.024331,4647.58617934,0.0
1.13609096642,0.831000230991,1.00819285687e-05,-10645062.9967,2.29136781499e-05,0.0,5601533.79921,683.850571164,653.086586279,66376803.7233,1807.19996666,43932704.5813,67817436.8063,4715.91360161,4706.65599884,0.0
1.12607754764,0.732003257592,9.65306963339e-06,-13411725.8119,2.26251886004e-05,0.0,5621283.55205,683.553446188,652.40049387,66437049.7869,1793.38034333,42261849.3814,68453077.5091,4674.34790025,4664.81573806,0.0
0.999489637786,0.867878906999,9.63762800768e-06,-95911968.1662,1.45598371145e-05,0.0,5990860.47071,679.042801122,644.317989285,67396520.3363,1627.54750657,70715215.3314,70962404.4877,4148.88148645,4141.97864206,0.0
1.14691178389,0.988437558654,9.84056222054e-06,-8405275.47531,2.12133229715e-05,0.0,5594792.09672,684.517148272,653.718083457,66371421.6514,1821.21741532,45328379.5987,68448485.1576,4760.83081493,4751.47946434,0.0
1.01856540297,1.0199068672,9.84783154443e-06,-75033402.6173,1.32360478815e-05,0.0,5946701.58069,677.869998173,645.524870174,67308986.2433,1653.3933222,53255329.8539,70899508.5137,4228.06498773,4220.89341088,0.0
1.05226303942,1.00316078525,9.73876267245e-06,-43111788.9708,1.37233998366e-05,0.0,5846989.17782,679.114198322,647.657064915,67044695.2021,1696.55566649,35405866.1109,70711440.046,4367.94387663,4359.51922768,0.0
1.06588378094,0.876834717352,9.94374435373e-06,-36413072.9544,1.59008910674e-05,0.0,5804712.87014,679.710421107,648.523262457,66943176.6036,1715.26736473,34655583.0213,70190231.6169,4424.48357468,4416.02937988,0.0
1.18798762212,0.991988648047,9.62436783626e-06,5266335.93522,2.22225138098e-05,0.0,6916541.07781,687.222001383,656.331630986,65715773.9286,1868.07846287,53217998.9229,66983693.4073,4931.33661942,4920.18042463,0.0
1.08981493178,1.21176587024,1.02410084957e-05,-25480604.0787,1.39472174347e-05,0.0,5757889.2228,680.799068915,650.108735453,66818216.0846,1746.86328518,36303752.3128,69164066.0839,4523.82178182,4515.186127,0.0
1.02161547438,1.05363288315,9.52358701403e-06,-74503135.5613,1.29827897436e-05,0.0,5954554.3946,678.225577091,645.728318685,67337642.5301,1657.38292275,52859124.7105,71089501.613,4240.72583415,4233.51089033,0.0
1.21303847184,1.16263868659,1.00688705685e-05,11512464.4188,2.16745735815e-05,0.0,12773870.9404,688.413927984,657.88186129,65277298.2198,1896.36781147,57155596.1596,66324659.8094,5035.32269661,5023.35877668,0.0
1.12274653775,0.980277909169,1.0121306766e-05,-13516658.1125,1.89914614034e-05,0.0,5610583.40984,682.931175778,652.183382757,66394915.0213,1787.84063327,42219547.4735,68003107.0235,4660.5208782,4650.76827826,0.0
1.11123414359,0.957063586906,1.0222640209e-05,-17043966.1223,1.86262631356e-05,0.0,5603706.31879,682.218153727,651.442904285,66345715.3672,1771.42593098,40161017.6665,69066838.5017,4612.73293004,4602.59298463,0.0
1.13041825073,1.07089711651,1.04119779669e-05,-11324383.9545,1.86005664807e-05,0.0,5581726.46242,683.106997461,652.62434365,66307362.3725,1797.63755609,43437659.0002,67543236.343,4692.36615878,4682.48352342,0.0
1.11129651112,0.818469436766,1.01496027353e-05,-15849388.4505,1.92983169618e-05,0.0,5619586.95504,682.285294631,651.460104205,66390936.4006,1772.1333918,40843024.1236,69157134.55,4612.99181766,4603.07981617,0.0
1.11999029349,1.10136735028,1.0392106465e-05,-14205043.6105,1.72901165675e-05,0.0,5624407.99326,682.517386268,652.004095707,66426229.1017,1784.52142388,41662009.251,68246078.7863,4649.07970828,4639.47263407,0.0
0.981251889964,0.976193535635,1.02508812277e-05,-94741491.863,1.37628250673e-05,0.0,5945734.49803,680.422679349,643.12478767,67224780.0036,1609.12745809,69684661.7615,69923291.3622,4073.17659524,4065.24965161,0.0
1.04376117828,0.767553676256,1.00308471436e-05,-49645938.0996,1.63317525826e-05,0.0,5816655.56002,678.654090075,647.097595222,66951510.3397,1684.78291911,37325502.8673,70956760.2695,4332.65265104,4324.05805088,0.0
1.0884484286,1.15240571863,9.98415200181e-06,-26707725.1332,1.42978065166e-05,0.0,5769266.93022,680.96839998,650.063439807,66861422.4479,1745.14320774,36106312.0279,69332394.4793,4518.14942712,4509.53513055,0.0
1.11145405016,0.90336521426,1.01217044984e-05,-16919702.7352,1.89132754487e-05,0.0,5626239.70735,682.316435693,651.478756031,66424400.5814,1772.66634383,40301058.2195,69086555.47,4613.64576221,4603.78961977,0.0
1.00451419014,0.711617499008,1.01158174175e-05,-90506188.3456,1.5970911679e-05,0.0,5875659.11324,678.015455359,644.609320209,67047526.9825,1631.10860265,66003605.6124,70752399.1509,4169.73840327,4161.35665547,0.0
1.09763663668,0.933849958334,1.02176787447e-05,-22912139.6237,1.78073427531e-05,0.0,5717500.40685,681.450482688,650.669456202,66706115.3277,1757.29885451,37122948.6959,68745419.5362,4556.28967886,4547.53135603,0.0
0.999944278909,1.08850321736,1.03401374864e-05,-95713750.2451,1.28821343504e-05,0.0,5901885.29756,677.864452062,644.317869616,67126293.5812,1625.00665274,70539575.4595,70539575.4595,4150.76870175,4142.54251791,0.0
1.08158159662,0.997493893561,9.93078923231e-06,-29237588.8408,1.5626499371e-05,0.0,5779122.15516,680.68826648,649.631814051,66880479.7372,1736.27892721,35649145.7922,69344043.6349,4489.64520757,4481.13791039,0.0
1.13230400414,0.992062783641,1.0089510943e-05,-11410022.1312,1.96685214391e-05,0.0,5583146.20753,683.474606525,652.748447867,66307322.1094,1800.25044546,43475449.3295,67550030.9967,4700.19392119,4690.27932192,0.0
1.10528933789,0.837546258164,1.03552406969e-05,-18000521.2558,1.93894195992e-05,0.0,5654386.54748,681.813690957,651.11708645,66510831.5313,1765.59656641,39641187.2163,68793505.4934,4588.05604158,4578.69392459,0.0
1.1090324573,1.12382199599,9.81747064922e-06,-18203382.9795,1.5570186407e-05,0.0,5669783.83836,682.290026132,651.357188845,66561777.4474,1769.4953864,39631363.2169,68988328.9798,4603.59373025,4593.7798167,0.0
1.16497776763,0.901246410169,9.9404862139e-06,-199087.421981,2.24658812517e-05,0.0,5463769.12553,685.707127758,654.934058646,65949264.0978,1840.56644252,49891860.4738,67845870.722,4835.82271343,4825.27833989,0.0
1.02009369227,0.961758681189,9.88102792186e-06,-72928719.3701,1.37670468775e-05,0.0,5938875.85067,677.86696779,645.633912292,67289140.4032,1655.47740595,51645046.003,70988858.4594,4234.40891661,4227.21562396,0.0
1.14148924202,0.818857655809,9.70399418154e-06,-8751000.15709,2.29104524888e-05,0.0,5577420.65478,684.411864242,653.410099499,66318327.119,1813.06363006,45413439.6314,68193234.7276,4738.32184362,4728.64174307,0.0
1.04074432966,0.944007912667,9.98999533785e-06,-51336182.4002,1.44051278761e-05,0.0,5830510.82623,678.478749976,646.905489896,66989894.8192,1680.18504209,38122902.3013,70848976.9622,4320.12971242,4311.4084403,0.0
1.19661587966,1.07761051597,9.68454132214e-06,6963010.13027,2.14254277629e-05,0.0,8519840.32692,687.704934256,656.925344412,65683212.6231,1879.13665504,54110462.5829,66847593.1936,4967.15251647,4956.0596087,0.0
0.987890352567,1.06851281384,9.95095384019e-06,-95349933.2625,1.25671408205e-05,0.0,5996098.40708,679.654403303,643.565977432,67384878.411,1612.41500996,70220268.1541,70464204.6384,4100.73285351,4093.57185422,0.0
1.09736178594,0.924610396756,1.05167452146e-05,-22267602.8902,1.79448282501e-05,0.0,5688626.15563,681.256570727,650.643178527,66604167.2044,1756.25273572,37342126.7127,68276487.6469,4555.14877344,4546.0999464,0.0
0.958200974527,0.796476990153,9.68798360559e-06,-93924560.5545,1.50918371127e-05,0.0,6050492.76248,685.482654574,641.654798623,67502344.4997,1612.70076205,68965256.3722,69190357.2453,3977.49224526,3970.59348531,0.0
1.20433310281,0.77328688339,1.00375204336e-05,9708810.52837,2.90377008252e-05,0.0,11046724.3138,688.226882296,657.33013376,65187094.7286,1886.67372028,55721674.2749,66746072.2285,4999.18670976,4987.3021092,0.0
1.13432055661,1.08141489875,1.0054568538e-05,-11189286.8713,1.8468774924e-05,0.0,5604657.23667,683.663082317,652.964360741,66393299.7738,1803.63093293,43681660.1272,67662288.1655,4708.56463049,4698.92056302,0.0
1.10979595692,0.949552869777,1.01270877557e-05,-17340115.7801,1.82714002922e-05,0.0,5627618.6359,682.205263633,651.381680418,66423295.085,1770.12201808,39953920.5754,68997118.4265,4606.76301717,4596.83986338,0.0
1.23717948374,0.908298963185,1.00492544829e-05,16840828.812,2.91229331673e-05,0.0,18376295.7236,690.14574185,659.377441132,64800349.1894,1924.5215405,61516782.5007,66737635.0875,5135.532037,5123.05249902,0.0
1.07673650405,1.11488708564,1.02396295782e-05,-31182590.5274,1.43614690932e-05,0.0,5793439.95933,680.129686202,649.308953857,66932702.9053,1730.43014413,35122213.7319,69260260.515,4469.53322831,4461.29392963,0.0
0.981282761805,0.975200689725,9.69577200287e-06,-94926516.9723,1.39925938802e-05,0.0,6015722.54402,682.056660121,643.143715249,67442805.7867,1618.09195565,69847410.8372,70085752.0873,4073.30474425,4066.31540848,0.0
1.10289899125,0.935878069354,9.87065073558e-06,-21999825.3254,1.78962211263e-05,0.0,5720385.47287,682.00480137,651.013866816,66730595.4815,1764.35041012,37586544.3658,68547159.3961,4578.13371268,4569.29171021,0.0
1.15346325045,1.04119190353,9.55865854373e-06,-5518755.2514,2.00688416308e-05,0.0,5556702.0158,685.136455214,654.187380119,66261108.6055,1827.73826055,47295389.3679,68868357.4009,4788.02595262,4778.02672651,0.0
1.19724433747,0.951174194076,9.96559667563e-06,7421647.11945,2.42228678464e-05,0.0,8886189.14503,687.730722821,656.940784823,65394483.4549,1878.07815427,54084082.1984,66528035.0513,4969.76124484,4958.0046063,0.0
1.15404276143,0.728582468989,1.01848876597e-05,-5535027.69604,2.72855165724e-05,0.0,5525208.44545,685.029010607,654.278337007,66175391.1586,1830.35114731,46752497.1712,68436678.0192,4790.4315027,4780.96569294,0.0
1.09831430251,0.967681357136,1.01746222014e-05,-22834727.3248,1.7454059181e-05,0.0,5719771.56123,681.504971315,650.712687779,66713960.6305,1758.15532215,37177701.7732,68707935.8731,4559.10266972,4550.33368578,0.0
0.987249088536,1.05306933252,1.00848785028e-05,-95263888.2158,1.29083332021e-05,0.0,5992421.99995,679.573568619,643.524593275,67379257.5269,1612.31110823,70144550.428,70386673.3619,4098.07096651,4091.00254726,0.0
1.07856721414,0.914844063695,1.0003002951e-05,-30135243.1111,1.63663212726e-05,0.0,5778849.35357,680.48009524,649.422934806,66875745.7109,1732.38544379,35461852.0212,69313412.2917,4477.1325059,4468.67200566,0.0
1.18221601724,0.869362829412,9.95924467326e-06,4138092.58716,2.46549261873e-05,0.0,6028538.87238,686.735309427,655.97218843,65761150.7554,1861.99906627,52247151.8153,67022501.997,4907.37868756,4896.64069261,0.0
1.09258712339,0.996335727016,1.00253613112e-05,-25151679.2947,1.65350179572e-05,0.0,5745078.98226,681.191695054,650.281085455,66792934.485,1750.67136952,36467289.5635,69178177.4054,4535.32914919,4526.65009895,0.0
1.03027207638,1.10794590248,1.02721515427e-05,-60119351.3867,1.28776019879e-05,0.0,5852243.62648,677.77553392,646.245952541,67040614.6628,1666.29845638,42743780.4935,70996237.3009,4276.65938905,4268.19412384,0.0
1.15102204949,1.14991899436,1.0414923937e-05,-4328351.63734,1.80753378084e-05,0.0,5487482.21853,684.48135112,654.052611725,65998793.6799,1821.93172092,47138979.2494,68197289.8907,4777.89252743,4767.19286681,0.0
1.02894383892,0.669050274652,1.01118431231e-05,-61075712.588,1.65219193425e-05,0.0,5839646.53144,678.037299717,646.16757082,66997914.1002,1664.99013477,43327190.2213,70849974.9189,4271.14587536,4262.70170965,0.0
0.997385931082,0.899413790767,9.7568561179e-06,-95788185.0955,1.42400475557e-05,0.0,5992665.91483,678.999424239,644.177799841,67400856.3604,1624.73909518,70606034.5896,70901314.4744,4140.14899992,4133.2782139,0.0
1.17676592951,0.805337953355,9.79540482852e-06,2295986.90404,2.51846498994e-05,0.0,5386676.96832,686.6177143,655.644431583,65707840.3507,1854.66966596,51217261.6937,66954146.5723,4884.7553734,4873.68600456,0.0
1.12964074571,0.925390807901,1.03569115418e-05,-10668315.3975,1.98747334732e-05,0.0,5583729.26905,683.120863861,652.573317548,66301264.3903,1796.72811805,43831122.0175,67632908.6313,4689.13873544,4679.3085196,0.0
1.12309180867,1.036656307,1.01815984697e-05,-13348418.543,1.82512713789e-05,0.0,5611857.86126,682.881733787,652.206350759,66400431.1849,1788.20655783,42357185.2977,67813715.5332,4661.95409779,4652.19567876,0.0
1.02230674859,1.05653058999,9.8277191988e-06,-70694036.589,1.29524147576e-05,0.0,5940265.95893,677.915067712,645.76569513,67299611.8664,1658.3492397,49982672.8645,70860551.8736,4243.5953134,4236.37052531,0.0
1.14294595692,0.664257493599,9.73047036723e-06,-7982243.04425,2.59461602437e-05,0.0,5525148.32363,684.491061937,653.381593278,66152658.7614,1814.01903781,45803958.6037,68266018.7545,4744.36866717,4734.25177363,0.0
1.10696038734,0.876630671881,9.93126874658e-06,-18470299.0154,1.86707171523e-05,0.0,5642867.54173,682.230944713,651.224961418,66473154.5797,1766.7161026,39440111.3345,68815498.7701,4594.99256785,4585.1173917,0.0
1.10147521678,0.72898950502,1.01575881827e-05,-21867304.7194,2.09868688744e-05,0.0,5691944.51837,681.827412257,650.918562474,66633765.0606,1762.50319789,37544623.7892,68468855.727,4572.22362485,4563.40484318,0.0
1.08235768004,0.808826637708,9.7117766252e-06,-29619060.969,1.77362676549e-05,0.0,5778016.2573,680.774567367,649.54695484,66885136.1986,1737.4437642,35656746.0816,69378603.1548,4492.86672985,4484.34736717,0.0
1.17462363969,0.838526130199,1.00675197702e-05,2408128.86239,2.45828924879e-05,0.0,5369406.6519,686.301200977,655.49696244,65654732.2414,1851.06958277,51148607.7136,66913608.326,4875.86272835,4864.62427262,0.0
1.10567792248,1.21610099598,1.020598237e-05,-18764663.2176,1.47987560276e-05,0.0,5647086.26637,681.797173793,651.130645665,66485409.5029,1763.96476406,39404123.0823,68837870.565,4589.66905621,4579.62782469,0.0
1.2184408968,1.10113540231,1.0228628825e-05,12696834.1216,2.34194058232e-05,0.0,13908221.9234,688.737000647,658.25797705,65197078.3784,1903.33471219,58144425.2048,66439637.8311,5057.74816262,5045.90247396,0.0
1.18275401629,0.862884007739,1.00626980558e-05,5055815.97349,2.45473883019e-05,0.0,6644389.11398,686.664849897,655.995679735,65726851.1095,1862.27079376,52703013.5332,67065438.5567,4909.61192162,4898.88273023,0.0
1.18177412526,0.624672474718,1.00599202581e-05,4361435.02778,3.09495463088e-05,0.0,6199753.32378,686.859798761,655.936070201,65610698.5812,1861.82291301,52287560.4876,66865769.3809,4905.54439395,4894.81409345,0.0
1.05125139488,0.711083077454,9.70883572311e-06,-44994474.0395,1.6744789244e-05,0.0,5813247.09664,679.23952352,647.583970071,66942775.3691,1694.57477885,35868181.7686,70595013.1476,4363.74454015,4354.9962027,0.0
1.12423258893,0.905124652487,9.52598604488e-06,-14675684.1951,1.99583222072e-05,0.0,5675508.85942,683.370914321,652.28428607,66605888.9098,1792.0390973,41676100.3182,69132449.1838,4666.68947665,4657.59584556,0.0
1.16351788511,0.849775716971,1.00015788447e-05,-652541.550357,2.34214956266e-05,0.0,5426073.40863,685.667209566,654.828668296,65830682.9121,1837.75790711,49531891.1451,67688572.8127,4829.76274109,4818.82640712,0.0
1.07478569024,1.01319049639,9.5888129998e-06,-33270856.183,1.47911077839e-05,0.0,5816047.19581,680.356814598,649.06855613,66987199.6368,1727.33869766,34929128.3708,70023055.0996,4461.43540019,4453.03345645,0.0
0.980076372749,0.821818609307,1.01097950623e-05,-94767413.5364,1.48561537026e-05,0.0,5995666.38914,681.1213227,643.063154205,67387676.814,1613.68130832,69707475.4538,69945079.0092,4068.29702328,4061.32476102,0.0
1.18188946315,0.87306459348,9.80752189793e-06,3978218.29757,2.41679710356e-05,0.0,5837618.32328,686.852598668,655.947122829,65652188.0481,1860.23119143,52198874.2504,66985528.1119,4906.02316154,4894.77332911,0.0
1.2570477389,1.04506655852,1.01774411953e-05,21023549.4761,2.85965701195e-05,0.0,22924647.3755,691.251875561,660.654232186,64657618.2706,1947.7617392,64898149.4446,65690494.4445,5218.00516417,5205.55958645,0.0
1.27540356664,1.0606906977,1.02022998661e-05,24104735.756,3.09531929054e-05,0.0,25922039.8398,692.470551477,661.793194992,64228042.7853,1967.42980958,66961016.5619,67953496.4461,5294.20020512,5280.97211155,0.0
1.05444308185,1.00806356905,9.99486205043e-06,-42686203.1655,1.40970302758e-05,0.0,5819946.35528,679.043028069,647.773300838,66971984.6881,1699.14481223,35268544.4136,70526744.7811,4376.99323276,4368.37317038,0.0
1.01094920869,1.09220354778,9.91294152991e-06,-83657876.5985,1.24799154118e-05,0.0,5967430.55894,677.731990785,645.047607804,67344119.3701,1643.10465168,60198619.0651,70884329.4285,4196.45016527,4189.38639043,0.0
1.13692890104,0.977991009153,1.02440404606e-05,-10427614.8445,2.10197174168e-05,0.0,5607950.61856,683.719404362,653.139778866,66411144.0683,1808.3554993,44021072.0384,67929202.5808,4719.39186822,4710.22632135,0.0
1.15746660656,0.706599569302,9.94191234391e-06,-4862293.24394,2.77189082455e-05,0.0,5516259.30899,685.416543516,654.493393459,66140207.0103,1834.57103544,47236007.4744,68439463.159,4804.64388383,4795.02811373,0.0
1.10780873038,0.978980012255,9.6486808893e-06,-19580736.0857,1.74885067478e-05,0.0,5641260.45907,682.460793879,651.283212452,66467740.4498,1767.17212997,39076606.0667,68754199.7067,4598.51403981,4588.34025774,0.0
1.10752989479,0.865716734845,9.7925623065e-06,-20455499.4999,1.89184199466e-05,0.0,5700537.96469,682.349500004,651.29293751,66670920.5466,1770.14770605,38311990.9408,68768340.3422,4597.35659327,4588.34111347,0.0
1.05115873282,1.01247498581,1.02176401572e-05,-44748644.8006,1.42561231539e-05,0.0,5805008.49822,678.76344355,647.571318285,66930123.3946,1694.27546698,35711593.0788,70425613.1257,4363.35989994,4354.55605058,0.0
1.09070824419,0.960158868672,1.01796081035e-05,-25299354.6143,1.6889166099e-05,0.0,5740933.68039,680.989557132,650.160654976,66781280.715,1748.23381208,36371235.5071,69119769.8927,4527.52992163,4518.88029277,0.0
1.2187187235,0.965168514491,1.00571944771e-05,12782180.4748,2.58800430866e-05,0.0,14028560.2371,688.964709552,658.269836389,65117913.0387,1903.36201813,58187901.2369,66391582.025,5058.90142125,5046.85303895,0.0
1.03424677826,0.959378620334,1.0141778246e-05,-56114182.0659,1.41327012246e-05,0.0,5843960.83424,678.086090358,646.500877799,67020711.0253,1671.83543176,40456609.3308,70881413.0294,4293.15837656,4284.62857245,0.0
1.13382325383,0.811598262619,1.00543256144e-05,-10444718.8278,2.29594039496e-05,0.0,5607534.11593,683.713107102,652.94278747,66411172.9421,1804.03478098,44263717.7229,67792723.8873,4706.50032665,4697.2819031,0.0
1.14252031413,0.749429424533,9.79760308811e-06,-7999161.30257,2.42337920333e-05,0.0,5534841.65553,684.352037632,653.352778409,66183025.7378,1813.30991936,45783138.4186,68286966.8113,4742.60182395,4732.49221456,0.0
1.05085593558,1.17623449822,1.00267730432e-05,-44614265.0511,1.2559854988e-05,0.0,5827012.33339,678.792457143,647.556725972,66990584.6393,1693.64158374,35752899.0885,70554312.8194,4362.10298859,4353.36154798,0.0
1.13292380266,0.951729513133,1.01068685879e-05,-11206849.0032,2.03167799599e-05,0.0,5576312.03473,683.5284694,652.787237841,66287840.6059,1801.07440252,43549133.6891,67590079.6353,4702.76670484,4692.84078462,0.0
1.16861900151,0.876370254174,1.02098408338e-05,-495684.047891,2.50704009051e-05,0.0,5368310.75706,685.935360792,655.13767092,65647152.4863,1843.84205683,49317592.0421,67324971.4048,4850.93747527,4839.64948547,0.0
1.24334772705,1.10600260901,1.01634077358e-05,18426027.2782,2.56373026826e-05,0.0,20049015.6818,690.302792366,659.804085268,64938106.5871,1932.34265024,62856874.3735,66495844.723,5161.13641498,5149.08296169,0.0
1.15596863314,0.935063077003,9.88541677761e-06,-5523355.40732,2.28187315812e-05,0.0,5550536.355,685.150389259,654.354170937,66243477.3727,1832.44139406,46953919.9366,68614870.0947,4798.42579616,4788.83436944,0.0
1.10432386136,0.84065070973,9.94785450214e-06,-21337259.1222,1.92946862734e-05,0.0,5704836.96276,682.069700528,651.098714465,66672406.045,1766.27174982,37781944.9267,68622304.7853,4584.04834851,4575.18447668,0.0
1.1468208587,0.793712516669,1.02017865171e-05,-7552236.63545,2.50455541982e-05,0.0,5559847.29901,684.422027448,653.745263462,66273510.7124,1821.10729131,45658107.1603,68481727.5515,4760.45338446,4751.10348966,0.0
1.18822015441,1.01101728085,9.5556953117e-06,4871817.81477,2.1841225329e-05,0.0,6588224.9193,687.255564,656.354927855,65797893.0211,1869.24686636,52918478.4599,67121483.5188,4932.30186096,4921.35724436,0.0
1.09522174187,1.07538954116,9.7122687279e-06,-24822493.5771,1.5365827552e-05,0.0,5754046.51215,681.530579695,650.447825171,66813197.6554,1753.86168165,36633608.2285,69261224.6778,4546.2654505,4537.44662058,0.0
1.17820597972,0.92501912992,9.94267342939e-06,2806459.53473,2.31234385121e-05,0.0,5389321.89157,686.521121315,655.726494857,65722366.913,1856.09456897,51426000.0084,66950708.8504,4890.73302182,4879.63783526,0.0
1.18428526298,0.93292801167,1.02275065125e-05,5013665.87417,2.39294362971e-05,0.0,6599211.37927,686.661939622,656.097597614,65679735.3083,1864.12582828,52623381.737,66934507.0113,4915.96812663,4905.19407205,0.0
1.19321127429,0.682853255469,9.8833709182e-06,6270196.45713,3.025543923e-05,0.0,7815823.28279,687.799722154,656.678535345,65316291.2117,1874.07272181,53348168.5458,66538651.6033,4953.01999958,4941.32760811,0.0
0.959146444991,0.809904961106,9.96170216775e-06,-93865293.2819,1.51685290264e-05,0.0,6062969.8193,684.943346649,641.721286873,67568887.5706,1614.11053169,68913236.277,69137042.4255,3981.41689316,3975.06234172,0.0
1.12495961166,0.73739240319,9.90116799919e-06,-13546871.4941,2.27280255806e-05,0.0,5618058.65464,683.317863827,652.339027288,66421764.2738,1792.1726987,42152975.9298,68310814.1344,4669.707348,4660.32061836,0.0
1.24471940586,0.996216569333,9.8818377537e-06,18413528.4351,2.73992352729e-05,0.0,19968520.2653,690.654135718,659.881730812,64822742.4415,1933.65890284,62757876.1291,66583745.8814,5166.83025372,5154.39889731,0.0
1.1219859025,1.07486028709,1.01990435249e-05,-13606209.8437,1.76248718925e-05,0.0,5618382.85956,682.778648516,652.133921728,66419051.286,1786.73631413,42156436.8976,68059028.6463,4657.36348128,4647.62369596,0.0
1.13622410135,0.76664291284,1.02624953013e-05,-10547187.1135,2.4454410024e-05,0.0,5591488.92259,683.773603551,653.097375594,66358222.8759,1807.66433731,43974664.9403,67844008.7376,4716.4662447,4707.31187464,0.0
1.12114459393,0.905350142802,9.61613419624e-06,-14991623.8754,1.92874347741e-05,0.0,5632745.68373,683.182554524,652.06267563,66458822.8491,1785.95042578,41419533.1116,69152458.2762,4653.8712094,4644.04593845,0.0
0.971504456173,0.992987588532,9.95680283548e-06,-94344156.8344,1.39827610573e-05,0.0,5993466.81028,682.98523366,642.503437562,67358770.8525,1612.99871428,69334847.9783,69566540.6132,4032.71499757,4025.25501455,0.0
1.02801431123,0.976335380944,9.86325011506e-06,-62761062.3045,1.37629648887e-05,0.0,5920803.03183,678.026538135,646.113489136,67251991.7191,1666.03807429,44459359.2681,70953403.0771,4267.28740592,4259.981033,0.0
1.15287939327,0.944230380286,9.90486076758e-06,-7311429.15213,2.25097847635e-05,0.0,5461772.99283,685.093555716,654.125039158,65967468.719,1825.1342725,45610541.4122,68173989.3212,4785.60236146,4774.69756263,0.0
1.24677046153,0.92174362526,9.88177017579e-06,18903740.0096,2.92520160681e-05,0.0,20495928.4413,690.848508882,660.006729973,64753346.4514,1936.08417344,63133375.7316,65496120.1873,5175.34418581,5162.87296851,0.0
1.0591801086,0.911022853658,9.88628044902e-06,-39790950.3518,1.51400680094e-05,0.0,5825200.62577,679.373638327,648.082175504,66993566.8778,1706.34285568,34832606.0048,69783216.2071,4396.6566308,4388.30704609,0.0
1.08458960314,1.02488070232,1.02076373442e-05,-27294834.3935,1.56649126254e-05,0.0,5761434.27014,680.647936592,649.821111191,66835399.2404,1740.18065294,35875911.0816,69250104.2269,4502.13144263,4493.57734198,0.0
1.12632710279,1.07947771083,1.03503878199e-05,-12458775.6381,1.80654779968e-05,0.0,5599982.8274,682.870755354,652.344276753,66355049.2584,1792.4225794,42821067.2016,67223468.7561,4675.38380368,4665.57037314,0.0
1.14454858086,0.900638243514,1.0026451722e-05,-8191573.68011,2.20606227383e-05,0.0,5533080.8185,684.246346122,653.457895133,66168944.7959,1815.94842491,45297347.8578,68378811.6836,4751.02115915,4740.87300068,0.0
1.07228130296,1.12848251219,1.02640270647e-05,-31943315.5843,1.38566134031e-05,0.0,5796200.22877,679.649076159,648.86778333,66929316.2934,1723.62108824,35099639.7806,69494750.2588,4451.03968859,4442.58005764,0.0
1.07612574946,1.12985955416,9.94660684477e-06,-31464257.3863,1.3762907766e-05,0.0,5805742.57336,680.098878877,649.129100809,66965280.7256,1729.01426669,35206772.4369,69633442.7841,4466.99798601,4458.57531071,0.0
1.06972522931,1.21465753495,9.75907311294e-06,-34881645.6732,1.25512160272e-05,0.0,5833779.00588,679.916243404,648.775916446,67035857.3344,1720.58154132,34744490.8929,70210424.6617,4440.42942687,4432.10558207,0.0
1.11805904201,0.76084358966,1.02692353031e-05,-14882694.8818,2.18210014646e-05,0.0,5608630.92983,682.644658361,651.867151737,66371716.1887,1782.47838701,41271673.76,68706763.709,4641.06308338,4631.48727999,0.0
1.08451204187,0.816368549318,9.71957683645e-06,-28829787.778,1.78068048735e-05,0.0,5767942.57,681.086568294,649.828247236,66858526.1232,1740.27863716,35782345.8175,69360309.5633,4501.8094858,4493.25597063,0.0
1.00289573374,0.929521808547,1.03450660929e-05,-91252057.9958,1.43474993273e-05,0.0,5884395.74049,677.711116605,644.505711207,67077152.7603,1629.04574301,66633474.1829,70636666.5001,4163.02019075,4154.74631661,0.0
0.964965369282,0.661969056661,1.01525152661e-05,-93943821.8639,1.65755191463e-05,0.0,6016974.91781,683.859747729,642.089929696,67435229.3534,1613.8338868,68982390.4515,69209434.8375,4005.57124789,3998.84440075,0.0
1.0268173116,0.908585701481,1.00681227264e-05,-64713493.6269,1.4601807037e-05,0.0,5854786.00345,677.943341965,646.029783259,67042352.5724,1661.7945977,45725560.6222,70862060.1575,4262.31866045,4253.90905218,0.0
1.29247050949,0.993129833048,9.94383997367e-06,26973077.6289,3.2310790148e-05,0.0,28450035.3396,693.605395452,662.837302273,64060916.0719,1986.9157914,68349063.7842,69452844.7481,5365.04508489,5351.76525924,0.0
1.06931488416,1.01625502024,9.89888769827e-06,-34585624.6396,1.47501426264e-05,0.0,5815915.06898,679.865932161,648.748912306,66976970.7799,1720.1575379,34741955.9343,70065645.5673,4438.72608415,4430.40759745,0.0
1.15374997023,1.03042089435,9.71472122317e-06,-5340449.3987,2.01186462617e-05,0.0,5493648.62076,685.12582234,654.185413557,66059541.1401,1826.02628476,47195608.6894,67641527.2818,4789.21612642,4778.42834395,0.0
1.17186566467,0.713894803455,1.05183976401e-05,2501451.516,2.79772792281e-05,0.0,5325403.75162,685.989148849,655.309618561,65466543.7191,1847.33750746,50946528.2825,66780033.3767,4864.41437405,4853.13600008,0.0
1.1184352367,1.08828688195,1.00266961323e-05,-15118688.3239,1.71352825433e-05,0.0,5667659.38266,682.621017057,651.900589039,66567799.3504,1783.35969931,41229796.8325,69198689.4193,4642.62466754,4633.34411289,0.0
1.1224561497,1.12536433601,1.00431893998e-05,-13810562.464,1.68545408901e-05,0.0,5628418.94019,682.883403742,652.165659803,66448001.0655,1787.32349512,42078563.3828,68277746.4534,4659.3154774,4649.56685164,0.0
1.18694609673,1.0949771809,9.59143629562e-06,4592910.8031,2.0353667445e-05,0.0,6311160.36325,687.100709345,656.275901883,65835769.6483,1867.50598684,52748685.0259,67150153.9536,4927.01324753,4916.09106588,0.0
1.22660679953,1.08454860484,1.01721674041e-05,14569939.0586,2.44742569952e-05,0.0,15990079.4122,689.248684392,658.79446545,65216357.1954,1913.92473934,59826101.6421,66754141.8423,5091.64482485,5080.12525925,0.0
1.19105973221,1.02482789165,1.00183764477e-05,5945762.72432,2.21712260376e-05,0.0,7495302.48526,687.204675153,656.552868917,65618055.0778,1871.65439069,53237716.26,66747646.7906,4944.0889484,4932.88493225,0.0
1.02346293446,1.14332545699,1.05152030961e-05,-64723109.0436,1.24575011259e-05,0.0,5862010.17247,677.319971237,645.81092706,67063298.788,1657.38531896,45700824.7169,70674821.4112,4248.39464094,4240.1034793,0.0
1.14344135436,0.883967406809,1.03468644636e-05,-7182727.48022,2.31184365148e-05,0.0,5566254.32339,684.027539156,653.503177555,66267918.4404,1816.08433145,46005490.4588,68461926.4303,4746.42506195,4737.05256331,0.0
1.09007004463,0.908963139083,1.00845945008e-05,-25796643.3706,1.73536403452e-05,0.0,5743493.77584,681.060233606,650.13622714,66785439.5602,1747.4535484,36271659.0766,69203352.5594,4524.88075526,4516.24111066,0.0
0.985573857153,1.00372870517,1.01267109153e-05,-95174819.784,1.33521799796e-05,0.0,5991802.11054,679.732555626,643.416706665,67375340.4461,1611.63698862,70066112.3395,70307506.0151,4091.11708104,4084.07274837,0.0
1.14586028397,1.01414074485,1.03963010945e-05,-7092176.97803,2.0966989988e-05,0.0,5537837.19765,684.173084007,653.678504391,66175387.9424,1818.01302694,45656005.1507,68517976.426,4756.46603876,4746.60542834,0.0
1.19572065341,1.00645864146,9.97137841444e-06,7330427.56657,2.290197791e-05,0.0,8773010.36953,687.551685587,656.866874638,65554237.9596,1877.1119276,54098946.4292,66626374.286,4963.4364323,4952.13072447,0.0
1.15045220298,1.00565417138,1.03248048023e-05,-4390731.85705,2.00668762165e-05,0.0,5522423.16616,684.329901231,653.890390948,66132258.5517,1822.79558212,47424354.9477,68030979.3241,4775.52709457,4765.34940534,0.0
1.02550935579,0.903961062352,1.00211308051e-05,-64807482.579,1.43399820524e-05,0.0,5916567.36977,677.841592319,645.967568702,67238217.1909,1662.73835456,45821266.4683,70832934.8507,4256.88933588,4249.61886563,0.0
1.18015773927,1.1702432612,1.02566610007e-05,4029511.6052,1.95370710099e-05,0.0,5927948.15175,686.22387769,655.830664406,65803656.7739,1858.77709105,52049058.8725,67094147.9019,4898.83477571,4888.13260208,0.0
1.10617311898,1.07028280743,1.04443884268e-05,-17889383.3837,1.65306451282e-05,0.0,5668037.27941,681.698304695,651.169064024,66539280.1583,1766.77418636,39669604.0671,68842737.3144,4591.72461689,4582.34751236,0.0
1.08348054218,0.886293033734,1.02416799869e-05,-27503739.0429,1.72211380798e-05,0.0,5753537.93839,680.620727732,649.752641833,66809723.8799,1738.83573383,35803343.797,69212111.0901,4497.52773059,4488.99089877,0.0
1.14017001662,0.703299418783,1.00330973098e-05,-9308606.36043,2.51236567379e-05,0.0,5524190.58426,684.265857493,653.30631225,66133972.1143,1810.68434196,44670585.7847,67984659.5574,4732.84573899,4722.77250155,0.0
1.05462202311,0.882576258347,1.02684411385e-05,-41584341.9831,1.55257865077e-05,0.0,5804520.18293,678.873815626,647.770639155,66933103.9211,1699.75314723,35068592.2731,69902411.0047,4377.73601793,4369.20378195,0.0
1.00694739816,0.92350698766,9.86064015175e-06,-89386942.3901,1.38856412899e-05,0.0,5970939.31336,677.947910589,644.790572935,67346971.9552,1637.78363497,65067051.7532,71047705.6505,4179.83864976,4172.83123794,0.0
1.04147194834,1.10218374576,1.00254068515e-05,-51789699.3704,1.30490180685e-05,0.0,5842889.01445,678.421187722,646.950014258,67027550.5434,1681.50228408,38357357.0066,70874522.0169,4323.15005756,4314.59226078,0.0
0.99013227487,0.94548314913,1.03362434039e-05,-95082837.8454,1.40541390019e-05,0.0,5917945.00706,678.930577163,643.691049712,67159752.5426,1612.08760987,69985355.499,70233597.2141,4110.03907299,4101.97063113,0.0
1.09550768689,1.12895356702,1.01467388133e-05,-23864672.8869,1.51616432109e-05,0.0,5741096.60384,681.261708274,650.509318562,66773464.8625,1754.35645405,36827366.7162,69434463.3265,4547.45240828,4538.72754386,0.0
1.16742404772,0.7855518359,9.80072223459e-06,192188.814113,2.4797284418e-05,0.0,5412233.93732,686.070663302,655.0743573,65787276.9163,1842.76719594,50149482.4199,67697729.8157,4845.97722209,4834.97269368,0.0
0.984797296667,1.10077049652,9.60812149126e-06,-95117564.2014,1.28924975857e-05,0.0,6017479.38134,681.730264098,643.370213254,67453855.9455,1619.59649856,70015648.2747,70255653.2427,4087.89357846,4080.8535899,0.0
1.06802732424,1.04829915052,1.00857832494e-05,-33486752.2406,1.41627134108e-05,0.0,5786871.55699,679.630732604,648.648783577,66878146.9921,1716.53553582,34892367.0826,69734820.0571,4433.38142292,4424.52238992,0.0
1.14928021698,0.831403307478,9.76361341839e-06,-7338825.09675,2.35578706558e-05,0.0,5532427.71147,684.879771577,653.881494555,66178914.3364,1822.60855616,45853396.7428,68602230.5696,4770.66218068,4760.63820279,0.0
1.05619192359,0.885433503751,1.05057546941e-05,-38019240.972,1.55242286293e-05,0.0,5807008.11499,678.735508828,647.892528924,66931185.4425,1702.28376478,34613091.9838,69774001.309,4384.25267482,4375.95129082,0.0
1.08516593275,1.0305918646,1.01592462425e-05,-27251865.0974,1.56026793602e-05,0.0,5762327.53182,680.711786554,649.857703762,66838352.1173,1740.93336202,35911793.7273,69268480.8438,4504.52378685,4495.9607067,0.0
0.995646310809,0.795025536662,9.76343522566e-06,-95703271.8781,1.50441003942e-05,0.0,5992128.10642,679.212686492,644.070459634,67396319.4656,1622.44314918,70531209.0473,70766450.2205,4132.92783617,4126.08128094,0.0
1.08058255486,1.06430668403,1.03947240315e-05,-28290204.179,1.51440415709e-05,0.0,5771577.42147,680.238440338,649.551826296,66850425.5359,1735.23796513,35690774.3113,72301755.9787,4485.49818522,4477.10310134,0.0
1.13959104895,0.978914784117,1.00685391228e-05,-9560466.00088,2.053281971e-05,0.0,5545838.24195,684.045745421,653.269879655,66194954.587,1809.22588653,44654585.2352,68044474.094,4730.44244419,4720.27587588,0.0
1.03448397474,0.77497827874,9.99499248151e-06,-57931812.8668,1.58675223431e-05,0.0,5839924.34265,678.299244153,646.513478372,67009888.718,1672.47385273,41448872.1166,71016886.4848,4294.14297915,4285.696433,0.0
0.954999836444,0.983618476603,9.92497919553e-06,-93732316.7614,1.38277053869e-05,0.0,6082204.64795,685.512960838,641.454510181,67617436.581,1613.10374533,68796103.7772,69018353.0623,3964.20432108,3957.90544732,0.0
1.09627419384,1.16578087186,1.04812251534e-05,-22318169.8583,1.4963029791e-05,0.0,5711203.09556,681.091982605,650.573320689,66671616.8536,1754.39210179,37383873.2698,68383687.6679,4550.63417863,4541.6023173,0.0
1.0320124243,1.00546992309,9.99695542725e-06,-60123793.1704,1.37279489603e-05,0.0,5858555.23988,678.134227682,646.364249977,67062013.0151,1669.04320972,42761405.7411,71041063.2968,4283.88357327,4275.47665995,0.0
1.24754489858,1.06606475918,1.04509286576e-05,19563808.2365,2.77678352599e-05,0.0,21422461.3374,690.433925652,660.053231674,64842090.6421,1937.06898898,63845702.9834,64842090.6421,5178.55887401,5166.5813974,0.0
1.1108061568,1.15740019748,1.02194834767e-05,-17087450.661,1.57238209594e-05,0.0,5673473.52166,682.042277631,651.44544551,66566512.3095,1772.6382896,40190663.0887,69172090.2711,4610.95635688,4601.60013749,0.0
0.989465962508,0.924467731272,9.67990844685e-06,-95258504.4631,1.45033977277e-05,0.0,5993726.33999,680.929002827,643.669165124,67388748.7755,1619.94246043,70139686.7738,70382463.602,4107.27321037,4100.16597262,0.0
1.02339375045,0.947175500213,1.00518641749e-05,-66943636.4762,1.40409793938e-05,0.0,5916117.96749,677.753003124,645.832511769,67229066.4107,1659.50082144,47283598.2932,70941299.8357,4248.10745812,4240.77758348,0.0
1.06174755982,1.10834915304,1.05046245763e-05,-36521095.9227,1.37100276881e-05,0.0,5822838.32409,678.970685537,648.262493574,66999266.3337,1710.67937332,34630649.726,70036895.0279,4407.31412081,4399.30126395,0.0
1.03248892488,0.95443734777,1.03120368888e-05,-57786205.892,1.4345889917e-05,0.0,5836348.90207,677.87566959,646.381687508,66997641.697,1669.34045471,41361498.4855,70900457.5566,4285.86152718,4277.36046991,0.0
1.09734347888,1.05826352573,9.55645309719e-06,-24574295.9587,1.56248520406e-05,0.0,5753451.51245,681.766661545,650.589379949,66825294.1655,1756.65449756,36780898.9552,69322573.6648,4555.07278083,4546.22030577,0.0
1.1822377885,0.852088895289,1.01872237092e-05,4787372.53767,2.5298065132e-05,0.0,6409240.19963,686.598354038,655.963233882,65700230.4504,1861.67217919,52517115.1227,66965306.23,4907.46906006,4896.73311353,0.0
1.0129717207,1.00467803773,1.03791689095e-05,-78158310.7635,1.3415854012e-05,0.0,5935025.53169,677.248912462,645.161553352,67257017.4507,1645.80578086,55698537.6806,70692300.9232,4204.84561263,4197.753554,0.0
1.13330541044,0.772027511671,1.00572516606e-05,-11129782.3341,2.30897648028e-05,0.0,5557396.81014,683.79659985,652.893159759,66228275.1076,1801.79060048,43564107.3479,67544514.0561,4704.35075874,4694.41836206,0.0
1.09583171716,0.764326149065,1.05184488285e-05,-22548774.7213,2.00675265089e-05,0.0,5629872.07802,681.302480671,650.527316505,66414179.7602,1752.43745334,37228609.9638,68007667.4119,4548.79745793,4539.00971747,0.0
0.989597042105,0.788613312291,9.96424028073e-06,-95142960.167,1.52322909317e-05,0.0,5922491.54827,679.864013191,643.661003983,67167701.3708,1612.34934996,70038228.8238,70281145.1465,4107.81732178,4099.6776981,0.0
1.14691678534,1.00473711552,9.73140025915e-06,-7337578.40022,2.06438232414e-05,0.0,5587884.14161,684.557498686,653.709992993,66350631.3308,1820.33905817,46182878.7116,68621357.2901,4760.85157595,4751.29035002,0.0
0.996215347096,1.10337207871,1.02090327628e-05,-95389696.1572,1.27611558065e-05,0.0,5917427.26106,678.468735699,644.083100618,67166524.3202,1619.97083,70255567.3185,70652965.9469,4135.2899058,4127.12492692,0.0
1.22833334042,0.898548230502,9.97260788074e-06,14855223.8085,2.80725978033e-05,0.0,16244575.8091,689.485850624,658.819232363,65172080.2574,1916.47273414,59990173.7879,66712482.7243,5098.81169608,5087.23254803,0.0
1.05369519988,0.999979675259,1.0164760574e-05,-43091724.0558,1.46374202498e-05,0.0,5802558.57938,678.912479459,647.720381719,66921348.0139,1697.7319775,35305435.3579,70382199.4855,4373.8887747,4365.13290218,0.0
1.19422679044,0.899122005815,9.74504371041e-06,6587579.6314,2.46405058224e-05,0.0,8151002.02338,687.627052926,656.753788146,65640477.4974,1876.45327724,53841319.9061,66827353.23,4957.23540712,4946.18477662,0.0
1.09002331142,1.01769516543,1.01788293726e-05,-25525733.4746,1.61509071008e-05,0.0,5747232.24792,680.932991828,650.123309513,66799017.3457,1747.29848966,36307187.9376,69154943.9947,4524.6867657,4516.04693333,0.0
1.16637398979,0.967216011665,9.59311055233e-06,-2105904.7746,2.26956422614e-05,0.0,5520221.97431,686.007140988,655.045625565,66163953.8708,1844.9350199,49090731.1038,68238436.6105,4841.61843162,4831.72190234,0.0
1.09904687669,0.929310351161,9.75171796466e-06,-23410653.4103,1.74324475876e-05,0.0,5730786.62859,681.828297371,650.734892677,66748085.3255,1758.97870592,37066806.8739,69227731.1225,4562.14358514,4553.26406099,0.0
1.06931195011,0.790148924945,1.054810786e-05,-33022401.2344,1.77454700856e-05,0.0,5780076.28218,679.587016902,648.81525123,66883636.3805,1720.92425057,34751947.2056,69441281.2122,4438.71390491,4430.58559974,0.0
1.1386362006,1.05306007164,1.03503048475e-05,-9297638.00805,1.95212213264e-05,0.0,5551047.57832,683.733757061,653.192616506,66224509.2043,1808.15133079,44542702.6076,68074389.0475,4726.47886869,4716.45582542,0.0
0.927694170503,0.953894459331,1.02014128729e-05,-92298762.7264,1.38186735498e-05,0.0,6081143.45988,688.770433342,639.679132059,67558312.8238,1602.22325323,67534308.2175,67740448.6207,3850.85850176,3844.05280196,0.0
1.05282173597,1.19649240676,1.00478107782e-05,-42280542.8134,1.23172312526e-05,0.0,5840705.61861,678.82173121,647.673125891,67032403.5236,1697.1011825,35222748.1182,70628644.5026,4370.26302601,4361.83126021,0.0
1.17895008354,1.07801413283,9.67017717369e-06,2486128.3935,2.0145963199e-05,0.0,5413176.07086,686.626730073,655.778267263,65804136.2514,1856.76604118,51386595.6931,67035265.325,4893.82179677,4882.62105785,0.0
1.09718360201,0.948223292412,9.59496605923e-06,-24471145.9079,1.69433314929e-05,0.0,5744424.65014,681.782098613,650.581397138,66797123.7035,1756.536532,36766897.2669,69277252.765,4554.40913194,4545.55919392,0.0
1.11879373068,1.00205852238,9.99552143231e-06,-15062439.4719,1.83731672472e-05,0.0,5660381.5229,682.708568548,651.923579188,66545110.2391,1783.90974377,41250533.4494,69172503.9971,4644.11277605,4634.82546839,0.0
0.999062704407,0.932443543203,1.01189500208e-05,-95551662.4622,1.41624638929e-05,0.0,5901161.52961,678.335828131,644.263167924,67117555.802,1623.71014636,70398325.6561,70667760.37,4147.10928599,4138.81615228,0.0
1.0327283569,1.11945886506,1.0253335607e-05,-56721246.8963,1.25905346067e-05,0.0,5853239.01507,677.859060602,646.400205493,67047494.9034,1669.70826918,40764831.3749,70913057.5277,4286.85540949,4278.35016242,0.0
1.00514280449,1.16406155743,1.00028482805e-05,-90889101.1521,1.20925596933e-05,0.0,5905790.26599,677.997292852,644.651755256,67139122.9658,1631.61129963,66307255.3849,70789753.8226,4172.34778144,4163.95576772,0.0
1.03668136791,0.885879497929,1.01510805096e-05,-53835353.4789,1.48524803881e-05,0.0,5833966.3291,678.183680981,646.637857998,66991527.8983,1675.11374777,39266606.7022,71126725.09,4303.26435819,4294.69632,0.0
1.07905639697,0.908640879944,1.04718254306e-05,-28461311.7318,1.69235940887e-05,0.0,5750463.90547,680.207726944,649.472915418,66790403.4785,1732.6719078,35532478.3041,69122995.4565,4479.16310382,4470.59915664,0.0
1.06703423839,0.879326833488,9.44959681908e-06,-37213235.0372,1.5433042852e-05,0.0,5821693.04965,680.257319646,648.683125303,66988923.8357,1716.79496608,34704440.4719,70280752.1788,4429.25912356,4420.78815435,0.0
1.16955111091,1.19884671804,9.99989012741e-06,1031024.15966,1.81947461188e-05,0.0,5473448.58351,685.762257961,655.218151139,65967615.8378,1845.74231167,50499582.8332,67663134.8396,4854.80666139,4844.18247656,0.0
1.0501943527,0.963081677864,9.59195181312e-06,-47947318.6794,1.4468355428e-05,0.0,5824912.77894,679.236152332,647.515791697,66980756.1964,1692.6607644,36788387.7515,70503739.0911,4359.35675806,4350.47863007,0.0
1.11090160605,1.00901173264,1.00241514659e-05,-17064039.5319,1.75246603e-05,0.0,5636111.9384,682.311668986,651.451297892,66446559.0437,1771.65956791,40187627.7205,69066083.6064,4611.35256671,4601.40944905,0.0
1.07646860481,0.840075900294,1.04048345024e-05,-31547315.8172,1.76802887399e-05,0.0,5690411.25404,680.223353478,649.26358909,66596607.3922,1726.87368181,34870955.7723,68874721.9738,4468.42117857,4458.77748722,0.0
1.03194048302,0.83593016054,1.01105474033e-05,-58409770.0982,1.51247170513e-05,0.0,5843282.24821,678.068923464,646.350137226,67012917.2665,1668.84814986,41713000.7395,70956835.375,4283.58494502,4275.09242874,0.0
0.981856498643,1.11943282303,1.00064362093e-05,-95046521.8459,1.25136147987e-05,0.0,6022381.21271,680.796309736,643.182311768,67468943.3037,1614.08001441,69953283.5576,70192907.7992,4075.68632587,4068.94579756,0.0
1.09641601601,0.912327763599,9.9498686263e-06,-24089754.2719,1.77418686858e-05,0.0,5731104.05875,681.527004181,650.55284323,66755244.6042,1755.73993412,36814859.1989,69084528.2847,4551.22288246,4542.4837492,0.0
1.11538830368,1.12671479244,9.82249947914e-06,-16263523.4126,1.60446643342e-05,0.0,5648605.79221,682.612878657,651.712525316,66493133.8349,1777.68162252,40618954.2769,69368397.8914,4629.97684858,4620.05387027,0.0
1.09108547894,0.92328037324,9.92341345441e-06,-25940140.942,1.71508359446e-05,0.0,5748216.55499,681.228492946,650.204343119,66800264.3609,1748.77585463,36275590.509,69280877.6272,4529.09582308,4520.44029037,0.0
1.12140919309,0.801754300784,9.96605784327e-06,-14363733.3449,2.13251047284e-05,0.0,5636719.73483,682.994717672,652.095117493,66476513.3218,1787.49774446,41658228.4099,68806340.2896,4654.96956052,4645.6406694,0.0
1.07329332769,0.955961846715,9.9517551686e-06,-33124278.3621,1.54630642295e-05,0.0,5790292.76204,680.038201709,648.957301414,66903211.457,1724.92281224,34959626.7453,69683238.1812,4455.24060324,4446.67164474,0.0
0.976231392984,0.750556241807,1.03812622109e-05,-94457068.501,1.56966348741e-05,0.0,6001802.66201,681.474197293,642.817500785,67417514.0035,1614.30745737,69434416.0077,69668005.8431,4052.33651228,4045.74969252,0.0
0.964166386758,0.970460578827,9.79765876006e-06,-94161403.3625,1.39411173587e-05,0.0,6063102.994,684.510519164,642.044893787,67569113.25,1615.78372672,69173836.1183,69401806.1648,4002.25467143,3995.75312158,0.0
1.09722646465,0.87423647727,1.02517898137e-05,-22936273.5302,1.85190948712e-05,0.0,5712714.94513,681.427046776,650.639938446,66691558.3858,1756.80838717,37097758.1623,68743182.9988,4554.58705476,4545.83518223,0.0
1.1672973009,0.95006878901,9.96563732079e-06,637039.548892,2.18795553541e-05,0.0,5466675.84245,685.777081694,655.076253594,65948819.8164,1843.53150076,50390820.566,67731544.985,4845.45109604,4834.97170365,0.0
1.09116683661,1.06139378593,1.00413419284e-05,-25573274.6462,1.55810574969e-05,0.0,5753159.19867,681.075819858,650.197180805,66816515.3276,1748.75704739,36313155.5789,69230697.1441,4529.43353877,4520.77673257,0.0
1.09823426604,0.7471441314,9.96335013307e-06,-23188826.6748,2.01532627929e-05,0.0,5714466.52327,681.73394384,650.691406256,66705492.4508,1758.41503336,37078226.4063,69055269.0467,4558.77043833,4550.0026024,0.0
1.14403482472,1.02841183078,9.81093321784e-06,-7893477.79345,1.9862807539e-05,0.0,5582918.24788,684.335983265,653.529615886,66341443.6882,1816.01991783,45863246.1411,68460529.6783,4748.88855741,4739.16633888,0.0
1.0951234991,0.908001606209,9.72436768745e-06,-24763405.7787,1.71343473714e-05,0.0,5720735.62597,681.602943003,650.432012627,66704446.3526,1752.92067233,36619405.2992,69269188.3149,4545.85764476,4536.65134298,0.0
1.11339253572,0.964129264036,9.9045790178e-06,-15662925.249,1.80292124812e-05,0.0,5684532.00115,682.450236376,651.609647728,66614556.1296,1776.83824996,41009554.7774,69362284.735,4621.69241577,4612.51245095,0.0
1.2601207364,0.964156917003,9.67167343092e-06,21392163.1176,2.92800890153e-05,0.0,23230686.8933,691.72572115,660.853356156,64729216.5951,1952.44995711,65209570.2855,66035009.4172,5230.7611768,5218.4016066,0.0
1.0856217861,0.969099555112,9.85427477107e-06,-28046860.3498,1.61755380836e-05,0.0,5769603.80159,680.991520295,649.897501777,66856439.7346,1741.5944893,35870555.9077,69358647.3917,4506.4160341,4497.84584881,0.0
1.09017422702,1.23931369911,1.00171881727e-05,-26040458.5238,1.35831210383e-05,0.0,5767974.67101,680.984144218,650.148164469,66860738.8861,1747.33418337,36253840.6122,69316422.5495,4525.31321636,4516.67194221,0.0
1.05796701862,0.982106454756,1.00125295932e-05,-39871477.6628,1.44124736783e-05,0.0,5827807.18814,679.182238607,648.001774172,67000714.4631,1704.70307214,34846719.3458,69732223.7537,4391.62109429,4383.29038271,0.0
1.12673772921,0.893936161207,9.68769356721e-06,-13274498.1356,2.01708849572e-05,0.0,5634722.42312,683.476771614,652.446451943,66482523.652,1794.07938377,42291050.5023,68363862.5902,4677.08831395,4667.57066402,0.0
1.12589103447,0.944180328061,1.03559535271e-05,-12491935.6617,1.99891835996e-05,0.0,5588741.69637,682.911929847,652.314567892,66319228.7406,1792.01262277,42761757.8428,67161819.4602,4673.57368409,4663.76761856,0.0
1.00208930375,1.00697565777,9.61208086872e-06,-95820410.7107,1.34884648587e-05,0.0,5914847.15967,678.9849415,644.461322374,67156911.9175,1627.33787588,70634834.6153,70800957.0906,4159.67269987,4151.24959606,0.0
1.14835748306,1.07015768263,9.89603125651e-06,-7512752.84468,1.95288176536e-05,0.0,5543245.67018,684.489904875,653.731484701,66203619.3034,1820.60104835,45764844.6993,68642381.8064,4766.83191218,4756.61678893,0.0
1.20053874884,1.09824821122,9.66245079662e-06,8617825.28298,2.13220476732e-05,0.0,10089509.1591,687.919001006,657.166620512,65637778.9978,1883.39097534,55195149.5645,66907530.3822,4983.43634643,4972.24887603,0.0
1.20739847085,0.846727753174,9.53151338044e-06,10088644.3686,2.66011113392e-05,0.0,11499508.5333,688.541411181,657.562010358,65518099.6679,1892.51868661,56245049.8988,67101020.0609,5011.9110525,5000.73334736,0.0
1.16186682057,0.713987192706,1.03551128708e-05,-1625664.89298,2.89813072413e-05,0.0,5484370.78022,685.394333111,654.752556032,66017448.0139,1839.61258831,48737097.2309,67766061.9523,4822.90917219,4813.31989098,0.0
1.01939960574,0.873464504532,1.06722774437e-05,-67222677.6409,1.45949008908e-05,0.0,5850115.49921,677.169359412,645.55327872,67022516.8633,1652.16472248,47421863.2642,70580380.7202,4231.52776343,4223.32208213,0.0
1.00044395346,0.893290364484,1.01904827758e-05,-95677456.1675,1.46548718906e-05,0.0,5894569.91604,678.204292824,644.351535824,67102525.6576,1625.77016628,70508149.0234,70612199.3401,4152.84285081,4144.60839754,0.0
0.966549990467,1.0873666404,1.04739473421e-05,-94100468.9338,1.27285204467e-05,0.0,6036931.05263,682.361933251,642.194355689,67511282.8638,1610.40837908,69120320.904,69348656.1218,4012.14901043,4005.69425067,0.0
1.22686026123,1.0530196232,9.84895499857e-06,14261659.041,2.43082256675e-05,0.0,15643984.7611,689.525877738,658.79382955,65076695.4698,1912.66490214,59422657.7048,66644465.6382,5092.69694437,5080.437249,0.0
1.12668422067,0.750492391054,9.5867064089e-06,-13830488.6849,2.26625620694e-05,0.0,5650896.88713,683.595185808,652.4514293,66536958.9212,1795.36969279,42108265.3113,68753031.8552,4676.8662,4667.73361452,0.0
1.06317998883,0.873329595594,1.00879333442e-05,-36304589.7232,1.59151352397e-05,0.0,5805853.39566,679.440358109,648.347151835,66943095.1533,1711.51825802,34621772.414,70129339.2453,4413.26013363,4404.84849209,0.0
1.18166522567,0.681791107975,1.01889973545e-05,4758961.40529,2.94200827631e-05,0.0,6414832.19668,686.707584301,655.925803795,65625399.4522,1861.29042091,52478520.2798,66887867.773,4905.09235176,4894.36637296,0.0
1.00445608305,0.79914740714,9.47221607721e-06,-95967315.329,1.54481289989e-05,0.0,5900885.6057,679.145805375,644.611023896,67115614.0693,1630.58658435,70763451.9774,70782428.1346,4169.49720074,4161.03518926,0.0
0.974119297275,0.824924163245,9.7406781471e-06,-94599320.303,1.50133399187e-05,0.0,6025196.06614,683.014614014,642.68289271,67459452.7686,1616.18373165,69559290.6709,69793273.3003,4043.56920299,4036.68348631,0.0
0.920943724166,0.860405479334,1.02597472017e-05,-91996931.1745,1.39899506321e-05,0.0,6076722.63934,689.295320842,639.24026263,67532446.0102,1597.9381228,67268772.698,67532446.0102,3822.83739901,3815.84409481,0.0
1.09294867673,0.984332997283,9.85371327906e-06,-25316119.3277,1.64685956697e-05,0.0,5753064.20692,681.342449776,650.308997769,66815010.3235,1751.29957748,36470236.5917,69302641.2522,4536.82995711,4528.145131,0.0
1.23786891628,0.928971548888,1.01365655909e-05,17489354.6999,2.89620923013e-05,0.0,19077765.7366,690.085765754,659.493572388,65027096.2248,1927.15964782,62108013.7017,66973547.4625,5138.39387148,5126.75927966,0.0
1.16703462436,0.892607039569,9.72805042539e-06,-1403460.97146,2.25847113751e-05,0.0,5424961.41956,686.047716902,655.051606791,65836370.5606,1842.30166581,49130183.5165,67780102.7922,4844.36072572,4833.25769125,0.0
1.03766654767,0.813657879416,9.97352309859e-06,-53439504.6215,1.54960340215e-05,0.0,5830285.37096,678.402198661,646.700540385,66982451.6305,1676.18169805,39046613.2175,71182157.2022,4307.35383938,4298.68296434,0.0
1.0086742431,0.824082843248,1.01353793573e-05,-85989788.4893,1.51585026961e-05,0.0,5870705.37427,677.798711757,644.875817885,67038989.2543,1636.59505144,62145544.983,70786365.3575,4187.00678311,4178.55700351,0.0
1.01735947158,0.863794717583,1.00484157772e-05,-71483658.6431,1.45531836443e-05,0.0,5892877.67798,677.76209957,645.43690844,67129819.8097,1649.85461915,50558127.8961,70686785.8768,4223.05916653,4215.11091693,0.0
0.9466043313,1.0398494618,9.85854899878e-06,-93423070.9162,1.31635833488e-05,0.0,6107797.1858,686.739225953,640.91441662,67681150.6684,1611.12091358,68523778.9011,68741748.5126,3929.35457923,3923.16808715,0.0
1.10137340643,1.01477191857,9.87769454605e-06,-22498901.2893,1.67850920297e-05,0.0,5730396.80635,681.872210998,650.913427302,66758864.5007,1762.27733843,37387087.3978,68762878.9953,4571.80101009,4562.98372166,0.0
1.19061315727,0.986744825848,1.01222315241e-05,5824333.75878,2.32487171546e-05,0.0,7348224.88861,687.196762859,656.510713454,65455859.2838,1870.08412255,52971765.0418,66647023.9953,4942.23521583,4930.61077126,0.0
1.21245237717,0.895105076577,9.72130284938e-06,11105347.2059,2.6148417504e-05,0.0,12446246.616,688.720871798,657.828473543,65304774.3961,1897.21033418,56920410.7618,66597881.7047,5032.88981763,5021.17514783,0.0
0.924240419157,0.860951512841,1.01820557532e-05,-92155873.1197,1.42910567018e-05,0.0,6086848.08374,689.249949338,639.456881601,67570074.4487,1601.24737631,67408541.0853,67613100.9398,3836.52197992,3829.7691771,0.0
1.14484055213,0.890861492103,9.937857641e-06,-8316454.55225,2.21378825867e-05,0.0,5535290.26607,684.332220645,653.478042886,66175348.8719,1816.36606326,45264940.7323,68371021.9215,4752.23313189,4742.07989826,0.0
1.13686325734,0.942673389383,1.06744138019e-05,-9434698.00352,2.20073238241e-05,0.0,5584719.48516,683.405169066,653.089433875,66307150.8581,1808.12278005,44308407.021,67978442.6496,4719.11938122,4709.95487558,0.0
1.10072373445,1.10243647822,9.3574111385e-06,-23807279.7783,1.51410573658e-05,0.0,5757535.92806,682.101963314,650.830244104,66837241.368,1761.18217886,37085929.3741,69468366.8842,4569.1042217,4560.19638166,0.0
1.15108904139,1.03916512706,9.97225721823e-06,-5531834.98595,2.04667738175e-05,0.0,5551048.95339,684.736576926,654.041232895,66239053.1231,1824.83166225,47053960.5923,68732798.4419,4778.17061081,4768.32964429,0.0
1.08770357682,0.773925576446,9.7821292649e-06,-27463937.8689,1.86964061227e-05,0.0,5752982.38162,681.239061078,650.023669699,66806973.4623,1744.48028184,35968987.3101,69337441.868,4515.05754738,4506.45488362,0.0
0.98204626351,1.01082844845,1.04944740106e-05,-94725662.3355,1.33435338628e-05,0.0,5935860.13536,679.641845184,643.173855489,67201495.4949,1606.96170891,69670875.3478,69910169.1911,4076.47403983,4068.53693125,0.0
1.07490942901,1.19212292836,9.87305777436e-06,-32267275.4308,1.30501124433e-05,0.0,5815379.26873,680.056973208,649.047307514,66990635.9965,1727.37585965,35086730.3852,69788420.4337,4461.94903982,4453.54518265,0.0
1.22442259195,0.626114311246,9.98073688444e-06,13957314.9161,3.57930817089e-05,0.0,15290143.1632,689.776485101,658.636483896,64823950.0976,1911.08431871,59134211.7874,66258651.6158,5082.57817918,5070.39279873,0.0
1.18971353319,1.07903899391,9.59948918957e-06,5250322.66779,2.08100037324e-05,0.0,6960549.85702,687.276660041,656.447347393,65799644.2177,1870.88118167,53130504.5096,67119780.1912,4938.50087627,4927.52993973,0.0
1.0734705442,1.05276816277,9.39178898816e-06,-33596379.905,1.39868673778e-05,0.0,5822670.81412,680.42755235,649.004868086,67002699.6142,1724.93232526,34929966.4862,70199846.8752,4455.97622897,4447.40453133,0.0
1.05656950412,0.920121318056,9.65595344157e-06,-44426859.5598,1.52033518532e-05,0.0,5803264.60176,679.507618478,647.911306499,66923687.4063,1701.16617227,35671477.369,70419975.1642,4385.8200116,4376.83636614,0.0
1.10467185692,0.980402358519,9.84012566042e-06,-21800329.4261,1.76755961883e-05,0.0,5730569.86609,682.110370857,651.132102761,66761545.5433,1767.26547349,37687459.8857,68623846.0401,4585.49287807,4576.82426072,0.0
1.08177464193,0.839229107455,1.00378101049e-05,-28803415.8432,1.75349927594e-05,0.0,5763774.38217,680.697216858,649.651896208,66835067.6376,1736.65400164,35688404.6378,69274775.793,4490.44653865,4481.93624092,0.0
1.05767418026,1.03832035897,1.01037709147e-05,-39654680.8605,1.38234352651e-05,0.0,5828587.62263,679.075730733,647.984339042,67004571.6,1704.28322916,34814795.1716,69738522.5376,4390.40552226,4382.079364,0.0
1.2246602792,0.993941518921,9.62041955404e-06,13363940.6189,2.53941567985e-05,0.0,14680641.4001,689.595693537,658.656696535,65105395.8408,1910.76658836,58730387.8998,66469685.5921,5083.56481896,5071.28514405,0.0
1.04003719373,1.04469320291,9.87342985074e-06,-52263164.6456,1.33649296047e-05,0.0,5843388.41921,678.505824316,646.863940457,67026186.4616,1679.15253133,38464504.8076,71021321.6011,4317.19439117,4308.48470842,0.0
1.0485222457,0.804704051701,1.00317676697e-05,-45744671.4058,1.59787927206e-05,0.0,5843685.02778,678.74964469,647.42282892,67041834.9275,1692.40919291,36074056.5858,70466988.7922,4352.4158419,4344.44372793,0.0
1.04624731826,1.10308581448,9.91636164476e-06,-47592536.4576,1.30059510746e-05,0.0,5837858.33102,678.688323575,647.265933799,67012249.5961,1687.54442484,36655392.2665,70606438.574,4342.9726181,4334.30612248,0.0
1.12190644068,1.04564923607,1.0322036104e-05,-13630821.6033,1.81447453086e-05,0.0,5610976.07348,682.723796876,652.127475212,66380923.7166,1786.81380601,42112192.9557,67899762.1666,4657.03363526,4647.29476608,0.0
1.08653288706,0.973607457421,9.53290105771e-06,-27746120.1365,1.54443639633e-05,0.0,5741585.85994,681.296055684,649.938002187,66756030.0013,1740.65224587,36000708.5167,69222006.1066,4510.19801419,4500.77436254,0.0
1.0897466359,1.08059047268,1.02868688773e-05,-25324409.5354,1.53980260907e-05,0.0,5747881.41875,680.808379054,650.099835279,66786565.1305,1746.86495711,36341019.5948,69101150.0806,4523.53828562,4514.90369877,0.0
1.03656617795,1.00653340609,1.00108593224e-05,-56064122.0518,1.38271655656e-05,0.0,5848269.88648,678.28812952,646.655077689,67037943.2887,1675.07473073,40418252.3937,71041925.2682,4302.78620467,4294.30741547,0.0
1.14488673711,0.779170765465,9.87225647598e-06,-8423064.70834,2.40394484776e-05,0.0,5526209.41916,684.444868264,653.483559352,66144426.2222,1816.62118429,45238471.1311,68317850.0517,4752.42484574,4742.270892,0.0
1.1005277422,0.918102576948,1.01672189785e-05,-22172194.7511,1.82158696321e-05,0.0,5709900.73764,681.666459428,650.856566914,66687021.4425,1761.08126205,37422374.625,68461121.4935,4568.29065787,4559.48681499,0.0
1.09942465769,1.06584054396,1.03594644887e-05,-20177777.0106,1.61910890026e-05,0.0,5655112.75266,681.419760029,650.758556908,66489635.2784,1756.33486387,38575085.36,68463477.9413,4563.71175407,4553.87340931,0.0
1.07166195534,0.978547100416,9.62279608258e-06,-33245741.6941,1.48400064426e-05,0.0,5802574.22073,680.194017387,648.884558685,66932367.6289,1721.98365048,35012962.8688,69975366.3153,4448.46877662,4439.73793629,0.0
1.060989897,0.955372439347,1.01498340811e-05,-37858556.7303,1.48915011827e-05,0.0,5813564.04994,679.258372365,648.205108776,66964963.2414,1708.7740189,34645027.6195,69955781.3057,4404.16906245,4395.79128872,0.0
1.10295682136,1.09006179161,1.00777119004e-05,-21740062.3241,1.61704388727e-05,0.0,5719736.68588,681.795708965,651.014071765,66720157.6714,1764.09910153,37665107.5806,68626041.6826,4578.37376547,4569.53160269,0.0
1.19806568533,0.996529276902,9.67778341747e-06,7414708.69961,2.29197425699e-05,0.0,8901218.34372,687.879755913,657.020504108,65583999.7734,1880.26527709,54279218.4621,66713980.6079,4973.1706598,4961.80912045,0.0
1.024972062,0.814102642967,9.56123848098e-06,-69996209.8004,1.51785811812e-05,0.0,5932018.41219,678.323749073,645.939966833,67276696.4434,1661.97927622,49481957.5085,71000134.8524,4254.65902936,4247.39623165,0.0
1.16938346582,0.926367399843,1.01284705876e-05,1026708.59214,2.27246248595e-05,0.0,5438320.81105,685.851641458,655.206598962,65861915.7477,1845.93202196,50369067.4397,67479512.9121,4854.11076662,4843.4880395,0.0
1.14774963402,1.09391326178,1.0096912019e-05,-7641252.80093,1.98348491977e-05,0.0,5588968.40494,684.381516748,653.800431663,66362274.4577,1822.0135281,45677495.8218,68599087.0562,4764.30873082,4754.94396124,0.0
1.19433604871,1.08441088199,9.6756971526e-06,5916269.36507,2.12245976902e-05,0.0,7497995.17656,687.600374286,656.737313405,65570436.2026,1874.91027292,53317025.2239,66842611.9686,4957.6889382,4945.98898694,0.0
1.08744689658,1.12050735749,1.00547732437e-05,-26830458.5355,1.46235981366e-05,0.0,5766854.69595,680.872489607,649.999164531,66854035.6442,1743.84939541,36067828.6236,69312615.733,4513.9920677,4505.39341119,0.0
1.11174243808,1.30097000681,1.04247589479e-05,-16699935.7653,1.46897250567e-05,0.0,5618326.16977,681.940998474,651.455615577,66389765.8533,1771.84368279,40270427.962,69056063.6117,4614.84286047,4604.59966611,0.0
1.22043079374,0.827878053961,9.87250870432e-06,12972568.5265,2.85713523844e-05,0.0,14242951.432,689.281938021,658.386014219,65108060.2956,1906.32280343,58381014.9556,66358001.2475,5066.00822481,5054.06590545,0.0
1.13241554608,0.778702223337,9.87683442641e-06,-11414471.6636,2.28133722188e-05,0.0,5590135.88978,683.812851252,652.838094282,66341121.6909,1801.37128882,43522010.0519,67497610.1971,4700.65693178,4691.01994234,0.0
1.11620428008,0.87890535105,1.00477590807e-05,-15654977.5481,1.97563264658e-05,0.0,5657021.78091,682.571843031,651.759580733,66532116.3535,1780.65552222,40945577.0474,69337935.9939,4633.36396661,4624.11867738,0.0
1.09637879797,0.78594946072,1.02037012986e-05,-23310083.0754,1.96220916506e-05,0.0,5710288.82381,681.444646847,650.574582996,66681938.2745,1755.79002601,36966637.0581,68907133.986,4551.06839037,4542.32984196,0.0
1.20241816965,1.03720897597,9.75392096803e-06,9004525.37192,2.26582660676e-05,0.0,10414516.396,688.027887836,657.266752848,65538449.8844,1885.39240533,55410629.4027,66878694.4374,4991.23782222,4979.87586537,0.0
1.14433622208,0.687323142414,1.01528831501e-05,-8294285.77766,2.68814080569e-05,0.0,5559332.5884,684.326984162,653.548049566,66266831.5441,1818.12432719,45217051.5863,68271497.5349,4750.13965785,4740.82950841,0.0
1.0615096517,1.06042962481,9.86170733919e-06,-38052191.6603,1.34979881189e-05,0.0,5799071.85405,679.484240054,648.22436464,66903968.7099,1707.50530795,34633238.1762,69949248.4834,4406.32656421,4397.22869009,0.0
1.14077474365,0.982481971207,9.96049784092e-06,-8735792.36773,2.08861507974e-05,0.0,5601328.57781,684.073641898,653.35569264,66397055.745,1812.73314545,45284256.1059,68208003.8576,4735.35596089,4725.99990033,0.0
1.14788475957,1.30467115327,1.01712029335e-05,-7489413.54185,1.71144359528e-05,0.0,5603567.74234,684.13612552,653.728918517,66409623.5955,1821.95594788,45733757.8147,68679512.9204,4764.86963698,4755.50437799,0.0
1.01749051322,0.91856028881,1.00052788991e-05,-74812221.633,1.40423562832e-05,0.0,5938286.67892,677.715255388,645.456146066,67282143.0164,1652.03617369,53082001.9899,70813859.043,4223.60312038,4216.4468001,0.0
1.2565865057,0.997910896774,1.03567158774e-05,21119917.0728,3.01703029128e-05,0.0,23088825.0397,691.183228315,660.632462862,64613346.502,1947.08123622,64965619.9506,65805526.7153,5216.09058516,5203.68289342,0.0
1.13467241817,0.834480684861,1.04476155279e-05,-10556106.629,2.32821196159e-05,0.0,5594294.94824,683.516788016,652.995700167,66368671.9424,1805.53379677,43877176.7622,67810739.8243,4710.02520782,4700.89542491,0.0
1.1039930065,1.04910414288,1.02245284482e-05,-19168916.6489,1.66918324701e-05,0.0,5637692.5597,681.776241531,651.030053971,66453616.2213,1761.95232175,39137520.5236,68704395.3379,4582.67496998,4572.6631484,0.0
1.03338760397,0.885496362481,9.92201742547e-06,-58306303.7606,1.47365965629e-05,0.0,5899879.97124,678.181833941,646.458864718,67199180.9578,1673.24687442,41772388.1355,71023153.7623,4289.59194408,4282.20857692,0.0
1.14753433371,0.977865138463,1.01273150551e-05,-7593044.92907,2.17643911615e-05,0.0,5577592.64259,684.408716983,653.784432204,66326961.1316,1821.84932263,45656562.731,68556836.9937,4763.41501923,4754.05537332,0.0
0.985710385467,1.12590871152,1.02641666737e-05,-94952704.2543,1.24523796411e-05,0.0,5943388.76312,679.677617105,643.410872827,67226477.0969,1609.82766145,69870758.6243,70112470.5864,4091.68381007,4083.68729309,0.0
1.11303025711,1.17755762263,1.03510637008e-05,-16186818.9871,1.57727681884e-05,0.0,5658244.89082,682.059497551,651.548634914,66518264.6543,1775.59279896,40566269.8567,69289958.3787,4620.18859726,4610.696414,0.0
1.24664948215,1.05525846672,9.69662555223e-06,18918113.7398,2.59418763475e-05,0.0,20482249.5782,690.751216432,660.015081703,65015752.0752,1937.22941648,63199566.9183,66667236.1794,5174.8420004,5162.89529773,0.0
1.14984388141,1.04630170307,1.01610199421e-05,-6887758.18625,2.08465458264e-05,0.0,5574236.07803,684.531456652,653.966316873,66321535.9346,1824.68705371,46049011.662,68726616.5412,4773.00195173,4763.60360656,0.0
1.07056094095,0.869468419941,1.0046444975e-05,-33913438.431,1.63232351293e-05,0.0,5788160.8289,679.880934895,648.8087882,66892526.7085,1721.40260439,34811705.915,69759305.0725,4443.89846588,4435.37096935,0.0
1.06102431381,1.02774451813,9.80914585138e-06,-39253236.3374,1.39697391992e-05,0.0,5831364.75818,679.492143165,648.210295531,67013585.6025,1708.69689933,34797613.3135,69932080.2657,4404.31192663,4395.93361645,0.0
0.998906884691,1.06108384253,1.00583441335e-05,-95587206.5502,1.29828188056e-05,0.0,5912286.79326,678.416970135,644.254857557,67150486.9615,1623.39430067,70429541.2554,70731297.341,4146.46247835,4138.17187772,0.0
1.07719207801,0.894146525829,1.01642985565e-05,-31226999.7774,1.68593917937e-05,0.0,5781241.1072,680.298101268,649.337768514,66895037.8598,1731.19605454,35106951.6289,69231111.6633,4471.42431582,4463.17809375,0.0
1.08122951783,1.08314176343,9.65270589502e-06,-29782853.0254,1.42216894598e-05,0.0,5783264.00467,680.623189116,649.462779958,66891989.4795,1734.48860583,35499379.7903,69468612.0237,4488.18372851,4479.29933218,0.0
1.17403622967,0.894916812799,9.7355838395e-06,1769831.78118,2.3182414626e-05,0.0,5446131.65837,686.365238413,655.495697251,65909440.4423,1852.16784016,51121030.9012,67416819.8754,4873.42438936,4862.82847307,0.0
1.09976387535,0.94014277136,9.70556222444e-06,-23305719.6046,1.73407795671e-05,0.0,5731424.19314,681.902820491,650.786223214,66750326.5133,1759.90963063,37116649.7415,69260762.2398,4565.11984658,4556.22892682,0.0
1.01785179437,0.997209864744,9.64764585796e-06,-77748754.1978,1.3466628982e-05,0.0,5955464.26958,678.083976712,645.486146411,67330690.7444,1652.38730646,55397788.0518,71009639.6024,4225.10279843,4217.94135181,0.0
1.129287491,0.65776900596,9.48874880935e-06,-12845059.8077,2.41269131143e-05,0.0,5581112.86053,683.970633014,652.604004991,66309192.8174,1796.72539596,42615421.3509,67711328.5212,4687.67237514,4677.68342763,0.0
1.00876451662,1.033509019,9.37701168224e-06,-90992001.7333,1.31262308668e-05,0.0,5981381.77133,678.553693426,644.904742696,67368825.529,1639.44868599,66424255.1234,71328973.2666,4187.38150849,4180.17377404,0.0
1.25798213037,0.868342959825,9.67017267567e-06,20795545.1317,3.14855425907e-05,0.0,22552246.3855,691.736941431,660.692042578,64567438.3951,1949.22419668,64668041.933,65525528.8822,5221.88382317,5209.08588626,0.0
1.00847302849,0.899878399459,9.85873911338e-06,-87168519.8966,1.40950779914e-05,0.0,5966389.13412,677.910755964,644.887886347,67336290.1194,1639.85278104,63138697.9089,70998960.1812,4186.17154126,4179.14266466,0.0
1.02223942824,1.14897844796,9.71794420462e-06,-71869339.185,1.21706881275e-05,0.0,5949477.4718,677.995580641,645.759892275,67326204.5734,1658.18047115,50861177.6702,71080756.493,4243.31586662,4236.09203748,0.0
1.13777097652,0.850805728173,9.79739673327e-06,-9595247.2452,2.19277852963e-05,0.0,5563302.93386,684.059046048,653.098168977,66264523.456,1807.19717538,44799039.2397,67933196.4713,4722.88732353,4712.85504385,0.0
1.08636148339,0.770277289062,1.00914453704e-05,-26972070.9734,1.88783451713e-05,0.0,5743624.33663,680.938905328,649.932372381,66781026.188,1742.71924046,35955265.4926,69227823.5058,4509.48651755,4500.90479785,0.0
0.935311489662,0.949694408098,1.01794223761e-05,-92889809.3061,1.33432164675e-05,0.0,6116992.4594,687.277118339,640.184742967,67691691.5535,1603.91024442,68054381.738,68267044.4082,3882.47799359,3876.44127843,0.0
0.984843100797,0.72734809374,9.36575083126e-06,-95155107.3478,1.58461382296e-05,0.0,6004427.69787,682.145686368,643.373541603,67400047.0952,1619.36349772,70048624.7912,70291192.8137,4088.08371141,4080.8798039,0.0
1.1196414646,0.951248162233,9.71017799149e-06,-15341440.4934,1.8734661867e-05,0.0,5615260.31455,683.029069389,651.961388215,66407205.2394,1783.01376172,41216283.0314,69105445.1588,4647.63171955,4637.53812097,0.0
0.973890850358,0.787791558005,9.77852736954e-06,-94711230.9223,1.53345555028e-05,0.0,6034983.43342,682.680564487,642.671706169,67489364.0481,1614.76815852,69657771.0379,69893027.7976,4042.62091984,4035.98938991,0.0
1.0250196784,0.916481375303,1.0058583676e-05,-66477751.7479,1.44932271493e-05,0.0,5859940.67139,677.8989233,645.914148604,67055071.9302,1659.38026395,46930038.4143,70968848.8823,4254.85668504,4246.47597816,0.0
1.17947030442,0.720789959285,9.79015604068e-06,2973212.00479,2.74143355715e-05,0.0,5363120.64827,686.862723328,655.808099252,65639768.8963,1858.18036538,51585337.8966,66877062.34,4895.98123365,4884.87657899,0.0
1.16033795553,1.10502777111,9.79510981292e-06,-3116428.0022,1.86493527382e-05,0.0,5480462.77753,685.456570461,654.64292475,66006646.6188,1833.94408517,48145057.8803,68140872.1098,4816.56285341,4805.68303343,0.0
1.19861407543,1.05881331322,1.00614967245e-05,7774260.2748,2.23017630545e-05,0.0,9216471.33103,687.632845829,657.033708781,65509299.3666,1880.58388116,54433712.5787,66648862.781,4975.44702711,4964.10029116,0.0
1.02666684876,0.808846152248,9.92690996455e-06,-64216358.6559,1.52069756853e-05,0.0,5913156.91179,677.98631572,646.035225397,67228653.3408,1664.31109039,45424073.9379,70861228.2172,4261.6940892,4254.40690837,0.0
1.07503211454,1.11629211199,1.03350539721e-05,-30426786.0773,1.41761026428e-05,0.0,5781370.77322,679.958275124,649.190970182,66877230.6808,1727.24328888,35308995.2686,69262342.6963,4462.45830746,4453.95577837,0.0
1.115401865,0.902121160503,1.00151439171e-05,-15888571.8555,1.89279155137e-05,0.0,5615533.5436,682.591657149,651.694702171,66389519.0649,1777.65386104,40828001.1439,69341581.2743,4630.03314162,4620.02883494,0.0
1.06342796642,1.0900608063,1.02241891944e-05,-36856874.9003,1.3720576924e-05,0.0,5816670.63208,679.286891681,648.365219057,66974145.3967,1712.2021592,34640868.5639,70101345.4472,4414.28948861,4405.96706884,0.0
1.11273067211,1.11191304898,9.92230125244e-06,-16834071.4552,1.62145370271e-05,0.0,5644209.01944,682.423363406,651.561147074,66488714.7145,1773.93250555,40405409.8572,69186141.6263,4618.94501993,4608.97030917,0.0
1.19068298382,1.01069475208,9.88482934195e-06,5488390.47086,2.25445036766e-05,0.0,7065098.89273,687.305562694,656.500934212,65527116.3422,1870.36881815,52945746.452,66813179.6036,4942.52506584,4930.87948722,0.0
1.20349109061,0.926331199772,1.03436038395e-05,10181208.2412,2.5658168372e-05,0.0,11477898.8359,687.769199885,657.270916412,65372008.1771,1886.13412843,56031278.9181,66927219.504,4995.69151712,4984.32753592,0.0
1.13511991728,0.940229669172,9.7814582454e-06,-10935655.7966,2.04670535728e-05,0.0,5600058.23611,683.962161312,653.018008056,66373088.4281,1804.69774469,43891967.5174,67686268.3355,4711.88277663,4702.20009934,0.0
1.06123589151,1.12502881097,1.0440796254e-05,-37005406.9755,1.33531243166e-05,0.0,5815415.9883,678.991813468,648.222296907,66970296.8839,1709.27534255,34614314.8246,69994788.5566,4405.19018566,4396.90311681,0.0
1.09386108509,0.968700778556,1.02782541475e-05,-24141884.1455,1.72569759152e-05,0.0,5733818.08962,681.131825947,650.389669493,66755283.5089,1752.7102078,36724581.6363,68984393.4208,4540.61736421,4532.01620422,0.0
1.16084573193,1.05791617707,9.66218432687e-06,-3471893.67571,2.04941417432e-05,0.0,5525081.08688,685.599592455,654.697541745,66172372.4944,1837.06202448,48163967.6607,68344578.9963,4818.67063324,4808.54469298,0.0
1.11865985851,1.03340886263,9.74050329603e-06,-15570843.8907,1.75560083021e-05,0.0,5624930.52805,682.895041059,651.898377303,66435229.9705,1781.65297425,41091836.1235,69258765.4694,4643.55707268,4633.48051289,0.0
1.01230363434,0.825139968262,1.01500014498e-05,-81855045.2695,1.5217933104e-05,0.0,5861081.60822,677.721183874,645.100921566,67015342.738,1641.44917855,58687925.0014,70597039.8947,4202.07238615,4193.56307269,0.0
1.10577077258,0.817574209301,1.04026652312e-05,-17721569.4017,1.97761771376e-05,0.0,5648568.96067,681.814186412,651.140932994,66494722.5177,1766.23660359,39724111.7229,68819702.2133,4590.05447698,4580.6844113,0.0
1.14932363943,0.992175143077,9.9501399043e-06,-7521911.80218,2.14956976487e-05,0.0,5581331.46648,684.629034763,653.904901963,66337540.1635,1824.19830479,45788747.3119,68633430.6169,4770.84242727,4761.45242733,0.0
1.20310423254,1.09502857689,9.94860900969e-06,8545133.37419,2.19960250586e-05,0.0,9955086.9237,687.96865288,657.287662668,65376966.2832,1884.95813076,54908817.5916,66754675.9739,4994.08566927,4982.22447254,0.0
0.949909715538,0.985154214589,9.48833373325e-06,-93621964.1155,1.39956067196e-05,0.0,6111186.15797,687.445937139,641.129339959,67693080.964,1616.32991756,68698881.3134,68918427.5043,3943.0752292,3936.84459624,0.0
1.20756709757,1.01958986446,9.99885367194e-06,10247254.8024,2.39014679568e-05,0.0,11587844.9369,688.211161962,657.515106447,65269095.2037,1890.06986439,56188708.9966,66986421.342,5012.61102201,5000.6390613,0.0
1.00890014587,1.18226538249,9.77804666587e-06,-87499596.2292,1.17751402432e-05,0.0,5981961.17316,677.935578515,644.924512071,67382627.6198,1640.26082724,63423791.1738,70997338.1073,4187.94450551,4180.90961457,0.0
1.14087814146,0.810550866711,9.94640052087e-06,-8701527.43364,2.36932366132e-05,0.0,5587076.37941,684.193234835,653.363730121,66354510.666,1813.0444516,45286491.6157,68172658.9556,4735.7851652,4726.42744114,0.0
1.02981321425,0.961184642954,1.00402415619e-05,-61678169.7988,1.40665865844e-05,0.0,5859106.33946,678.038576016,646.225295019,67059549.1473,1666.1409235,43731164.6983,71025520.9669,4274.75465235,4266.38294109,0.0
1.16915732156,1.05563659482,9.93944665465e-06,973957.727841,2.01773509096e-05,0.0,5440322.94879,685.874063649,655.184632287,65870585.7793,1844.55374914,50530516.3637,67645810.5232,4853.1720418,4842.23584666,0.0
1.13751154554,0.909729424087,1.00412981649e-05,-8892045.75297,2.15390441807e-05,0.0,5588051.08446,683.886689973,653.161528465,66341577.3541,1807.74275839,45324111.5043,68104814.2426,4721.81042554,4712.29437507,0.0
1.00225035568,0.751745954705,1.01012243527e-05,-95059037.6374,1.56178605883e-05,0.0,5884047.46969,678.182239503,644.461991357,67069754.2687,1628.05646569,69979074.518,70645239.9486,4160.34122643,4151.99874347,0.0
1.07702029923,1.1397468048,9.91389002363e-06,-30338628.1654,1.3372651831e-05,0.0,5772204.37467,680.207585953,649.179438043,66846402.2149,1728.2765529,35350552.9092,69499683.157,4470.7112621,4461.53942233,0.0
1.23801228328,1.09462265101,1.01468821789e-05,17250159.1911,2.52195718026e-05,0.0,18790114.5668,690.017277918,659.493727778,64966947.8843,1925.8461164,61832390.5612,66994513.5148,5138.9889879,5126.89020955,0.0
1.08843899187,1.01275672109,1.04581800117e-05,-25397725.3018,1.64086487357e-05,0.0,5744053.52787,680.647989698,650.018965261,66782661.2013,1745.55834031,36305357.2238,69067048.0456,4518.11025525,4509.59240344,0.0
0.983249489908,1.18075556871,9.91730928068e-06,-95187045.5252,1.15830254034e-05,0.0,6015005.49847,680.39526571,643.268442038,67433330.6915,1611.859942,70076738.4993,70317886.847,4081.46863261,4074.37496145,0.0
1.16489560931,1.09911898989,9.63233069622e-06,-897937.224655,1.88556482829e-05,0.0,5463170.88576,685.804380136,654.919967381,65950202.1449,1839.02190218,49683213.4847,67997085.9235,4835.48167425,4824.41959821,0.0
1.06488288489,1.02345358337,1.02403852154e-05,-36133557.4462,1.45210419366e-05,0.0,5808257.69008,679.382740905,648.460400552,66951671.8031,1714.17734673,34665271.8878,70036020.8339,4420.32885518,4411.98391023,0.0
1.06922571874,0.898389965434,1.01342556225e-05,-33383670.8574,1.60370376039e-05,0.0,5790103.34076,679.714668276,648.71994833,66897285.9586,1719.43434281,34877157.2115,69740853.3644,4438.35595849,4429.84970718,0.0
1.05355426302,0.855938007059,1.01237463086e-05,-42039106.5139,1.58145579546e-05,0.0,5796223.60141,678.934091124,647.7022651,66901612.0435,1697.30716443,35147826.3249,69984274.5945,4373.3037458,4364.51851559,0.0
1.10841276892,0.743511910728,1.03163437907e-05,-17146484.9435,2.11648519441e-05,0.0,5636343.03959,682.068843114,651.301427703,66459702.0259,1769.78301492,40022837.1903,68948841.3771,4601.02140379,4591.60691779,0.0
1.02150739811,1.12681916396,1.01392867759e-05,-69146385.6401,1.25598447131e-05,0.0,5877585.8083,677.658802035,645.692107754,67101533.4105,1654.55718266,48830733.5162,70735842.1548,4240.27720955,4231.95285483,0.0
1.16091039233,1.20081369062,1.00556614946e-05,-2560080.48383,1.76102870786e-05,0.0,5475686.04059,685.271241343,654.67149191,65966542.0172,1834.39655129,48317835.8477,67733939.6139,4818.93903856,4808.07468817,0.0
1.10645358308,0.891431841354,9.87467823554e-06,-18776098.8454,1.83852318723e-05,0.0,5648654.43085,682.232953936,651.197772008,66489378.945,1766.05808887,39319553.7876,68788295.8974,4592.88882337,4583.02237053,0.0
1.11581710324,1.22977858584,1.02740871269e-05,-15603110.7085,1.53693260052e-05,0.0,5656287.9991,682.249894447,651.721288812,66515369.7932,1779.14806504,40951568.1323,69213861.0257,4631.75679555,4622.21830801,0.0
1.0725976875,1.00950513361,9.8379556181e-06,-33335874.6914,1.48458733934e-05,0.0,5811080.56094,680.060197857,648.931612339,66972566.9655,1724.47340506,34886322.5476,69942367.6249,4452.35300081,4443.98486171,0.0
1.13755751926,0.950752714876,1.03261250877e-05,-10071561.0037,2.15795812081e-05,0.0,5599771.23241,683.699362617,653.162631278,66387784.663,1809.15420161,44180694.8024,67968038.9841,4722.00126245,4712.82574219,0.0
1.22374893863,1.08538226397,9.9903580137e-06,13495850.2749,2.39157384198e-05,0.0,14798033.8215,689.2441304,658.593244509,65105205.9897,1909.2214726,58846395.6252,66511406.3714,5079.78184425,5067.60910675,0.0
1.12109136901,1.01033461243,9.88822724638e-06,-14569734.8698,1.8285391351e-05,0.0,5607525.0167,682.983083403,652.056204558,66374385.2397,1784.83337686,41563419.8693,68456252.94,4653.65027276,4643.53154775,0.0
1.19517640091,0.66186806794,9.56191229985e-06,6292754.97969,3.0624299539e-05,0.0,7904665.80043,688.120350493,656.790707666,65353380.1677,1876.88765106,53549386.7582,66663831.0683,4961.17724018,4949.43511453,0.0
1.15686936666,1.08746429188,9.87810524738e-06,-5149677.78044,2.03143083723e-05,0.0,5561922.95522,685.120847349,654.408762913,66279030.0098,1833.27480412,47153187.4238,68651673.216,4802.16474101,4792.55851193,0.0
1.03544202041,0.829328966101,1.04632717159e-05,-53079915.6562,1.55183255166e-05,0.0,5813494.17129,677.881210395,646.549771507,66934950.2806,1673.12460774,38836592.134,70804162.4572,4298.11982672,4289.48425986,0.0
1.116179508,0.994353852144,9.677469541e-06,-16377581.2202,1.77504370805e-05,0.0,5640756.62091,682.832708213,651.768735544,66482464.6079,1778.88511165,40693882.4487,69356136.1363,4633.26113771,4623.32468611,0.0
1.06583501365,0.995270494809,1.02769979347e-05,-35554914.4768,1.49162645574e-05,0.0,5802504.84595,679.421363149,648.522287757,66935984.9123,1715.43518066,34650323.3725,69926558.7785,4424.28114166,4415.92144224,0.0
1.06772514729,0.923506058043,9.62104175005e-06,-35049159.5268,1.50444349018e-05,0.0,5794373.12491,680.041669609,648.631844025,66891248.0834,1716.28329009,34632688.416,70393669.452,4432.1270864,4423.10861694,0.0
0.9528990073,0.894848279248,9.86779971658e-06,-93647495.1813,1.4466420276e-05,0.0,6085245.6871,685.979175037,641.31972967,67624997.6556,1613.14313342,68721470.3037,68942167.5781,3955.4837793,3949.21310941,0.0
1.14766044723,1.16996198021,9.68192077422e-06,-6920265.27645,1.78739143349e-05,0.0,5576321.80946,684.581129398,653.763017525,66311131.2304,1819.90406269,46472490.2294,68741601.1982,4763.93851645,4753.94573443,0.0
1.01287441986,0.894625357362,1.03516112134e-05,-78522073.9059,1.42795400452e-05,0.0,5931799.13826,677.313435236,645.160312389,67245846.0933,1645.72047128,55990812.7422,70705792.2759,4204.44171684,4197.35103319,0.0
0.972346433092,1.02867083721,1.00418757233e-05,-94369048.6303,1.35838912859e-05,0.0,5990470.44935,682.607990342,642.557080204,67352585.1154,1612.29152093,69356762.7678,69588643.9604,4036.21004376,4028.73721448,0.0
1.07187282671,1.12799100561,1.00487758517e-05,-32584105.6983,1.36496105881e-05,0.0,5801651.85137,679.803807322,648.863739456,66936507.0973,1722.74859007,35055200.9048,69699789.3926,4449.34410367,4440.79776799,0.0
0.962109696263,0.764677324772,1.00514496356e-05,-93957869.1212,1.55186851799e-05,0.0,6050140.08515,684.316469009,641.911417165,67535884.8416,1614.03971648,68994739.1687,69220180.1902,3993.71734919,3987.322771,0.0
1.14845362524,0.868204829168,1.01839975061e-05,-6166205.25056,2.3818447498e-05,0.0,5561177.6256,684.503253364,653.877388922,66260945.0563,1822.82395109,46600714.7235,68719676.0691,4767.23099837,4757.85785442,0.0
1.1563461921,0.871550589348,9.98363148947e-06,-5223107.66615,2.43619802267e-05,0.0,5546294.54324,685.013556725,654.284755076,66238973.1888,1833.11369157,47069746.1363,68552412.8095,4799.99304341,4790.48975525,0.0
1.03768379382,0.976543895918,9.70760474672e-06,-56727459.73,1.4051049797e-05,0.0,5901648.51644,678.526828167,646.749711105,67210547.5231,1678.88925656,40893833.2332,71132730.9497,4307.42542815,4299.98162536,0.0
1.19236282277,1.08390807559,1.01859607112e-05,6285070.79936,2.16847536522e-05,0.0,7759152.20017,687.209144365,656.63313132,65465599.239,1871.95626202,53213037.084,66573976.8246,4949.49807732,4937.84129099,0.0
1.11761153538,0.9664772951,9.59914357952e-06,-16025411.1698,1.81647044675e-05,0.0,5650666.92249,682.959376578,651.852751279,66507686.6078,1781.35686368,40788435.0259,69450636.9895,4639.20548336,4629.44010064,0.0
1.02713282889,1.15955357193,1.04541914173e-05,-61173252.3322,1.20531049565e-05,0.0,5839096.03174,677.464626963,646.039635011,66999679.6677,1660.93079837,43366775.7171,70553972.9148,4263.62837272,4254.78964,0.0
1.02769369323,0.868870622065,9.97791936889e-06,-63858394.1025,1.4836727955e-05,0.0,5863406.46342,678.058716045,646.083600423,67066036.1662,1663.44072833,45148148.7922,70915669.4412,4265.9565206,4257.64685956,0.0
1.12977309832,0.963508158652,9.90385743352e-06,-13277360.4798,1.99418975348e-05,0.0,5559055.99392,683.613357409,652.637675303,66240663.1149,1795.9951109,42284454.6142,67469670.2601,4689.68813113,4679.30741205,0.0
1.0539298989,0.807453082424,9.55519107698e-06,-42947538.9723,1.56412893912e-05,0.0,5835464.98858,679.529229761,647.842532848,67009284.5838,1698.87925341,35375500.1634,70742602.7651,4374.86301033,4366.4120703,0.0
1.15970995266,1.11423392711,1.00951236448e-05,-1688803.04099,1.88164731978e-05,0.0,5475480.32145,685.199607759,654.598345783,65968358.1913,1833.02862285,48919726.556,67915578.7003,4813.95601349,4803.20363131,0.0
1.15567469888,0.724304879924,9.61635970206e-06,-5017060.92171,2.66517799502e-05,0.0,5541341.91973,685.409807983,654.34016851,66226134.1082,1832.14625704,47514354.4389,68711905.9323,4797.20567505,4787.59508654,0.0
1.02141378611,1.0076546011,1.00056897948e-05,-70075888.6997,1.33885210865e-05,0.0,5932446.76289,677.73336434,645.707842983,67276266.7931,1657.21243128,49520402.8179,70803336.8658,4239.88862614,4232.67655344,0.0
1.04459562672,0.867999810934,1.00072623843e-05,-49253502.8343,1.53609371722e-05,0.0,5821888.38715,678.681872666,647.162298444,66969138.4502,1685.81333943,37177091.1587,71054186.3698,4336.11644651,4327.50835477,0.0
1.1149978685,1.01033845887,1.0070460859e-05,-15863804.028,1.78360027029e-05,0.0,5650390.63338,682.431943032,651.674893132,66509166.9423,1778.05434405,40732538.5691,69410161.9309,4628.35615214,4618.83167257,0.0
1.02458444721,0.860807842438,1.02433922172e-05,-65335674.0076,1.49149213089e-05,0.0,5851212.56914,677.716002422,645.878749382,67029618.8764,1658.88124948,46129569.5809,70827447.6009,4253.05004037,4244.67632484,0.0
1.14059597623,0.909551669903,9.63476372559e-06,-9922117.49233,2.12468786431e-05,0.0,5593110.33791,684.383247851,653.368088973,66362498.6945,1812.10560764,44592296.6755,68010291.1373,4734.61389733,4724.94537849,0.0
1.25826089275,0.871213786726,9.99552182343e-06,21140383.2971,3.25042412376e-05,0.0,23037789.696,691.620107435,660.721521061,64486838.3727,1949.00411998,64909265.0625,65739581.8156,5223.04096581,5210.2438885,0.0
1.14769863924,1.01386530061,9.99937947755e-06,-7429452.50017,2.04934153659e-05,0.0,5534551.29178,684.422998418,653.691192556,66178493.1155,1819.78507909,45748767.2653,68600089.953,4764.09705149,4753.89485717,0.0
1.008270835,0.719133006544,1.01263212501e-05,-86374229.0374,1.59879451136e-05,0.0,5866275.8833,677.860342437,644.847446129,67024655.816,1636.11886034,62444955.3366,70662578.1516,4185.33223608,4176.88906333,0.0
1.07227845086,1.03448266544,1.00784677512e-05,-32231496.4578,1.46575376554e-05,0.0,5793587.00627,679.828398741,648.878308068,66913213.6803,1723.35414524,35094760.3613,69628051.486,4451.02784952,4442.47366168,0.0
1.14599530776,0.936320714555,9.92811994491e-06,-8440515.23724,2.2062182946e-05,0.0,5589363.78444,684.429593476,653.657452781,66357573.9861,1820.05804125,45253975.9624,68398185.2109,4757.02652251,4747.6915123,0.0
1.10626156153,0.900046778274,1.02662513019e-05,-17942716.7867,1.85396419299e-05,0.0,5661197.69054,681.895595822,651.17844742,66531297.1148,1766.80169906,39682799.0401,68853638.4379,4592.09174191,4582.71357032,0.0
0.930558922204,0.853203815755,9.84307089649e-06,-92579049.2166,1.50137835895e-05,0.0,6130826.30695,689.51974124,639.879233467,67732372.2709,1609.88570623,67781025.7144,67988733.87,3862.75008607,3856.80599896,0.0
0.988358720834,0.974178961407,1.01487514619e-05,-95055978.087,1.39179795132e-05,0.0,5931634.4105,679.651059571,643.581349698,67193601.5398,1611.44894608,69961684.5152,70203961.124,4102.67705018,4094.63678909,0.0
1.23841921044,1.05173699358,9.51416810835e-06,16693499.2049,2.50686370154e-05,0.0,18163571.3341,690.380398019,659.5242465,65077919.4322,1927.48594612,61529714.1447,66968760.297,5140.67814254,5128.58846838,0.0
1.04650412285,0.827473201125,1.04275281251e-05,-44767896.7396,1.55726629382e-05,0.0,5811039.94221,678.388399508,647.283240606,66936910.7002,1688.74014399,35727580.4098,70330021.7562,4344.03861395,4335.54569269,0.0
1.11872661294,0.981174184205,9.63844271679e-06,-15017658.0598,1.83115997199e-05,0.0,5699772.29067,682.894876811,651.931793433,66669669.4263,1784.73193174,41437349.6661,69493837.3811,4643.83417031,4634.87361194,0.0
1.22294156848,1.01006360727,1.00281805248e-05,13417692.6387,2.53376719533e-05,0.0,14695830.6707,689.225888623,658.541962185,65084923.7713,1908.40204998,58744792.4203,66471964.2793,5076.43045076,5064.30046757,0.0
1.07352876423,0.985432392076,1.00936452989e-05,-31611075.4064,1.53070520991e-05,0.0,5786208.27459,679.901014046,648.950177578,66893740.2571,1725.03393992,35169257.3037,69519472.0676,4456.21790032,4447.64552733,0.0
1.05351170104,0.746438373173,9.32501056413e-06,-47287291.039,1.68510471765e-05,0.0,5811422.05982,679.703221449,647.723832392,66944541.7058,1697.17762818,36682786.844,70576780.9277,4373.12707102,4364.19409861,0.0
1.17228415838,0.709101035696,9.86986788686e-06,1668245.24728,2.71921104564e-05,0.0,5420854.02396,686.319280364,655.384569604,65812363.9057,1850.18869858,50958384.006,67539097.9796,4866.15154144,4855.58596076,0.0
1.15608027651,0.894562482299,9.84297601521e-06,-5523481.94237,2.34879456963e-05,0.0,5548390.27358,685.204524493,654.361158486,66235608.4879,1832.65123809,46934673.7745,68606801.1719,4798.88922779,4789.29598763,0.0
1.11574607878,0.959559389562,9.74870689491e-06,-16324967.3012,1.8203424639e-05,0.0,5636090.44163,682.782367053,651.739846868,66467534.6017,1778.33958294,40664190.3116,69336085.1225,4631.46197302,4621.53296978,0.0
0.992759326903,1.02464547737,1.02629539964e-05,-95225452.3402,1.34439382915e-05,0.0,5919011.72663,678.747372917,643.861246955,67166224.5728,1615.41266625,70110907.7079,70339339.2174,4120.94396597,4112.83321086,0.0
1.02993807656,0.932604990208,1.05109988901e-05,-58978271.0175,1.44642978111e-05,0.0,5812021.41594,677.611328656,646.20920269,66921815.0371,1664.72422189,41968758.366,70525091.9626,4275.2729558,4266.38751832,0.0
1.05959807278,1.06718050216,9.83055298444e-06,-39020462.0031,1.35569025478e-05,0.0,5836937.31489,679.369588406,648.118337027,67027869.3854,1706.63470818,34781773.1928,69940278.0506,4398.39160011,4390.03580757,0.0
1.10679684338,0.902545938836,1.00518909243e-05,-20388454.6594,1.88198717001e-05,0.0,5697760.08976,682.108394789,651.241196783,66658008.891,1769.40929664,38267428.9218,68758076.6831,4594.31369687,4585.41005981,0.0
1.07942245355,0.718678572732,9.9252671384e-06,-28659041.4606,1.83919032937e-05,0.0,5732067.74487,680.703590864,649.463439091,66719238.0586,1731.80166961,35716773.5528,69333967.5372,4480.68260469,4471.51274285,0.0
1.02261510461,1.03729430536,1.00052453385e-05,-68626556.4197,1.31255150773e-05,0.0,5930977.51775,677.749029532,645.784909262,67275087.9333,1658.79795963,48471087.9245,70918881.8941,4244.87529924,4237.64611808,0.0
1.16064270555,0.792023370817,1.00754198321e-05,-2393307.08886,2.42350595917e-05,0.0,5428858.94249,685.509207318,654.651812582,65821721.4484,1834.602407,48335679.0019,67582887.4269,4817.82787074,4806.96829579,0.0
1.0602544818,1.13417214304,1.02224313662e-05,-38321917.3867,1.31389886464e-05,0.0,5826984.41892,679.097937674,648.157207826,66999681.5183,1707.93841215,34699572.9771,69924194.926,4401.11635395,4392.84297958,0.0
1.06490379722,0.895497821847,9.93576212417e-06,-36904292.3854,1.56379952653e-05,0.0,5808658.54609,679.656646288,648.45859532,66953201.5245,1713.96138928,34651806.1829,70146057.9678,4420.41566226,4411.97679325,0.0
1.06922467602,1.13547113874,9.92898780699e-06,-35026453.0699,1.33486174529e-05,0.0,5813345.20031,679.804053139,648.740916456,66965218.2714,1719.45119933,34741766.4589,70057556.2602,4438.35163016,4429.84510231,0.0
1.07689824814,0.730382721368,9.67245870039e-06,-32013837.1689,1.8346135053e-05,0.0,5788506.81216,680.503806668,649.179555003,66907876.8306,1730.32419122,35113691.7177,69734672.4253,4470.20462803,4461.76999216,0.0
0.972857343897,0.915306040796,1.03772808638e-05,-94346427.5222,1.43907616846e-05,0.0,6017302.91463,681.879681553,642.600703427,67459275.7877,1613.34346151,69336952.6234,69568659.2267,4038.33083452,4031.79016973,0.0
1.06809791893,1.18930300176,9.87521831163e-06,-35741701.1065,1.27976138785e-05,0.0,5821112.34499,679.762517427,648.667146239,66996890.3823,1717.94488376,34711030.4462,70186434.149,4433.67446148,4425.18559832,0.0
1.2366279327,1.1688119045,1.00677900121e-05,16885852.5424,2.36406083547e-05,0.0,18462784.4385,689.821855304,659.366902875,65110837.5798,1924.88136627,61662590.6873,66999203.2881,5133.24254864,5121.39825646,0.0
0.962688989822,0.815801497283,1.02392152981e-05,-93865576.3476,1.50306586101e-05,0.0,6027932.20982,683.79902463,641.942999039,67468855.4754,1611.9842142,68913486.8352,69138944.8311,3996.12199675,3989.42717702,0.0
0.979564297153,0.727989698441,1.00718690578e-05,-94738036.2363,1.55737245109e-05,0.0,5994494.9829,681.341257665,643.030708501,67380273.0039,1614.03814172,69681488.5971,69918815.8898,4066.17139748,4059.20646475,0.0
1.13381644663,0.883645030103,9.81693701468e-06,-11172249.8292,2.12142173335e-05,0.0,5598111.58462,683.889418499,652.932947457,66365789.5363,1803.06933612,43674336.5787,67599308.0705,4706.47206996,4696.81103071,0.0
1.04533356398,1.02625461902,9.70737250106e-06,-50029293.4526,1.36764670097e-05,0.0,5836361.06089,678.878880492,647.196751142,67012581.5975,1686.17246322,37595004.7282,71118686.0012,4339.17962408,4330.38298793,0.0
1.06799109404,1.11962622154,1.00120337095e-05,-35249675.8257,1.34721668464e-05,0.0,5812201.24713,679.680895537,648.660754837,66960972.0909,1717.84865214,34708902.3431,70061059.1943,4433.23103136,4424.74384217,0.0
1.20559825251,0.906657718361,1.01420769506e-05,10004056.5448,2.60992069609e-05,0.0,11345986.9805,688.094237752,657.390714356,65228251.3772,1887.75915366,55956569.5983,66859525.7569,5004.43834617,4992.53015282,0.0
1.07694506312,1.00604536166,1.00587763404e-05,-30665781.216,1.52828159213e-05,0.0,5786717.21712,680.30321517,649.311505778,66898158.0264,1730.17963305,35364381.6063,69314383.9198,4470.39895701,4461.96359608,0.0
0.979688646414,1.05599212143,1.03361155646e-05,-94842207.2631,1.31835774752e-05,0.0,6011613.38555,680.412115786,643.041359621,67443516.3086,1611.73111811,69773471.998,70009617.0366,4066.68757126,4060.06182841,0.0
1.11463780565,0.886762575185,9.98066021402e-06,-16241639.9457,1.94266557041e-05,0.0,5666081.5078,682.530716115,651.674707909,66556168.6033,1778.65934849,40666943.3108,69305132.264,4626.86153125,4617.64254961,0.0
1.08873480604,0.823847870688,1.00925205418e-05,-26191679.3471,1.83246624168e-05,0.0,5740756.89945,681.031135813,650.065585197,66775513.8858,1745.77660404,36153141.616,69209393.1336,4519.33817987,4510.71940906,0.0
1.10104319217,0.944484507739,9.71639045821e-06,-22856306.0481,1.74159849083e-05,0.0,5727494.64334,681.983495377,650.879655076,66741112.1719,1761.57524365,37278946.8441,69083524.9015,4570.4302907,4561.51902339,0.0
1.0084977118,0.934820736662,1.00887089127e-05,-86534909.1532,1.42674780421e-05,0.0,5879145.89315,677.829729255,644.862974647,67063971.2419,1636.27796647,62601726.7086,70700320.7441,4186.27400168,4177.8271135,0.0
1.12015898847,1.03838904315,9.60440359285e-06,-17561459.4132,1.78850572672e-05,0.0,5694208.30076,683.07124141,652.032171927,66665695.8325,1787.01997307,39967129.502,69381974.3207,4649.77996114,4640.76633205,0.0
1.21492520772,0.801486646474,9.82528796844e-06,11945192.2867,2.86614856697e-05,0.0,13248196.4131,688.910706676,658.018635316,65256464.4758,1900.71683964,57548498.2272,66314316.8598,5043.15453725,5031.61899532,0.0
1.22510953678,1.04348678179,9.87677142267e-06,13943487.9927,2.45518179079e-05,0.0,15326615.2361,689.372114778,658.695171359,65209416.4791,1912.02097661,59255281.4723,66654006.8572,5085.42968717,5073.68151905,0.0
1.09196273504,1.06740908509,9.88803134963e-06,-25797489.6165,1.54645118668e-05,0.0,5757800.00037,681.232051439,650.254061141,66830459.7814,1749.80302918,36352499.1249,69313809.3627,4532.73731315,4524.06804474,0.0
1.05426469809,0.959202647318,9.75050912857e-06,-44892380.1665,1.46452130408e-05,0.0,5810263.12215,679.306698931,647.773362245,66940642.312,1698.18299198,35797962.245,70507911.6685,4376.25276177,4367.30721925,0.0
1.08297988575,0.985847592728,9.77267776988e-06,-29254964.6386,1.57513968858e-05,0.0,5781302.60007,680.881241941,649.720419678,66898293.3833,1738.11699988,35731588.3044,69390062.5813,4495.44950575,4486.9204648,0.0
1.10058664039,0.898229481366,9.82941401209e-06,-22854363.8713,1.81039796155e-05,0.0,5726054.38576,681.90468332,650.855859923,66742820.3412,1761.35839439,37246473.9326,68980832.7904,4568.53514426,4559.73026082,0.0
1.10747016943,1.06938508625,9.912244269e-06,-18426640.9435,1.63039594905e-05,0.0,5658625.85579,682.173983804,651.25677229,66522460.7024,1767.18369287,39521964.0423,68890175.5439,4597.1086733,4587.22471952,0.0
1.00962175789,0.849743893786,9.77071316458e-06,-86595218.9455,1.45447270446e-05,0.0,5964754.62195,678.022280448,644.961520146,67332651.271,1641.4051744,62657359.6453,70978528.9532,4190.939917,4183.89485989,0.0
0.993757857639,0.951579604449,1.00082874898e-05,-95337642.7173,1.40074697965e-05,0.0,5919863.07614,679.120950878,643.924656914,67165063.7582,1616.56500756,70209599.011,70483281.3883,4125.08886706,4116.88179577,0.0
1.01364308572,0.830705243826,1.03676730665e-05,-77413962.885,1.47680729542e-05,0.0,5926547.63194,677.322858997,645.20504838,67230880.9466,1646.79315814,55104115.2745,70663014.1712,4207.63244882,4200.53089984,0.0
1.11690020093,0.835005834171,1.03577798532e-05,-15022502.9485,2.05972152604e-05,0.0,5616248.05533,682.462812596,651.790009196,66395942.8865,1780.87391601,41192516.1705,68790046.3412,4636.25273406,4626.69622622,0.0
1.14110441907,1.08662216426,9.92971478918e-06,-8789496.66878,1.91953253287e-05,0.0,5611248.85466,684.076280172,653.378435846,66430091.5334,1813.04569177,45317883.3547,68258049.4847,4736.72444356,4727.36307865,0.0
1.09918871493,1.13442476344,1.04346996085e-05,-20490917.3695,1.53492546991e-05,0.0,5658927.99366,681.33241025,650.745201021,66501594.756,1756.21898269,38375671.5801,68398774.5078,4562.73235567,4552.89814446,0.0
1.12318280088,0.866207637837,9.85096208999e-06,-13996076.1688,2.0357826376e-05,0.0,5644032.69965,683.140335592,652.211276236,66498202.0095,1789.81354708,41858822.698,68732675.227,4662.33180645,4652.97393018,0.0
1.1036414361,0.789055732172,9.70686133665e-06,-20728959.6439,1.96149525235e-05,0.0,5635313.8957,682.294647148,651.034680202,66442863.3991,1761.95972073,38454378.8701,68470640.214,4581.21560125,4571.11428504,0.0
1.05664402801,0.992283628151,9.92665523952e-06,-41835444.9953,1.43463611333e-05,0.0,5816262.51789,679.203602102,647.904065857,66963343.6095,1702.07683087,35115448.0182,70112972.0387,4386.12936027,4377.47249377,0.0
0.908338894252,0.850002689331,1.01801391115e-05,-91441795.1297,1.38581526686e-05,0.0,6110544.65264,691.08987585,638.429395098,67621507.4099,1595.06313275,66780091.7005,67621507.4099,3770.51475004,3763.74212761,0.0
0.994880558679,0.748670662342,9.40000948592e-06,-95605830.4559,1.58061673206e-05,0.0,5996199.24462,680.546065104,644.024239897,67402888.8777,1622.05984952,70445377.9415,70698454.5674,4129.74919908,4122.73314178,0.0
1.08629636857,0.96603254184,1.03498515198e-05,-26426455.3565,1.67142699001e-05,0.0,5751373.75806,680.65833983,649.917237052,66800054.0579,1742.78385439,36053237.4452,69164707.447,4509.21622593,4500.7330428,0.0
1.23962275858,0.955191067416,9.59187645028e-06,16998771.6239,2.71478681176e-05,0.0,18511297.9185,690.464703052,659.56190813,64973943.1281,1928.65598644,61700514.3787,66954760.0836,5145.67407087,5133.44872241,0.0
1.05683864985,0.963551011188,1.0354966352e-05,-39350971.5787,1.47754653551e-05,0.0,5819305.41139,678.879034126,647.936952851,66971895.9651,1703.52169856,34758532.0563,69662013.4907,4386.93723553,4378.71796917,0.0
1.15713722029,1.0220639022,1.04891041897e-05,-4947723.53428,2.24184763918e-05,0.0,5411980.21427,685.01976059,654.42189211,65785993.8309,1829.76406044,46553807.493,67877805.7602,4803.27660142,4792.18170533,0.0
1.15739604425,1.22657507177,1.00096331104e-05,-3608773.87563,1.84585280199e-05,0.0,5554986.38124,685.056166045,654.481902643,66251984.6827,1832.97437128,48039718.6157,68528657.4829,4804.35097968,4794.61813193,0.0
1.07555451182,0.982389027397,1.02109195259e-05,-31768397.9894,1.5759157131e-05,0.0,5789047.55383,680.12965034,649.226335782,66917557.7282,1728.98661835,35020166.9532,69414551.6266,4464.62677856,4456.40543149,0.0
1.09986660915,1.04845215086,9.85436626607e-06,-23066055.281,1.61846840143e-05,0.0,5738270.04197,681.765370135,650.803514079,66780044.1098,1760.27800091,37185450.2114,69134703.169,4565.54629458,4556.75275767,0.0
1.13812427622,1.08457497504,1.03156757367e-05,-9978309.18978,1.94837993953e-05,0.0,5609939.25752,683.674768479,653.196332165,66419813.8736,1809.74430765,44262094.0238,68029893.7766,4724.35387059,4715.16935461,0.0
1.19111270468,0.754171076327,9.97231630624e-06,5879868.89562,2.81852300708e-05,0.0,7447407.62709,687.507389343,656.53471812,65380541.7909,1871.24324203,53078391.9144,67246337.0809,4944.30883713,4932.64869215,0.0
1.19354200062,0.926465752027,9.85289487467e-06,6098865.5062,2.42834812879e-05,0.0,7648761.47558,687.586888979,656.699990272,65457312.2562,1874.00490585,53282865.1664,66683706.7063,4954.39284457,4942.70759983,0.0
1.05099758404,1.01609304575,1.01031908931e-05,-44124231.7673,1.40905892113e-05,0.0,5813710.15787,678.795255528,647.55950938,66951102.3658,1693.9640679,35590424.7612,70488087.5042,4362.69097135,4353.9458275,0.0
1.12979032138,1.01470007542,9.50839314265e-06,-12814384.2965,1.85311840787e-05,0.0,5615711.52555,683.767798836,652.638097897,66417579.7037,1796.91415068,42701138.9786,67787853.4664,4689.75962405,4679.7620763,0.0
1.20766588671,1.12876054797,9.80700978546e-06,10481898.7485,2.16101659286e-05,0.0,11849332.4356,688.158717978,657.544951339,65563651.1968,1891.9429792,56518443.0678,67258809.3635,5013.02109573,5001.83931881,0.0
1.08987434681,0.836598875511,9.8031152924e-06,-26489728.4072,1.79523084219e-05,0.0,5753179.06829,681.313289886,650.154091404,66809502.8649,1747.4061519,36199136.4125,69350077.6276,4524.06841361,4515.43172108,0.0
1.15017721266,0.897043068379,9.86734967433e-06,-7416347.62229,2.30640244893e-05,0.0,5574193.83217,684.788927504,653.965774194,66315110.9104,1825.42063207,45883689.9424,68655562.0389,4774.38560975,4764.98191601,0.0
1.02656063824,0.746643031375,1.00915475018e-05,-63836833.2272,1.57704050697e-05,0.0,5853690.69682,677.953546142,646.010187415,67038066.4595,1661.95686365,45125503.9763,70842683.8784,4261.25320933,4252.93335825,0.0
1.12523022241,0.775716346697,9.89291405542e-06,-11571163.3343,2.05971686452e-05,0.0,5583292.47833,683.310174767,652.341725016,66286238.9989,1790.213716,43262403.7387,67850738.8964,4670.83065322,4660.70706441,0.0
1.01417950872,1.16526494146,9.99547955152e-06,-76074615.7473,1.2026444985e-05,0.0,5909342.75593,677.722786934,645.220347592,67163706.5436,1645.07451138,54084561.8248,70675766.8263,4209.8591407,4201.73593845,0.0
1.18040961612,1.05441157956,1.03840407251e-05,3912919.78581,2.15095453102e-05,0.0,5781493.8395,686.278236887,655.842889056,65670170.0943,1858.45974093,51848544.9625,66925701.4243,4899.88031651,4888.85162804,0.0
1.19768949315,0.82652124984,1.02134285776e-05,8450213.03329,2.71432076063e-05,0.0,9899175.96453,687.650048381,656.96746646,65391635.2577,1879.45645897,54904253.6995,66575118.422,4971.60908607,4960.28550786,0.0
1.20524599531,0.847028365748,1.02979042925e-05,10208313.835,2.76617897768e-05,0.0,11510650.297,688.040525919,657.3667024,65171738.9151,1887.24798089,56041931.4707,66806789.0644,5002.97612653,4991.06103352,0.0
1.08565068771,1.03372036325,1.00026903447e-05,-27586404.8822,1.54959294171e-05,0.0,5767896.07168,680.852614553,649.891969521,66853506.7376,1741.57404515,35912517.4833,69330137.4648,4506.53600468,4497.96536883,0.0
1.0830838991,1.27276041492,1.05436484528e-05,-26982409.9554,1.32718129397e-05,0.0,5770947.42645,680.227819144,649.7196658,66858279.1081,1738.35573194,35898929.7867,69174639.0383,4495.88126516,4487.44674695,0.0
1.13943667102,1.09681134945,9.88957706099e-06,-8928470.02308,1.85571276693e-05,0.0,5594040.29768,684.031400595,653.28023367,66363713.0657,1809.73502879,45249843.8981,68183129.474,4729.8016214,4720.05038618,0.0
1.09933093702,1.02774729775,1.00475245518e-05,-22887290.6648,1.66814192338e-05,0.0,5726869.33697,681.625336418,650.778220582,66734811.7828,1759.43518989,37191104.9897,68787739.9455,4563.32271957,4554.5377319,0.0
0.92361454805,0.851102519306,1.0532507365e-05,-91958374.5983,1.44723704062e-05,0.0,6083684.71343,688.683256845,639.416647439,67573988.6564,1600.39390295,67234854.04,67573988.6564,3833.92398896,3827.47369473,0.0
1.10147357127,0.967212371436,1.01940972082e-05,-21838144.9286,1.77589786852e-05,0.0,5709564.45476,681.68603794,650.918624069,66688933.1372,1762.27133677,37580532.0321,68534192.8539,4572.21679434,4563.39803862,0.0
1.02717054939,1.09575965913,1.02517437706e-05,-61642604.5657,1.26765331717e-05,0.0,5863654.00125,677.680466129,646.052224279,67069309.5183,1662.34524292,43698423.1867,71000059.9998,4263.78495052,4255.36934404,0.0
1.15631479219,0.845410330903,9.68306667192e-06,-2809956.78589,2.23665319644e-05,0.0,5508585.39308,685.177424529,654.2688102,66090536.1952,1830.06203898,48748413.0314,68458166.2069,4799.86270238,4789.47063584,0.0
1.2408403132,1.02441468706,9.78941922534e-06,17353225.2858,2.63359572619e-05,0.0,18904747.232,690.393376856,659.596692123,64853281.9815,1928.77130174,61928039.2597,66918461.3922,5150.72814009,5138.13981151,0.0
1.02739011462,1.01558491229,9.70371146345e-06,-65661718.0461,1.34328846806e-05,0.0,5929813.17827,678.16885758,646.086375589,67277686.2067,1665.13235616,46415044.9971,71090969.2411,4264.69636579,4257.39901114,0.0
1.09012728747,0.732175824214,9.90946349466e-06,-26251637.1213,1.9636057265e-05,0.0,5737729.16113,681.280271647,650.15298568,66765266.7158,1747.70503051,36208775.7813,69254941.1882,4525.11837029,4516.47720246,0.0
1.03692898873,1.01617511239,1.05763441143e-05,-51416291.5724,1.39387651551e-05,0.0,5816724.34955,677.783234453,646.649899228,66950794.5251,1674.98395407,38098958.0699,70595822.2509,4304.29223222,4295.63237126,0.0
1.23282575887,1.02926101267,9.88989016099e-06,15769920.1187,2.54974297196e-05,0.0,17209551.3063,689.881615385,659.187936419,65044567.903,1920.19429556,60716945.5099,66769221.9035,5117.45972507,5105.36414824,0.0
1.07044652394,0.985914577068,1.0048166465e-05,-33978679.8075,1.50337845328e-05,0.0,5796004.97351,679.82779698,648.803085867,66916305.4973,1721.16755113,34801608.8309,69789162.5573,4443.42352087,4434.8978206,0.0
1.1339484671,1.09218285985,9.7712715736e-06,-11303508.5769,1.80852625567e-05,0.0,5618550.28998,683.808736857,652.938975029,66428202.3143,1803.03129686,43666228.8791,67651288.1611,4707.02008693,4697.35685698,0.0
1.14751293671,0.807355318925,1.00381064132e-05,-7304469.73681,2.4004351427e-05,0.0,5510932.70611,684.517887113,653.681395843,66105316.0906,1819.7967796,45767571.3586,68529252.0027,4763.32620028,4753.12719464,0.0
1.0666069359,0.885180657582,1.002696084e-05,-34964834.6588,1.59663513936e-05,0.0,5800290.57744,679.672621369,648.570888873,66921778.6147,1716.00335616,34701108.3329,70061268.6913,4427.48539092,4419.02017414,0.0
1.0669357655,0.909680493461,9.89217538993e-06,-36147128.1129,1.55772156209e-05,0.0,5806281.5633,679.794794301,648.591611144,66948911.8352,1716.61890253,34669342.4895,70173229.0956,4428.85036259,4420.37970334,0.0
1.09401450653,0.756379758982,1.03614966891e-05,-23746503.575,2.01208419605e-05,0.0,5714302.12074,681.189319359,650.410396129,66697971.2507,1753.07960308,36744381.0907,68850714.8746,4541.25421661,4532.65067229,0.0
1.1564458805,0.892127676783,1.01573090899e-05,-4967080.6225,2.41240719002e-05,0.0,5534650.97878,685.096966631,654.429132199,66206709.257,1833.21460269,47039670.194,68430602.8005,4800.40684996,4790.90234057,0.0
1.18139605117,1.18701455802,9.86450408361e-06,3294587.08266,1.88693173754e-05,0.0,5411630.08321,686.585775801,655.922481649,65793926.5606,1859.67777266,51769540.0991,66903523.6753,4903.97500841,4892.8173784,0.0
1.10675481957,0.801379835936,1.00614564754e-05,-20374210.5572,2.01993694729e-05,0.0,5688766.47946,682.155171143,651.23803393,66630365.781,1769.44138229,38272684.9423,68728223.0522,4594.13925604,4585.23692777,0.0
1.03784587329,0.991850297154,1.02954758126e-05,-53180114.971,1.38536518529e-05,0.0,5885846.21529,677.986656087,646.739759165,67169121.6586,1679.55974056,39009888.0359,70807252.0522,4308.09822003,4300.7427147,0.0
1.09027217474,0.85834325026,9.89105712986e-06,-25518762.4143,1.74863986575e-05,0.0,5707103.61524,681.288587682,650.147868042,66656285.1827,1745.77957055,36354056.2085,69194840.9782,4525.71979735,4516.30879882,0.0
1.08092002495,0.738111211624,9.80560193543e-06,-29857313.581,1.86597418465e-05,0.0,5772663.45689,680.652824943,649.450620812,66869178.2548,1735.61715431,35567272.4563,69337010.1205,4486.89902357,4478.40200606,0.0
1.22046792469,0.932307260965,9.95222108647e-06,12979799.6291,2.65897525007e-05,0.0,14218572.3796,689.171843475,658.382134669,65086959.1523,1905.62718626,58349136.933,66393582.1756,5066.16235539,5054.05017254,0.0
1.1287782157,0.828243396398,9.81317250008e-06,-12524763.6697,2.15000016874e-05,0.0,5612817.43353,683.575416594,652.592004057,66406084.4671,1796.70998315,42807998.134,67777671.7765,4685.55837337,4676.00708266,0.0
0.985216320899,0.864441808826,1.02666317275e-05,-94881801.1442,1.45958205718e-05,0.0,5929701.957,679.836778756,643.378860747,67183651.5618,1609.78620244,69808369.5772,70049648.5223,4089.63294805,4081.64287268,0.0
1.12275472693,1.00348659087,9.81458820451e-06,-14178323.2232,1.85050323864e-05,0.0,5598515.58354,683.150439716,652.162984875,66358139.0107,1786.78018622,41748046.935,68364850.5442,4660.55487149,4650.30873136,0.0
1.10108453554,1.01486896633,9.52071242758e-06,-23423690.5135,1.64563305031e-05,0.0,5740867.96428,682.071930828,650.870360321,66790334.3228,1761.5877749,37137590.8866,69373352.094,4570.60190703,4561.68843308,0.0
1.16057935156,0.829380917802,9.82384272445e-06,-2877870.55474,2.32695768861e-05,0.0,5445538.09194,685.641126269,654.656066462,65899354.0555,1834.60773758,48233897.1087,67991043.031,4817.56488833,4806.68075444,0.0
1.16787051553,0.915473893044,1.01356318859e-05,1181739.84213,2.26743970994e-05,0.0,5443733.72365,685.738276407,655.109683922,65875783.9346,1843.82011337,50508843.9064,67538428.5571,4847.83050996,4837.23779341,0.0
1.18360416121,0.848886899541,1.05040679222e-05,5486046.8679,2.5826016012e-05,0.0,6985949.03535,686.572928527,656.065530218,65500809.233,1862.24998709,52644043.8026,66629517.3292,4913.14087318,4902.05920362,0.0
1.04276208382,1.04670140152,9.80607815429e-06,-51011459.5999,1.34069123292e-05,0.0,5839978.75323,678.65993698,647.020876916,67020084.1292,1682.76058874,38017904.9676,71026423.9838,4328.50540994,4319.75103449,0.0
0.97260605153,0.804090728813,9.67325683903e-06,-94552011.6256,1.5180563243e-05,0.0,6030720.94409,683.403312302,642.586144523,67472739.3467,1616.43731145,69517658.2617,69750796.5233,4037.2877199,4030.42190559,0.0
1.03018974474,0.619728047911,9.81748783855e-06,-60979096.9524,1.72191016349e-05,0.0,5896956.39325,678.2844257,646.269781196,67182807.3209,1669.13076081,43250756.7245,71022042.8393,4276.31763042,4268.98017845,0.0
1.11326623591,0.821313135655,1.01339206081e-05,-16225362.1079,2.02228105199e-05,0.0,5637061.20682,682.395183006,651.57427875,66466718.5567,1776.00367019,40588306.5137,69261204.8087,4621.16814526,4611.67334436,0.0
1.15319758442,1.01386494756,9.88432508069e-06,-7280751.077,2.13719571574e-05,0.0,5468980.91238,685.081530419,654.147463073,65989795.8982,1825.40498677,45658561.7948,68353168.8923,4786.92317293,4775.99881443,0.0
1.19416331607,0.853442397992,1.01673777822e-05,7179142.74654,2.61720443917e-05,0.0,8618966.81511,687.48166084,656.760617831,65417574.9021,1875.14787873,53862609.2902,66459439.4705,4956.97192501,4945.58391486,0.0
1.16658729104,1.12290682049,9.86341062081e-06,-102595.247407,1.88819496255e-05,0.0,5454235.25556,685.740941056,655.022173697,65917643.103,1841.18075744,50030976.7407,67810166.3647,4842.50384511,4831.5143341,0.0
1.07956910748,0.86861747028,9.66588137682e-06,-30935173.9797,1.67474469415e-05,0.0,5791152.98703,680.609508191,649.35911522,66921306.9444,1733.73293415,35368022.6416,69386119.6263,4481.29136515,4472.81532272,0.0
1.19289479921,0.863239041896,9.55380718951e-06,5893111.14002,2.49484185296e-05,0.0,7500025.40909,687.690496107,656.647604416,65617568.9737,1874.54865106,53454763.1058,66884355.6347,4951.70631152,4940.44216372,0.0
1.20042320469,1.14336340978,1.00868399122e-05,8151071.88772,2.10383821703e-05,0.0,9620251.6624,687.664958863,657.139283268,65516156.0206,1882.61487165,54750947.8856,66738096.7502,4982.95672267,4971.5773766,0.0
1.01993723801,0.836168205852,1.01176261414e-05,-70655847.9524,1.50331990126e-05,0.0,5865076.9666,677.770092007,645.59680998,67058461.4898,1652.6459422,49923288.4963,70911915.3673,4233.75947498,4225.46026251,0.0
1.04577853441,1.10708850314,1.03628160227e-05,-43145508.1397,1.2644696607e-05,0.0,5829533.39361,678.293900509,647.225640394,66977978.5898,1687.10978414,35316929.9163,70298714.4941,4341.02669634,4332.27905478,0.0
1.14881157412,1.05788405652,1.02714796236e-05,-5946442.14907,2.06970488258e-05,0.0,5573876.83425,684.357452342,653.899526703,66300055.7799,1823.06119387,46672827.3793,68702117.0582,4768.71684417,4759.35137421,0.0
1.0802761285,0.982193895727,9.72058451035e-06,-30474283.557,1.55710470845e-05,0.0,5794414.64034,680.568424684,649.4059182,66933613.1898,1734.57227263,35461391.5299,69405367.9528,4484.2262094,4475.73919204,0.0
1.10496924821,0.920525087705,9.591873076e-06,-21947484.43,1.79481193442e-05,0.0,5719473.88344,682.338223469,651.147848949,66721512.4776,1766.73143267,37673052.9194,68626821.5759,4586.72734932,4577.75196256,0.0
0.986685050249,0.843954631003,1.01020572051e-05,-95202469.9041,1.45262656381e-05,0.0,5983204.20412,679.676940299,643.488209309,67350749.5076,1612.1052868,70090483.676,70332228.8042,4095.72964358,4088.66912953,0.0
1.15683535245,0.949241462934,1.03037154652e-05,-2728624.60518,2.14766274344e-05,0.0,5489038.91144,684.972612621,654.425753931,65998106.3589,1830.87829189,48250250.2253,67893636.316,4802.02354802,4791.73542993,0.0
1.04351702815,1.16547192131,9.5636203164e-06,-51877935.2648,1.22823754024e-05,0.0,5890920.77912,678.753229945,647.083052691,67171826.2384,1685.47929948,38437409.6691,71139259.2836,4331.63918385,4323.74267869,0.0
1.17531390652,0.818728829539,9.70628127292e-06,2029216.16519,2.46227238437e-05,0.0,5400373.08321,686.562250457,655.563002889,65765829.3862,1852.81870436,51180768.7838,67003603.2578,4878.72802596,4867.69935637,0.0
1.06847812085,0.773868824498,1.02353845867e-05,-33657166.7804,1.75914163277e-05,0.0,5784333.0529,679.654187577,648.675769376,66884251.3325,1718.88080632,34802482.9994,69735823.2821,4435.25267965,4426.8522117,0.0
0.986042341064,1.00953861073,9.84666884018e-06,-95064082.2171,1.35252536802e-05,0.0,5947128.32214,680.623860754,643.433426604,67236779.6232,1612.66970783,69968723.2921,70211614.5468,4093.06175776,4084.97921015,0.0
1.01331128848,0.873135884214,9.7965093975e-06,-81801304.1064,1.43973549853e-05,0.0,5954952.30669,677.939323082,645.198241882,67309726.9718,1646.36823087,58664716.5575,70892711.8092,4206.25515848,4199.15802464,0.0
1.07702231738,1.01611014342,1.01351020383e-05,-31446569.3303,1.54164593514e-05,0.0,5790781.18402,680.258740618,649.324758994,66923747.3799,1730.886447,35102373.5819,69258564.5723,4470.71963944,4462.47599752,0.0
1.0771144211,0.809227472749,9.56530623345e-06,-32326951.5234,1.72475512445e-05,0.0,5797542.32373,680.556771524,649.191076873,66934614.2962,1730.53682932,35068548.6084,69842965.9593,4471.10196199,4462.66397786,0.0
1.21783914072,1.19076930017,9.58640584779e-06,11796627.2308,2.11649079365e-05,0.0,13106516.1128,688.996172825,658.197504408,65302866.0308,1902.47489744,57546788.7703,66409331.9734,5055.25027313,5043.09917242,0.0
1.17851551523,0.970226621733,1.00552229458e-05,3052341.17844,2.24786653625e-05,0.0,5387617.92922,686.437579808,655.741019546,65698667.5273,1856.29709552,51499197.1959,66959446.5314,4892.01790372,4880.91716464,0.0
1.11001407844,0.906741402447,1.01368404904e-05,-17349543.5118,1.88110222625e-05,0.0,5622795.3957,682.232903221,651.39430705,66408835.659,1770.4396426,40106737.0,68999076.9593,4607.6684396,4597.7407572,0.0
1.14003777102,0.776453067571,9.90288216793e-06,-9042888.10534,2.4173378721e-05,0.0,5588620.68738,684.203302421,653.323813286,66356881.6151,1812.03621628,45165520.9658,68102139.8856,4732.2967875,4722.95258013,0.0
1.06668089722,1.01169258117,9.8778971999e-06,-36347479.1449,1.44517483869e-05,0.0,5813975.93612,679.750273915,648.575014484,66972283.4887,1716.20976134,34676791.3831,70228243.354,4427.79240436,4419.32573521,0.0
1.05142705061,0.958192609853,1.00638623721e-05,-42859255.8677,1.4368707749e-05,0.0,5839236.49334,678.836672463,647.597528206,67024194.307,1696.01149708,35356365.7145,70568341.9626,4364.47368708,4356.24585348,0.0
1.07700428641,0.930074904325,9.73429598725e-06,-31813991.4661,1.59175006926e-05,0.0,5798955.09706,680.383032203,649.187551621,66941646.251,1730.31402359,35169578.864,69722931.8966,4470.64479289,4462.20851468,0.0
1.18424655971,0.606754257053,9.71413495255e-06,4412952.27754,3.11675891951e-05,0.0,6263682.6652,687.263101474,656.105549587,65633906.9622,1864.96597592,52482681.4106,66917009.4864,4915.80746936,4904.94625678,0.0
1.10727252947,1.28871935223,9.83063011969e-06,-18801013.1822,1.38001459787e-05,0.0,5703082.01883,682.110329673,651.261115754,66661706.8883,1767.93388067,39352721.5197,68880716.429,4596.28826983,4586.79370555,0.0
1.13785201861,1.0293351067,9.82158618081e-06,-10160535.8293,1.94096718214e-05,0.0,5596199.31569,684.039168807,653.188592107,66367189.1564,1808.07033554,44347551.7068,67926170.9714,4723.22372925,4713.49563531,0.0
1.00583655214,0.980630087793,1.04564724957e-05,-85734251.8702,1.39497842005e-05,0.0,5875729.46218,677.385219704,644.688106248,67057046.331,1632.95344061,61918114.2427,70578010.5039,4175.22752793,4166.90730721,0.0
1.16611377319,1.03986659239,9.87344097239e-06,-144950.26684,2.01659164801e-05,0.0,5446231.2561,685.759641431,654.9923003,65892390.2203,1840.69862243,49945481.6187,67782114.286,4840.53827251,4829.55725625,0.0
1.17423715589,0.84854959693,1.00712720955e-05,2330239.08647,2.44469961011e-05,0.0,5396012.82598,686.238051357,655.481405365,65725812.1716,1851.36964324,51155240.1766,66981880.7762,4874.2584341,4863.34105314,0.0
1.1478426778,0.907023744327,9.56114462848e-06,-7253942.22665,2.16934540442e-05,0.0,5535794.01096,684.842499454,653.760568697,66184826.5658,1819.79373724,46239591.3107,68636114.1997,4764.69495555,4754.40039691,0.0
1.0666477714,0.836967257912,9.72576635699e-06,-36220704.5075,1.60554418253e-05,0.0,5774553.31573,679.964698348,648.555927598,66835834.9938,1714.46401748,34608775.6563,70194541.1505,4427.65489908,4418.4713728,0.0
0.984853240929,0.970928298705,1.03433116606e-05,-94868630.4295,1.37933020113e-05,0.0,5932790.27624,679.643655767,643.355095039,67193799.3301,1608.92104119,69796776.8488,70037131.021,4088.1258031,4080.14151807,0.0
0.978549246357,0.830904642942,9.46082040464e-06,-95043285.5873,1.45064252509e-05,0.0,6023841.28763,682.317555697,642.969231212,67442029.1496,1614.47556067,69950111.197,70189411.3128,4061.95792163,4054.8527382,0.0
1.04366876255,0.985047195196,9.51477882802e-06,-52416414.5295,1.38700462705e-05,0.0,5891194.30681,678.872244178,647.096208935,67177213.7898,1686.3940828,38680536.1558,71056220.7139,4332.26903335,4324.55349719,0.0
1.1126094695,1.00228953424,9.94884605607e-06,-18794537.9887,1.80412366174e-05,0.0,5692181.56057,682.454430355,651.586670806,66657009.8111,1776.77304607,39215716.5015,69048482.2033,4618.44190789,4609.44464534,0.0
0.998403727849,0.796069796823,9.71305184306e-06,-95839469.1747,1.50969850382e-05,0.0,5987556.22659,679.015990252,644.250165418,67385561.8595,1626.14911922,70651199.945,70927737.3683,4144.3738743,4137.48619228,0.0
1.03140654691,0.858611280232,9.99409536463e-06,-60532794.6283,1.50063342697e-05,0.0,5851384.79166,678.174865695,646.328021572,67038484.0831,1668.32495686,43015622.5302,70932598.9514,4281.36857622,4272.97136697,0.0
1.21633490487,0.879960499799,1.0391687521e-05,12699702.1444,2.78806038458e-05,0.0,13919996.3221,688.686587123,658.118549484,65070273.1651,1900.68768288,58064509.8451,66321984.3276,5049.00619012,5037.11909495,0.0
1.12868162712,1.06139484341,9.9714235152e-06,-12305861.0092,1.81685480943e-05,0.0,5607403.91646,683.26310187,652.500934421,66392644.3313,1795.39645045,43029941.8823,67336170.8893,4685.15743418,4675.30461409,0.0
1.00244855641,1.04840279119,9.92290302625e-06,-95953899.5912,1.31749841972e-05,0.0,5907676.51089,678.396737546,644.481220764,67140021.8446,1628.0814843,70751166.4146,70751166.4146,4161.16395766,4152.81570504,0.0
1.01212555456,1.04589815377,9.92597261175e-06,-82016849.3778,1.2896217979e-05,0.0,5961650.07804,677.721647585,645.117585638,67327608.3319,1644.7222669,58835724.6848,70874883.0838,4201.33317698,4194.25279733,0.0
1.16643170257,0.808965133963,9.86073784911e-06,37091.0189916,2.4297577074e-05,0.0,5416421.70682,685.954729969,655.011670378,65800418.9241,1841.45216709,50039226.2559,67694085.3764,4841.85799737,4830.87127784,0.0
1.08702661075,1.08909995515,1.00850501714e-05,-26857439.3612,1.4973447642e-05,0.0,5764572.00398,680.841615798,649.973778779,66846316.9638,1743.32554753,36028167.9103,69298344.9014,4512.24746122,4503.65536448,0.0
1.15649551952,0.916082044092,1.00559199893e-05,-2447139.10589,2.17155342819e-05,0.0,5499057.76889,685.105788023,654.409958956,66042794.4238,1830.35477869,48716440.3573,68047160.8013,4800.61290153,4790.33253242,0.0
1.05536472128,1.24379526734,1.00777450822e-05,-43098625.5205,1.24453495301e-05,0.0,5799159.21308,678.945439428,647.808616877,66910763.9383,1698.64348214,35321623.4389,69659529.3411,4380.81895803,4371.67943534,0.0
1.14321272593,1.08352588444,1.002406115e-05,-8723866.43159,1.9049789088e-05,0.0,5553865.18903,684.180180406,653.467000896,66230912.3754,1814.04708853,45105279.0608,68324585.5744,4745.47602534,4735.34914621,0.0
1.11555166864,1.19341671081,9.87477318985e-06,-16303203.787,1.54975411255e-05,0.0,5691305.34414,682.516122335,651.735746885,66647545.9663,1779.5814753,40697150.0332,69413848.639,4630.65497652,4621.42026491,0.0
1.12305969649,0.939962508505,9.76285505177e-06,-14113858.9075,1.9262444371e-05,0.0,5647401.31072,683.166073208,652.202672666,66517319.3559,1789.2963393,41772122.5041,68831885.8149,4661.82080013,4652.36366811,0.0
1.20901564816,0.663651759193,1.00173428538e-05,10829472.5716,3.28975805474e-05,0.0,12153085.4533,688.652535538,657.599770455,65040964.3791,1892.57710696,56563603.4424,66614989.8857,5018.62395551,5006.62487741,0.0
1.12005902613,0.813679675385,1.00173517158e-05,-14503215.23,2.09719284283e-05,0.0,5586698.18605,682.94873989,651.988751009,66311336.4709,1783.69310288,41493430.5716,68352454.6978,4649.36501747,4639.26422907,0.0
1.0763675157,0.743889607366,1.04506336992e-05,-31378460.5215,1.89380480668e-05,0.0,5680014.92521,680.240893234,649.258912149,66564769.7113,1726.83395154,34865425.2491,68837951.311,4468.00155767,4458.35961184,0.0
1.01880391477,0.920904934492,9.75685836413e-06,-75589097.0275,1.40907067652e-05,0.0,5945271.03021,677.995551752,645.543098273,67303414.7415,1653.74900547,53694844.2881,70912147.5821,4229.05505021,4221.88008614,0.0
1.10562132734,0.789158448081,1.04637444185e-05,-17912637.0279,2.02235281212e-05,0.0,5645112.79313,681.800593339,651.134486177,66465699.6158,1766.34531788,39609558.9094,68744992.3331,4589.43412979,4580.06613748,0.0
1.20382358353,1.04518162137,1.02630493849e-05,9967547.76494,2.32165119798e-05,0.0,11386785.8459,687.756615439,657.294671235,65405001.4373,1886.16786679,56002044.3299,66986045.5018,4997.07169523,4985.61948692,0.0
1.11596922745,0.820912033336,9.98718764512e-06,-15819303.1726,2.04639562482e-05,0.0,5655779.39549,682.622963669,651.743868076,66526469.5668,1780.44683837,40851428.8083,69389245.0591,4632.38826314,4623.14771218,0.0
1.13428643718,0.89143722865,9.91976050356e-06,-10042421.817,2.12308620823e-05,0.0,5591608.44769,683.819256638,652.962007586,66349213.4673,1803.38362601,44424373.0947,67766883.6209,4708.42300073,4698.75738425,0.0
1.13451903305,0.896125824785,1.02218648274e-05,-11025979.3155,2.20156354001e-05,0.0,5611009.62056,683.619189539,652.987476887,66414636.7215,1805.36398359,43647278.3377,67771440.4166,4709.38850619,4700.26115228,0.0
1.04092728156,0.759450672247,9.89153735966e-06,-51622719.1284,1.61481093148e-05,0.0,5822325.46679,678.652429497,646.924477418,66963433.7709,1680.54849027,38296076.3744,70816552.6451,4320.88914576,4312.1648742,0.0
1.05153888697,1.0006120764,9.99443036886e-06,-43140340.7953,1.4064821492e-05,0.0,5834203.11113,678.885340691,647.602388887,67009256.8874,1695.51392431,35413964.8454,70590847.2769,4364.93791981,4356.52636999,0.0
1.0479210468,1.18112272244,9.48864708335e-06,-49644777.0917,1.22947246862e-05,0.0,5848417.88074,679.127925313,647.380489416,67050750.2269,1689.4610206,37483146.5896,71231499.6982,4349.92026527,4341.07964282,0.0
1.07516819791,0.803720558872,9.82784169589e-06,-32219684.2767,1.73505301986e-05,0.0,5791771.06707,680.258643029,649.06411721,66917815.3164,1727.99900467,35053497.3404,69729189.6925,4463.02318952,4454.6153303,0.0
1.06829113529,0.96827628037,9.89316890735e-06,-35535433.5738,1.50195145463e-05,0.0,5806453.22706,679.843943806,648.679568934,66952587.6132,1718.34998262,34696769.1366,70111741.0445,4434.47650259,4425.98461136,0.0
1.05874195482,0.92604698308,1.04188062552e-05,-38190786.6822,1.5270688817e-05,0.0,5810128.86999,678.9447959,648.057646174,66948670.3239,1706.08247723,34653297.9749,69810194.8729,4394.83785446,4386.58926854,0.0
1.14759704127,0.976799765321,9.86769613272e-06,-7008305.88375,2.01737118028e-05,0.0,5547593.62492,684.452456867,653.669495673,66205592.2357,1819.65720333,46126608.2683,68703067.1839,4763.67531831,4753.51416033,0.0
1.03080543898,0.849686038512,9.7181278187e-06,-61243440.7815,1.49877416911e-05,0.0,5912471.98306,678.31190052,646.310223656,67230325.2156,1669.77389442,43435105.1971,71129833.1378,4278.87337721,4271.5270945,0.0
1.15025436411,1.01288745321,9.99950144916e-06,-6118529.03535,2.12833617349e-05,0.0,5576954.1478,684.655386449,653.993992138,66327919.3971,1825.04772196,46745305.4038,68801534.6732,4774.70586542,4765.303846,0.0
1.02928249391,1.0381293725,9.456466393e-06,-65802401.7989,1.3241586065e-05,0.0,5936015.07367,678.454868522,646.209450499,67296883.916,1667.5715207,46530519.9832,71212646.7144,4272.55163222,4265.22718447,0.0
1.11053810072,1.01380161491,9.66727617581e-06,-20141671.4279,1.73700830138e-05,0.0,5705487.82598,682.54246923,651.477490701,66689947.726,1773.82241913,38566508.9533,68923211.5408,4609.84365609,4600.77921235,0.0
1.22152124875,0.759675212152,1.03132668852e-05,13596108.8636,3.13189622823e-05,0.0,14840643.3189,689.187505924,658.45476634,64970366.2848,1907.45501547,58831418.0478,66350154.9498,5070.53470356,5058.63223849,0.0
0.994891368315,0.85328381389,1.01570587478e-05,-95300418.0852,1.48878152892e-05,0.0,5908190.90636,678.816442889,643.999219159,67135303.3318,1618.34609561,70176938.5089,70395110.9492,4129.79406988,4121.64907162,0.0
1.12237451691,0.829297314598,9.75230339186e-06,-14317417.4778,2.0724353654e-05,0.0,5640859.00035,683.182194858,652.15729712,66495512.1538,1788.52825149,41689830.2247,68908006.1425,4658.97661969,4649.53074438,0.0
1.10404207482,0.676822484137,9.61211799724e-06,-22105916.7287,2.15610992567e-05,0.0,5699272.10824,682.391479659,651.08513134,66657093.1143,1765.78382309,37564325.6673,68552186.321,4582.87865258,4573.9180585,0.0
1.13708970372,0.992753131833,1.01407608782e-05,-10342924.7689,2.0535346831e-05,0.0,5608256.19804,683.795582076,653.15043023,66401707.746,1808.28551327,44124904.0912,67922169.2393,4720.05936014,4710.78577038,0.0
1.17734053442,1.33473406477,9.64248616516e-06,2388177.94188,1.63981768355e-05,0.0,5454941.52003,686.3858183,655.687943013,65932272.0639,1854.62132975,51447360.7964,67217359.0175,4887.14055838,4876.06339696,0.0
1.07056723566,0.967409678804,9.98312492957e-06,-34175988.7187,1.52025419808e-05,0.0,5797095.57256,679.894687571,648.816511853,66918778.8958,1721.33901744,34784226.2222,69847195.9612,4443.92459522,4435.39699986,0.0
1.08558409954,0.897079064987,9.7838481826e-06,-28255978.863,1.69246303084e-05,0.0,5767792.04979,681.072507752,649.897976637,66849623.4604,1741.6059578,35842413.3489,69363703.6369,4506.25959719,4497.68999939,0.0
1.13068068586,0.980820732298,9.90327323858e-06,-11950984.7693,1.95377040707e-05,0.0,5614758.65305,683.56563681,652.720280421,66415794.5183,1798.94702852,43192666.3414,67458781.9979,4693.455527,4683.87275929,0.0
1.0578065306,0.861575581295,1.03773019272e-05,-38782505.5115,1.58439763899e-05,0.0,5810418.56639,678.948372143,647.997456747,66947075.6571,1704.87463737,34691939.6597,69719263.0499,4390.95490852,4382.72073776,0.0
1.10440158223,0.870039880852,1.01111233551e-05,-21161151.4996,1.91242128293e-05,0.0,5697133.64354,681.948241023,651.095763749,66654091.561,1766.18448827,37908681.2552,68641466.365,4584.37096784,4575.50521478,0.0
0.934649092116,0.936200089557,1.02733559643e-05,-92631739.4345,1.39357087362e-05,0.0,6076797.27708,687.645891099,640.130425101,67556173.8397,1604.0895866,67827369.024,68037261.2047,3879.72838137,3873.08998724,0.0
1.03605720468,0.608893055018,1.04866138124e-05,-52288194.9023,1.7950281505e-05,0.0,5794741.47294,678.006892303,646.60270089,66879340.5587,1674.135617,38370595.4035,70604820.6444,4300.67345663,4292.02784221,0.0
1.13223462694,0.995851082212,1.00107712382e-05,-11090719.2062,1.99014050518e-05,0.0,5630325.70282,683.560317423,652.843952923,66477960.4249,1801.8272466,44036244.9919,67718903.924,4699.90593643,4690.71370535,0.0
1.19812225349,1.0678356014,1.03276679016e-05,8062382.57665,2.25621558801e-05,0.0,9432931.72341,687.465360637,656.974610825,65345249.6535,1878.60147453,54392141.3906,66546348.2711,4973.40547424,4961.64360259,0.0
1.00520640494,0.857646459347,9.87820768928e-06,-90984964.7619,1.43774719486e-05,0.0,5971520.00294,677.994916389,644.673480859,67346856.5193,1635.47179733,66414692.9947,71091214.9207,4172.61178691,4165.62883555,0.0
1.05665621355,0.771205659924,9.73736994007e-06,-43964857.9445,1.68692998624e-05,0.0,5789294.38352,679.511819943,647.911063237,66881916.4192,1701.43616314,35548920.1156,70300472.6031,4386.17994245,4377.19485839,0.0
0.906883491916,0.824030742192,1.03700423979e-05,-91362022.6464,1.40041368225e-05,0.0,6131945.7817,690.809405427,638.340845565,67691210.8434,1594.7937355,66709888.9702,67691210.8434,3764.47337494,3758.25463595,0.0
1.03124789032,0.763590309372,1.02720102513e-05,-59159650.2446,1.59676741118e-05,0.0,5829800.14263,677.937747474,646.30450198,66973160.8911,1667.81941327,42147485.0302,70886856.7874,4280.70999272,4272.22898006,0.0
1.07657230046,1.21977495247,1.02892680179e-05,-30372624.5329,1.32389536418e-05,0.0,5795494.42135,680.047885109,649.297600295,66933266.9962,1729.88987352,35303048.5467,69288450.9921,4468.85161921,4460.51814164,0.0
1.06421025176,0.91390017256,9.88291986414e-06,-37440081.352,1.53772881223e-05,0.0,5813543.64966,679.652999414,648.4149542,66966312.7504,1713.03521987,34671663.1639,70112290.6665,4417.53675506,4409.1087254,0.0
1.21617656667,1.0357529827,9.44239599211e-06,11346231.9684,2.34224140207e-05,0.0,12671612.0427,689.034897255,658.077248023,65355625.2704,1901.57643001,57164739.9389,66652906.6539,5048.34892825,5036.4482766,0.0
1.11475785789,1.01022446574,1.02036307835e-05,-15795585.3132,1.78507681788e-05,0.0,5644680.65261,682.320064243,651.654927207,66494724.2366,1777.64814471,40926175.0171,69309645.3698,4627.3598681,4617.84023053,0.0
1.10547538379,0.94236918765,9.87564603838e-06,-21065770.8214,1.78794094299e-05,0.0,5714839.28952,682.13997691,651.1728172,66703390.7061,1767.74383267,37976549.5312,68706562.5091,4588.82831811,4579.94456905,0.0
1.11360771668,0.785459566894,9.74885283235e-06,-18752220.9425,2.06025194341e-05,0.0,5676479.44221,682.756144069,651.653221384,66607097.3707,1778.10049849,39270793.6187,69009609.6369,4622.58563194,4613.47276523,0.0
0.991739290432,1.13138749731,9.96014833583e-06,-95306227.3072,1.23206261921e-05,0.0,5938879.6001,679.41531086,643.799787258,67218474.2537,1613.98846174,70181849.8509,70421712.1557,4116.70979458,4108.53537602,0.0
1.09934713977,0.943620377005,1.0107561321e-05,-22689200.8702,1.77714879834e-05,0.0,5717962.25906,681.624880142,650.781251055,66708405.5601,1759.53365145,37243817.2847,68641613.5104,4563.38997719,4554.603182,0.0
1.1038713855,1.02419383189,1.02883466865e-05,-19019179.563,1.70851420294e-05,0.0,5632633.58496,681.737946868,651.019742619,66438930.5018,1761.81848052,39232081.275,68707062.4136,4582.17012121,4572.1604212,0.0
1.13137538429,0.839665886791,9.98738928019e-06,-11484921.8484,2.16983745223e-05,0.0,5576493.37378,683.553338093,652.685808533,66301820.5274,1799.0703795,43503122.7734,67479793.3831,4696.33922019,4686.44077888,0.0
0.970707377864,1.29752189542,1.01736401556e-05,-94370750.4699,1.1312531742e-05,0.0,6049631.09892,682.615476239,642.463948628,67550493.2792,1614.74403023,69358130.346,69588473.3919,4029.40632551,4022.89499794,0.0
1.20902587822,1.10786811272,9.92012626851e-06,10375316.5078,2.21972404453e-05,0.0,11706425.4379,688.264936665,657.608205359,65335245.8301,1892.00356614,56344745.7137,66967769.0368,5018.66642049,5006.77542705,0.0
1.04245372576,0.792279277843,1.03076826367e-05,-48774921.7081,1.59489778105e-05,0.0,5808971.85598,678.361634688,647.022921077,66925559.5097,1682.85405638,37013060.6493,70876753.8539,4327.22541563,4318.56376371,0.0
1.06911149042,0.910629206712,9.88979672906e-06,-34002266.479,1.57181572919e-05,0.0,5800180.34162,679.898512709,648.730330912,66930485.5875,1719.17555404,34825998.7684,69985181.3251,4437.88179673,4429.33036044,0.0
1.05963546468,0.892055735863,1.0232370161e-05,-38513475.6948,1.55949724528e-05,0.0,5810392.37718,679.272113272,648.202779004,66947614.4493,1707.29366609,34691981.5837,69826576.4273,4398.54681389,4390.28299238,0.0
1.05800450387,0.719570516985,9.79424997111e-06,-40710139.8019,1.71195366659e-05,0.0,5816777.34515,679.564807117,648.075788968,66963523.6764,1704.89373885,34981003.1626,70030259.0586,4391.77669556,4383.44540105,0.0
0.963827729529,0.711423724009,9.80966043884e-06,-94093998.0456,1.5897793549e-05,0.0,6021552.0276,684.43507555,642.015010411,67425893.2552,1612.90400005,69114555.8451,69341583.7266,4000.84890527,3993.79225039,0.0
1.12952644288,1.07531507907,1.02175976006e-05,-11857692.0995,1.82744211183e-05,0.0,5592446.70112,683.274969647,652.639245101,66334924.0221,1796.56351371,43141666.4026,67404202.0063,4688.66426439,4678.79673109,0.0
1.18105135579,0.897106249536,9.74100960706e-06,3514225.63844,2.36159528095e-05,0.0,5662180.88082,686.787822421,655.913423992,65808292.1016,1860.47108876,52015449.4588,67075234.9786,4902.54417788,4891.73227888,0.0
1.09487471101,1.22822885261,1.00194094315e-05,-24476860.552,1.39962004593e-05,0.0,5754344.07572,681.250849285,650.443154328,66825575.3504,1753.48187988,36714558.3805,69125701.9884,4544.8249254,4536.10999868,0.0
1.04974712815,0.82791597896,9.59478768742e-06,-48134503.0932,1.58262008821e-05,0.0,5816625.22394,679.273654301,647.488594848,66954575.013,1692.17449891,36851886.3637,70587065.9033,4357.50032895,4348.6295844,0.0
1.07678925743,0.763126059716,1.04299398605e-05,-31287175.8898,1.87088544426e-05,0.0,5681419.68133,680.270954279,649.287953316,66569589.5337,1727.37113012,34889943.6671,68846833.1463,4469.75220759,4460.10370093,0.0
1.0416993668,0.87697978899,9.81222341004e-06,-51552758.9015,1.50398397092e-05,0.0,5831029.0322,678.70278899,646.973806389,66990541.2719,1681.48039514,38253673.0243,70874314.8966,4324.09407159,4315.35713738,0.0
0.992385792718,1.15738216302,9.72221653981e-06,-95418126.8977,1.24259134611e-05,0.0,5998206.87521,680.287931845,643.856467284,67407499.7411,1619.972465,70280211.3409,70524819.0041,4119.39342557,4112.24399207,0.0
1.00849543366,1.02832079388,9.57193762119e-06,-92150121.1177,1.33163704893e-05,0.0,5902170.13143,678.551631735,644.869750112,67127597.4828,1635.83660954,67419061.1737,70910265.4594,4186.26454512,4177.73724093,0.0
1.14989989476,0.912479626797,9.8283227161e-06,-7604004.40421,2.27196382398e-05,0.0,5578408.93366,684.780523053,653.941628493,66325786.1605,1825.07513069,45810060.4255,68627154.7551,4773.23446315,4763.83521929,0.0
1.1233727256,0.749502479815,1.00033309183e-05,-14091099.8992,2.28840722331e-05,0.0,5644394.02916,683.105087209,652.243339183,66513192.8934,1791.10693455,41947246.8147,68589679.4706,4663.12018397,4654.16941872,0.0
1.09785566321,1.0331741745,1.0192017047e-05,-22302986.2181,1.61047688072e-05,0.0,5685602.95832,681.467562119,650.661290072,66593188.2297,1755.53360127,37295857.489,68497330.3994,4557.19885798,4547.67950658,0.0
1.12307803339,1.18559094509,9.61630761167e-06,-14502271.1163,1.57816501839e-05,0.0,5650201.03878,683.169431442,652.194655046,66516075.1865,1788.1523956,41691295.3475,68936070.2039,4661.8969166,4652.03881078,0.0
1.18602583779,0.905754678266,9.95226689534e-06,4591143.93951,2.42105180961e-05,0.0,6237585.03744,687.032852661,656.189336748,65532652.12,1864.86828953,52372045.6834,66829289.8774,4923.19325267,4911.65343768,0.0
1.03702702476,0.718989488289,1.02181099394e-05,-53801280.3348,1.62160544507e-05,0.0,5830197.9031,678.191993829,646.657235369,66983474.9716,1676.23492941,39217557.8758,70964883.4761,4304.69917978,4296.30061647,0.0
1.07278595164,0.888600214725,1.02834384971e-05,-31570548.549,1.65953456643e-05,0.0,5774088.30916,679.946101524,649.029590336,66862568.5928,1724.46731788,35117852.6594,69367664.7316,4453.13448526,4444.66699111,0.0
1.2150083815,0.864068471642,1.01133190288e-05,12010925.8437,2.76529171374e-05,0.0,13246357.8514,688.755394905,658.030568984,65181164.2372,1899.84598512,57539978.898,66226918.1916,5043.49979161,5031.71724652,0.0
1.07656640471,0.981793749479,9.91315649055e-06,-31354517.4986,1.54485707349e-05,0.0,5796182.8699,680.20934779,649.158050742,66935705.0423,1729.69981698,35216716.5439,69604006.2609,4468.82714595,4460.39764886,0.0
1.11165705443,0.974793875674,9.73831959522e-06,-19641486.0031,1.80333714403e-05,0.0,5696416.94076,682.567487181,651.539381753,66663789.0247,1775.28522247,38854280.9963,68964440.5305,4614.48843294,4605.40697978,0.0
0.983685846285,0.794077164227,1.00067019832e-05,-95116919.872,1.46558897655e-05,0.0,5991332.83037,680.233436899,643.295694921,67362712.8352,1611.28118347,70015037.8188,70256232.6017,4083.27994793,4076.17975118,0.0
1.19256762474,1.14879701038,9.73188031337e-06,5570192.04584,2.01407517313e-05,0.0,7185651.93354,687.40826464,656.6193015,65606403.206,1872.62619248,53110958.6168,66891887.5347,4950.3482103,4938.68100215,0.0
0.993181559625,1.24514009544,9.6937346531e-06,-95629771.8404,1.15178510147e-05,0.0,6003790.1889,679.678531001,643.911382877,67416224.0415,1618.19755533,70466555.7604,70708407.7203,4122.696654,4115.54508167,0.0
1.14648412247,0.966028983478,1.02701700375e-05,-7542230.04913,2.20285663914e-05,0.0,5573049.51387,684.263667673,653.721674935,66314602.5437,1820.45866399,45618968.3652,68523143.5755,4759.05559237,4749.71108819,0.0
1.08736444634,0.964739658076,9.93509715621e-06,-27188794.1334,1.64088493514e-05,0.0,5761087.70241,681.025477324,649.999421124,66834002.9157,1743.87782935,36010736.2881,69330040.9661,4513.64981676,4505.05244728,0.0
0.977754580172,1.19722201084,1.01722571376e-05,-94825525.1837,1.20015753072e-05,0.0,6030224.39758,681.080900458,642.918369625,67494537.468,1612.83841312,69758736.7504,69994419.5015,4058.65926229,4052.06003579,0.0
1.16028393137,0.850828112305,1.02872870642e-05,-1223490.56935,2.33598022751e-05,0.0,5433120.42811,685.285189726,654.62810022,65822710.2347,1834.05726746,49018677.3302,67608828.3033,4816.33859912,4805.57631563,0.0
1.16072858319,0.774790139335,1.00235554691e-05,-1690547.3142,2.44191899083e-05,0.0,5463686.92835,685.491267664,654.672425327,65931235.9347,1835.61513493,48844026.211,67692726.5174,4818.18434882,4807.74323649,0.0
1.19563010758,1.01514368501,9.35518392436e-06,6251668.61903,2.21470009715e-05,0.0,7878575.79975,687.826767289,656.833651461,65777007.0474,1878.69341886,53869467.6039,67093377.1364,4963.06057656,4952.08786658,0.0
1.0526294553,1.04651819826,9.89712624296e-06,-45378533.1205,1.37770976954e-05,0.0,5813133.27804,679.073782381,647.670907258,66950208.4019,1695.89330981,35921339.6286,70493226.3645,4369.46486895,4360.5478856,0.0
1.00377912042,0.987620212241,1.01896660694e-05,-91781870.8287,1.35912855225e-05,0.0,5913097.29511,677.839549845,644.568873062,67164860.2279,1631.15828188,67095946.5731,70930719.0606,4166.68712886,4158.72915513,0.0
1.0512189414,1.18197198454,1.0311434922e-05,-44373183.2385,1.26253946652e-05,0.0,5812262.26723,678.614510412,647.569779697,66954477.2589,1694.23951329,35602120.8975,70398317.1632,4363.60982575,4354.80498964,0.0
1.11426801344,0.924108518034,9.72491141283e-06,-18877822.6144,1.88752075346e-05,0.0,5684601.11403,682.739333039,651.692824137,66634302.4976,1778.70489426,39236817.892,69063704.6141,4625.32652379,4616.20316358,0.0
1.15653805328,1.03975591045,1.04378297206e-05,-1735561.91624,2.02404337085e-05,0.0,5437336.92315,684.855897316,654.381508214,65838370.1838,1828.04642874,48700282.4677,67768259.9347,4800.78945917,4789.78973094,0.0
1.10434981603,0.777514818157,1.0561457982e-05,-18502705.9066,2.05939679929e-05,0.0,5602565.04441,681.722534799,651.040953166,66339405.8092,1763.25443342,39338625.2523,68615490.7022,4584.15608634,4574.23267652,0.0
1.076613774,1.06306534182,9.9713336204e-06,-31153367.9611,1.45294446176e-05,0.0,5799267.39387,680.137203215,649.163085269,66946757.1254,1729.7043051,35269851.5565,69561010.4696,4469.02377587,4460.59354532,0.0
1.0518970336,1.0900749137,1.03445875381e-05,-42488494.4788,1.33343293304e-05,0.0,5821246.60592,678.604986466,647.608289308,66980341.4222,1695.98770742,35135356.7418,70423631.8702,4366.42458647,4357.93570881,0.0
1.1068434273,0.803379258661,9.74515538654e-06,-20750595.9105,1.96543296176e-05,0.0,5699662.51821,682.379388634,651.255684257,66664485.807,1769.33328649,38169663.6421,68714408.6896,4594.50706672,4585.50163835,0.0
1.22954769401,1.11533190417,9.84423928929e-06,15209705.1884,2.35756904051e-05,0.0,16566243.1765,689.581126965,658.986735221,65258188.4585,1917.40155903,60337281.9974,66868322.9421,5103.85247784,5092.27271638,0.0
1.13291056734,0.880535436021,9.84083276194e-06,-11393559.2342,2.1196022896e-05,0.0,5599978.76435,683.811904005,652.871194285,66370227.4878,1801.90012041,43590839.6289,67548561.5612,4702.71176503,4693.06575224,0.0
1.13105292632,1.18928573195,1.01707453741e-05,-11611043.5942,1.68516211539e-05,0.0,5599191.58128,683.34561485,652.743710979,66356975.3631,1798.41051474,43313696.6879,67530324.1912,4695.00069715,4685.10730849,0.0
1.01529533171,0.744349534685,9.75446001622e-06,-79751069.7493,1.55057184624e-05,0.0,5946522.51193,677.999087954,645.309086308,67294184.2378,1649.09633499,56995715.0986,70816018.937,4214.49092193,4207.36571612,0.0
1.20311038122,0.839648936504,1.04444952886e-05,9945883.14205,2.78649122779e-05,0.0,11221720.7325,687.825540706,657.229591734,65152261.3612,1884.56883269,55774860.9051,66719017.7959,4994.11119244,4982.25609751,0.0
0.996792749347,1.06692873481,1.04281161076e-05,-95363632.516,1.30096751809e-05,0.0,5905129.00282,677.953110302,644.117414931,67132529.997,1620.84010019,70232787.2908,70560638.8847,4137.68670254,4129.51131877,0.0
1.12071738619,0.98248984605,1.0262988409e-05,-14310901.4749,1.88279689157e-05,0.0,5616920.08148,682.701197363,652.051787405,66403369.8546,1785.55063131,41655015.1193,68322769.6653,4652.09787007,4642.47860447,0.0
1.18566800258,0.944175837121,1.00224536025e-05,4982497.85236,2.35607382235e-05,0.0,6594866.5127,686.856309369,656.186190333,65726120.1674,1866.04127261,52737602.8691,66997203.9075,4921.70787871,4910.92327739,0.0
1.02047326137,1.20706225518,1.02975779068e-05,-71724404.5869,1.1827550814e-05,0.0,5857870.51935,677.444721633,645.614693996,67042921.1999,1651.93799025,50732568.1645,70493152.6884,4235.98450795,4227.25730669,0.0
1.11788056552,0.971660246159,9.65746925176e-06,-15209974.7887,1.83728142876e-05,0.0,5700978.98793,682.834791776,651.8784391,66671985.8949,1783.64510326,41316883.0163,69546619.0877,4640.32222747,4631.37499611,0.0
1.01812997049,0.767025948667,9.70416257336e-06,-76856654.0603,1.5401124664e-05,0.0,5941965.10683,678.09949962,645.504725361,67289578.1776,1652.91167012,54685039.5727,70890302.6513,4226.2575075,4219.09211269,0.0
1.17590046976,0.898911367099,9.69533260942e-06,2111747.86787,2.307138402e-05,0.0,5409638.40188,686.541158207,655.598491237,65794802.9887,1853.41523327,51235522.3425,67034666.9511,4881.16284997,4870.12368753,0.0
1.08668375015,0.987315161871,9.85404630961e-06,-27707770.4053,1.60571981397e-05,0.0,5767983.11795,681.040625614,649.96105245,66852750.2849,1742.9713165,35934472.5286,69378544.2547,4510.82424687,4502.23749994,0.0
1.07154855223,0.89987175985,9.57223560335e-06,-34679318.496,1.58249585472e-05,0.0,5814422.96387,680.394115793,648.978428604,66975729.3056,1723.19724836,34758052.1359,70174450.0611,4447.99804031,4439.64609045,0.0
0.963707456561,1.16059096041,9.96816209066e-06,-94106986.9136,1.23551241468e-05,0.0,6068266.25194,684.189431699,642.014850853,67592763.4377,1615.10044031,69125954.7157,69352364.0883,4000.34965218,3993.93344681,0.0
1.07939885904,0.98571747772,9.59128588734e-06,-31318150.7532,1.53960993344e-05,0.0,5802243.19496,680.603777487,649.348243134,66953835.8352,1733.41503614,35310153.6786,69627594.4516,4480.58466387,4472.11126331,0.0
1.06581419941,1.07781496899,9.85368657218e-06,-36855280.2307,1.36979375298e-05,0.0,5821393.80271,679.690876446,648.517732246,66992318.6386,1715.01855575,34681177.1669,70229880.8264,4424.19474175,4415.74163549,0.0
1.23570293253,1.19747888475,9.74381022079e-06,16072003.98,2.22899902928e-05,0.0,17602029.9609,689.993783158,659.367215388,65148394.7451,1924.08281824,61046681.5811,66927429.1888,5129.40287293,5117.42203751,0.0
1.06790526321,1.24134899313,1.04978522795e-05,-33328036.5552,1.27173541709e-05,0.0,5813398.82245,679.227201843,648.621533306,66975877.372,1718.48001417,34773951.7833,69700754.5421,4432.87474758,4424.67228651,0.0
1.19847811632,0.949573711913,9.9276364093e-06,8346875.75591,2.41859400241e-05,0.0,9776794.13666,687.764182186,657.023792411,65492619.8607,1880.41899324,54835130.9774,66685501.139,4974.88266084,4963.53826175,0.0
1.11248227739,1.13106368817,9.98337354812e-06,-16781716.8172,1.6010853115e-05,0.0,5643794.16242,682.355658203,651.542021925,66473082.5247,1773.5794722,40424076.2275,69187556.3234,4617.91393345,4607.94351548,0.0
1.05092845544,0.906947324695,1.00556931367e-05,-43145936.5208,1.49157449745e-05,0.0,5825060.67846,678.957824376,647.644696425,66981002.6424,1694.77336945,35379712.7982,70538206.5449,4362.40401853,4354.00208134,0.0
1.11507827171,0.843030474912,1.01759995937e-05,-15686191.0909,2.00300677872e-05,0.0,5630720.63653,682.442518594,651.675009364,66451701.211,1778.22198036,40862370.8435,69258480.5855,4628.68990587,4619.16402905,0.0
0.984965243894,0.954402620492,1.01442134473e-05,-95137500.7615,1.37181593869e-05,0.0,5990317.43234,679.793361839,643.377489143,67369980.0126,1611.38354023,70033260.2229,70274223.72,4088.5907274,4081.55513677,0.0
1.13990594398,1.01995691155,1.00610686415e-05,-9440889.86518,1.98048453204e-05,0.0,5558076.67134,684.033419426,653.291261806,66237348.1244,1809.93173208,44624392.9448,68071971.6034,4731.74957346,4721.67925321,0.0
1.20816251203,1.04573161307,9.94101642334e-06,10315800.0342,2.3176308995e-05,0.0,11679871.0157,688.217393828,657.568833003,65420624.3977,1891.8614117,56328768.1699,67129955.5748,5015.08258744,5003.53546152,0.0
1.06229188333,0.924218687679,1.02958898918e-05,-37035914.2121,1.54505897358e-05,0.0,5806331.74434,679.235555592,648.291631745,66942192.8666,1710.81576395,34613111.7005,70011053.8367,4409.5736077,4401.26875949,0.0
1.15714858656,0.9744655247,1.02488446656e-05,-2791137.91627,2.10427773836e-05,0.0,5493101.86038,685.009529216,654.445693802,66046790.7096,1831.26726618,48276096.6402,68034535.3709,4803.32378281,4793.03030394,0.0
1.10954855967,0.869730091452,1.01031828708e-05,-17443685.4933,1.91524116682e-05,0.0,5630696.16959,682.248915416,651.372717459,66434941.9752,1770.25025483,39924736.906,68961477.1467,4605.73607119,4595.91249311,0.0
1.13362517025,0.748721303606,9.79123628706e-06,-11229237.5939,2.33822868336e-05,0.0,5586549.07638,683.9679197,652.919394427,66329900.2497,1802.98999707,43601619.6143,67543590.2695,4705.67808171,4696.02021607,0.0
1.16284879073,1.18507695895,1.00132442132e-05,-783706.009946,1.79510903811e-05,0.0,5466426.96894,685.395664288,654.7880063,65945285.1717,1836.41723517,49424507.2791,67800022.1263,4826.98533032,4816.05707409,0.0
1.10621755967,0.990261647908,9.82130590303e-06,-19041996.1694,1.70959711315e-05,0.0,5685146.37334,682.189487926,651.2004131,66602710.6211,1766.83010979,39184461.3164,68749298.4862,4591.90909019,4582.43210773,0.0
1.15882292882,1.14090953152,1.01766826539e-05,-2548575.39149,1.84954099439e-05,0.0,5507394.48089,685.060676529,654.551982302,66090929.6832,1833.19353717,48442885.8941,68030378.6043,4810.27397753,4799.95182476,0.0
1.06504351254,1.24915209662,1.05528811596e-05,-34936958.404,1.26710206138e-05,0.0,5820201.81311,679.069540889,648.476249835,66998832.5774,1714.99023813,34669041.1622,69833226.943,4420.99562055,4412.93170709,0.0
1.08857208028,0.883314963782,1.02045518809e-05,-25896979.8459,1.76297522946e-05,0.0,5740753.0529,680.905513275,650.045036558,66777069.6077,1745.51237963,36181313.2198,69156941.5747,4518.66270524,4510.04556017,0.0
1.12531009799,0.9099720414,9.49932958451e-06,-13990285.2976,1.95638186585e-05,0.0,5622445.9089,683.535421239,652.339035567,66430334.2323,1791.27775776,42052074.5422,68265048.8164,4671.16221676,4661.241194,0.0
1.00430409542,1.0570790253,9.86377289293e-06,-92256977.7873,1.27279138188e-05,0.0,5983503.78817,678.002013092,644.620946146,67381380.3249,1634.15037685,67505960.9104,71035603.3086,4168.86630009,4161.89601152,0.0
1.04699058301,1.04406563671,1.01447521727e-05,-47423255.6475,1.37937763414e-05,0.0,5822146.37287,678.612771867,647.310958976,66977017.7447,1688.886657,36544898.2389,70353338.1216,4346.05791007,4337.41104856,0.0
1.12032638119,1.23724420002,9.87855001964e-06,-14882562.5683,1.53251995392e-05,0.0,5630555.47438,682.816959901,652.006080423,66443226.3041,1783.61390012,41454564.1153,68737679.3924,4650.47480832,4640.36937592,0.0
0.994522146569,1.00399070229,1.03155266569e-05,-95278932.6722,1.36476132109e-05,0.0,5911049.26565,678.43759373,643.97372964,67145667.6984,1617.80587821,70158020.6714,70518584.8385,4128.26143041,4120.12236648,0.0
1.1515069814,1.16357294079,1.03357864211e-05,-5745020.13953,1.85443778006e-05,0.0,5522610.03659,684.381267817,653.958683901,66149114.2743,1824.34357557,46495932.7497,67870090.2423,4779.90547979,4769.65492914,0.0
1.0401458298,0.958350498139,9.85116099998e-06,-52248626.0589,1.4233160945e-05,0.0,5838190.8676,678.566721857,646.871258456,67009980.7597,1679.36337893,38482391.168,71011358.6156,4317.6453395,4308.9338767,0.0
1.078342831,1.09479654561,1.00168894931e-05,-30218991.5034,1.43049376962e-05,0.0,5790953.46508,680.38213648,649.407774078,66912835.8515,1731.95314249,35438600.1989,69349595.0701,4476.20109148,4467.74407046,0.0
1.22131054516,0.823732789622,9.97550919632e-06,13161799.7219,2.90989359947e-05,0.0,14409440.6948,689.314638571,658.436087816,65016002.6297,1906.87382172,58470530.054,66346170.1819,5069.66007296,5057.53305626,0.0
1.08290161107,1.00064847676,1.02993098994e-05,-27787366.4822,1.60362818425e-05,0.0,5765082.981,680.506335085,649.71785797,66836495.1314,1738.34838576,35812766.8671,69223743.9931,4495.12458755,4486.69379261,0.0
1.17669739495,1.16451096985,9.50023231075e-06,1656592.30889,1.85488180307e-05,0.0,5471169.46877,686.522687618,655.670348606,65997187.2755,1855.20098106,51093666.4628,67393305.0709,4884.47088644,4873.73372942,0.0
1.08185200121,1.24415553536,9.97853784047e-06,-29051627.1426,1.30202254717e-05,0.0,5792000.03995,680.579264508,649.653275593,66921033.0288,1736.45952016,35687584.0436,69380892.5523,4490.76765702,4482.25615675,0.0
1.05843161361,0.847148794203,9.94020866786e-06,-39912550.0834,1.57859479145e-05,0.0,5821328.6567,679.312808671,648.03052331,66980497.0213,1705.40202425,34847335.0848,69728101.0789,4393.5496281,4385.21169046,0.0
0.990263978013,0.860596839826,1.00903921145e-05,-95353513.4245,1.44746793549e-05,0.0,5976356.12721,679.199695246,643.716816758,67333098.4608,1614.49512642,70223441.1618,70462981.8574,4110.58577273,4103.47391744,0.0
1.04872474291,1.14610492587,9.51228672016e-06,-49084561.9568,1.26087990933e-05,0.0,5840808.08349,679.271978937,647.509293756,67029120.1863,1690.55591203,37224655.2402,71010620.0685,4353.25640782,4344.40253307,0.0
1.01521397455,0.921674030941,9.97795587187e-06,-77780070.8552,1.39825125548e-05,0.0,5945485.64628,677.71241965,645.315408824,67294414.9749,1648.97256156,55408487.965,70887579.0795,4214.15320836,4207.02915459,0.0
1.02063787657,0.924568925624,1.03003294628e-05,-71397024.0163,1.43140531287e-05,0.0,5839991.13211,677.560240266,645.626592945,66988508.9985,1652.35771625,50483578.098,70435153.6202,4236.66782564,4227.93788197,0.0
0.997118643327,0.978208794227,9.84079269322e-06,-95482583.9994,1.41102094022e-05,0.0,5920619.58002,679.282771215,644.143418801,67172503.4722,1621.11593739,70337287.5944,70586644.2278,4139.03948845,4130.86118482,0.0
1.18926608373,0.785755190292,9.96480477815e-06,5948750.12491,2.69239840941e-05,0.0,7474830.63085,687.288325437,656.421426424,65549076.6853,1869.78480416,53270311.4872,66746534.5807,4936.64351356,4925.47391393,0.0
1.03140807655,1.01187904983,9.9719699943e-06,-60832082.6574,1.36516785594e-05,0.0,5861127.68387,678.136959217,646.328156588,67067908.1095,1668.22368213,43203466.1627,70948750.1047,4281.37492576,4272.97769201,0.0
1.0825885397,1.0362448729,1.015187863e-05,-28187367.3595,1.53455235114e-05,0.0,5770091.77153,680.577177803,649.702717758,66857689.5028,1737.55317033,35740152.4992,69277554.0771,4493.82502829,4485.30207517,0.0
1.02374982997,0.812479892714,9.74846701682e-06,-69654115.2064,1.51307994451e-05,0.0,5927815.40505,678.098626551,645.854332711,67263983.2573,1660.39246739,49222492.4343,70932369.736,4249.58554421,4242.34018711,0.0
1.20965163537,0.728486770451,9.89782815912e-06,10744564.3574,3.05043855267e-05,0.0,12059170.6842,688.655913184,657.645275739,65139175.8563,1893.52357792,56511755.8687,66627117.6708,5021.26393842,5009.3613099,0.0
1.06769390937,1.03859617593,1.01291596014e-05,-34894542.2731,1.43255186428e-05,0.0,5803300.65284,679.610551867,648.642482937,66935457.1492,1717.51658387,34713509.8042,69940202.5916,4431.99741779,4423.51488483,0.0
1.08393528948,0.971420694015,1.00142447258e-05,-28050258.9552,1.61337239611e-05,0.0,5767631.11198,680.782359642,649.789856756,66850419.621,1739.38393636,35694961.7375,69310643.0505,4499.41538663,4490.87147581,0.0
1.15262791844,1.06892200983,9.76828651294e-06,-5363148.20405,1.97626919764e-05,0.0,5553619.14714,684.942181779,654.138056131,66256541.953,1826.59049949,47282925.9631,68783502.4934,4784.55848944,4774.59962506,0.0
1.00082624697,1.10234691268,9.96017915267e-06,-95786436.8309,1.26265636181e-05,0.0,5913972.65456,678.432178351,644.378259151,67157392.2138,1625.89201333,70604635.0752,70758927.4949,4154.42975117,4146.10792677,0.0
1.20499434088,0.815100769822,9.7308743268e-06,9846337.63479,2.74624354372e-05,0.0,11233779.8526,688.315993574,657.416411124,65488774.8577,1889.43696072,56007103.6557,66975304.8516,5001.93150899,4990.79630711,0.0
1.06245676729,0.721439043733,9.49798900401e-06,-42090481.6414,1.77655813132e-05,0.0,5778615.69936,680.007563744,648.265139006,66855668.5911,1709.13336885,35168768.9172,69700752.7684,4410.25804102,4401.17651135,0.0
1.18567973177,1.2535273152,1.04469861997e-05,5576228.36102,1.88688696186e-05,0.0,7071494.2819,686.488290754,656.191698262,65568325.7392,1863.42404848,52715749.3332,66730453.5668,4921.75656658,4910.3194021,0.0
1.07268425779,1.12920544895,1.01216073138e-05,-31900196.6878,1.37216877646e-05,0.0,5796680.89642,679.7728174,648.894752457,66924664.2931,1723.81988673,35149593.9813,69582278.0467,4452.71235409,4444.15178565,0.0
1.10833807746,0.95516658155,9.83373289943e-06,-18383454.5144,1.76939429578e-05,0.0,5675253.71441,682.312866327,651.323274568,66577641.3341,1769.61901044,39557275.5255,68870765.4643,4600.71135954,4591.19992497,0.0
0.924249750249,1.01529795311,1.01190368063e-05,-92193763.6722,1.33037965954e-05,0.0,6096126.41498,689.365911284,639.457963397,67597796.9245,1601.80059933,67441864.0965,67646453.7846,3836.56071328,3829.80763439,0.0
0.968015766519,0.873890670438,1.01125881982e-05,-94117116.7183,1.48466258225e-05,0.0,6022729.54885,683.456999906,642.286543184,67457896.4882,1614.8620463,69134928.3858,69363472.1887,4018.23344682,4011.46358005,0.0
1.0887409562,1.02167727942,1.00469855286e-05,-26381887.7107,1.59086531594e-05,0.0,5756721.2879,680.982035238,650.070435493,66824534.8106,1745.6239768,36141049.5787,69278277.4102,4519.36370919,4510.74484228,0.0
1.09362536193,1.11714844654,1.01819741027e-05,-24350999.3627,1.51843880002e-05,0.0,5744256.60164,681.107466132,650.363558102,66780937.5017,1751.92253149,36670473.3585,69019078.3139,4539.63887737,4530.9426282,0.0
1.18386837612,0.798932876547,1.01444733492e-05,4855599.38647,2.65947557426e-05,0.0,6492147.0217,686.781163817,656.068988202,65664320.0469,1863.92443494,52565400.7725,66917245.4232,4914.23762927,4903.47084338,0.0
1.2027933745,1.17190876952,1.00524933891e-05,9162673.18054,2.08914313913e-05,0.0,10519705.0455,687.812861925,657.254704371,65388786.1099,1884.09344332,55384015.9252,66835716.8264,4992.79529755,4980.93938579,0.0
1.09438070863,0.979703582221,1.01161102774e-05,-24156651.4786,1.69642069609e-05,0.0,5734062.63097,681.261390376,650.417195591,66750283.2989,1752.9217835,36728183.2867,69018614.1168,4542.77432152,4534.06681703,0.0
1.16090192708,0.995288104497,1.03342155078e-05,-735225.438466,2.09971369425e-05,0.0,5445209.51744,685.186707603,654.665275426,65860967.3907,1834.43765894,49219565.9927,67602266.9394,4818.90389931,4808.13219553,0.0
0.973889261842,0.865353713625,1.03327651674e-05,-94390574.2893,1.48086336314e-05,0.0,6014536.42434,681.888319194,642.667322826,67451822.7465,1614.1351255,69375830.9916,69608164.6197,4042.61432591,4036.05955995,0.0
1.19138656949,0.873406256928,9.86874499252e-06,5681745.01116,2.52371213615e-05,0.0,7269569.215,687.47322112,656.547230523,65460324.9963,1871.47104007,53054404.656,66636098.4147,4945.44564995,4933.78705129,0.0
1.11782889484,1.16496861976,9.95146566476e-06,-15338605.1749,1.60004258953e-05,0.0,5630085.55028,682.645251957,651.844862562,66439328.3904,1780.45124541,41114845.4989,69119803.2407,4640.10774248,4630.04565914,0.0
1.16214683656,0.997975313693,9.9754214598e-06,-845951.977948,2.07499204195e-05,0.0,5482010.91848,685.456988674,654.758415637,66004625.528,1836.87717122,49526104.5877,67956875.5735,4824.07151856,4813.57598,0.0
0.961492297572,0.951867549552,1.01501058025e-05,-93856570.8974,1.41045895212e-05,0.0,6040086.69795,684.20265937,641.866530954,67501144.4403,1612.65862122,68905579.1006,69130477.0687,3991.15452722,3984.47651811,0.0
0.985654466502,1.13884908393,9.89330827378e-06,-95284088.1764,1.19486545942e-05,0.0,6007626.44884,680.112563488,643.423122941,67415744.2879,1612.52062149,70162282.5649,70404762.563,4091.45169045,4084.32316223,0.0
1.15648414896,1.02651866001,9.86448952823e-06,-5401371.43016,2.1250031114e-05,0.0,5558594.58058,685.141524263,654.386250901,66268201.3388,1832.999059,47006825.7324,68637432.779,4800.56570233,4790.96590084,0.0
0.986595032145,0.906245701827,1.00325462663e-05,-95024974.5501,1.42867406795e-05,0.0,5932930.58161,680.08687135,643.467140335,67197068.5139,1611.08476573,69934344.0347,70177076.9407,4095.35597843,4087.26473439,0.0
1.17670195204,0.785375348627,9.81258726524e-06,2576043.30457,2.56078428844e-05,0.0,5419271.72504,686.553303489,655.648705253,65811395.4913,1855.59571192,51440780.795,67088818.2415,4884.48980292,4873.85328896,0.0
1.23756803646,1.10104033725,1.01019402299e-05,17102781.3394,2.47695043587e-05,0.0,18669190.69,689.77254063,659.322658512,65041639.6244,1925.83938598,61736649.3825,67016119.6356,5137.14491935,5125.19923737,0.0
1.1557168105,1.031769874,1.00340847323e-05,-4551594.46614,1.99963246991e-05,0.0,5512098.30178,685.066297351,654.366845283,66107193.0018,1829.78406542,47425234.9941,68005667.3245,4797.38048039,4787.08570421,0.0
1.07175172642,0.856412878511,1.05341078887e-05,-31055393.3615,1.68844443924e-05,0.0,5771161.47867,679.708479823,648.970631216,66848722.3072,1723.41914521,35089372.1037,69197911.4284,4448.84141637,4440.48484253,0.0
1.0311940371,0.940754110636,1.00864008362e-05,-59307757.1755,1.4205708046e-05,0.0,5851621.44756,678.03023108,646.306960095,67036316.9977,1667.79166731,42251904.7377,71038917.7259,4280.486448,4272.00598601,0.0
1.06124047922,1.19951489438,9.88859811562e-06,-38863555.2516,1.24327586354e-05,0.0,5837612.41575,679.380929762,648.222872939,67034682.2367,1708.88928732,34773419.2367,69996361.0678,4405.20922924,4396.82754942,0.0
1.16845798958,0.713550905201,9.73397709066e-06,-997361.641855,2.84562571415e-05,0.0,5475580.39403,686.218970004,655.171317597,66011176.4369,1847.79019875,49462965.4519,67841397.0046,4850.26911475,4840.33808388,0.0
1.06560400654,1.03382194184,1.01219373114e-05,-35870931.1427,1.42648584216e-05,0.0,5808547.29349,679.500491992,648.505501297,66947086.1645,1714.77819696,34653885.3338,70074541.1707,4423.32223115,4414.87223727,0.0
1.12376039427,1.14655415815,9.75644517387e-06,-14009587.3236,1.6502165719e-05,0.0,5662362.2961,683.1102006,652.248035445,66564153.4974,1789.99639133,41880837.2773,68806375.9615,4664.72939661,4655.26074736,0.0
1.08424878753,0.939132318281,1.00418943841e-05,-27115527.0005,1.62065493427e-05,0.0,5725305.96737,680.829315612,649.791186701,66704540.711,1737.82929509,35940281.6922,68910927.8737,4500.71671704,4491.40647869,0.0
1.07136434755,1.16362532945,9.95816509444e-06,-33155069.6058,1.32485168016e-05,0.0,5808628.24759,679.848480008,648.85036857,66955290.9112,1722.05398998,34967370.2363,69818002.1956,4447.23340668,4438.69505963,0.0
1.12487834786,0.838381962047,1.05416172961e-05,-12624302.9441,2.15970184545e-05,0.0,5576866.76595,682.880107448,652.329885634,66291505.0544,1790.99793646,42690612.164,67118282.1044,4669.37002197,4659.68128435,0.0
1.08145588445,0.871078582763,9.79625050392e-06,-29681540.4075,1.69403096455e-05,0.0,5776782.78525,680.815257811,649.614103235,66881880.2203,1736.20563518,35605031.3906,69358733.9213,4489.12337635,4480.61803291,0.0
1.10357308969,1.02558084706,9.89791504673e-06,-21765362.9168,1.68324555063e-05,0.0,5723827.56591,681.985644658,651.055535757,66744194.1942,1765.12993698,37673888.3528,68613603.193,4580.9318953,4572.07988656,0.0
1.10737827874,0.720948872377,9.62830632514e-06,-19349815.4187,2.0594478743e-05,0.0,5673146.19301,682.533544832,651.279737536,66568164.3651,1768.93887872,39227178.1646,68690629.2663,4596.72723505,4587.33004323,0.0
1.03496435654,0.845710073699,1.01375485949e-05,-55474814.3761,1.51463681717e-05,0.0,5836136.90581,678.163529772,646.549102601,66998262.0286,1672.86205083,40119346.8824,70939339.7746,4296.137044,4287.59562473,0.0
1.0031511723,1.16573388384,9.78293263997e-06,-96012245.9822,1.19834114187e-05,0.0,5945157.05171,678.458019987,644.536336468,67252708.8012,1630.26510029,70803046.971,70837505.1665,4164.08051622,4156.13077549,0.0
0.969596280691,0.852320739116,1.02670773788e-05,-94228821.8309,1.48593603889e-05,0.0,6026971.7199,682.666334632,642.391585909,67481757.3549,1613.73470229,69233358.9953,69463165.1734,4024.79416115,4018.29797267,0.0
1.1876469363,0.840493855164,9.96745378727e-06,5365105.99638,2.57302769441e-05,0.0,6979255.78746,687.179129934,656.297076208,65488875.5881,1866.71918743,52904602.1821,66781083.9066,4929.92243258,4918.35385589,0.0
1.20586052036,1.12279321895,9.87105062397e-06,9738544.59918,2.16991937079e-05,0.0,11112705.0534,688.116725204,657.428591413,65364901.366,1887.97328755,55856192.0058,66972912.5048,5005.52702001,4993.58708696,0.0
1.10577634823,0.88782694135,9.96492825609e-06,-18787206.0578,1.8459743897e-05,0.0,5649271.48504,682.133362472,651.155572178,66493887.2028,1765.30354895,39255268.2252,68762221.0334,4590.0776215,4580.2715032,0.0
0.97147824331,1.12957870818,9.77677205528e-06,-94672460.5261,1.24239440021e-05,0.0,6057125.2045,682.901566305,642.516749968,67553957.677,1614.07010233,69623586.2062,69857421.1613,4032.60618798,4026.01027863,0.0
1.04171912666,0.913430892199,1.01840286907e-05,-49795242.0024,1.47944853651e-05,0.0,5822780.13666,678.359236703,646.952654804,66964572.7878,1681.78919509,37477517.0812,70927951.6694,4324.17609477,4315.52639994,0.0
1.14875072319,1.09999177996,9.99409801719e-06,-7608189.27979,1.97051022574e-05,0.0,5591122.32825,684.504382544,653.866479715,66368566.6602,1823.32742252,45733496.2128,68642923.2129,4768.46425196,4759.08511624,0.0
1.04649438666,1.14864084951,1.02147613317e-05,-43957733.2055,1.23921901812e-05,0.0,5844831.41361,678.385142614,647.283865424,67029666.3395,1688.35641794,35555237.2571,70563479.2648,4343.99819903,4335.57651844,0.0
1.22631787201,0.760010800523,1.02906770123e-05,14821692.4569,3.19252070733e-05,0.0,16296576.2625,689.432930995,658.774388013,65046582.6738,1913.99147582,59914348.2675,66585295.1098,5090.44548671,5078.9310931,0.0
0.998520956599,1.15732181567,1.05290289244e-05,-95676543.6522,1.21968677507e-05,0.0,5902256.71763,677.561270429,644.223660105,67128034.6776,1623.10225827,70506928.8034,70506928.8034,4144.86049084,4136.65726555,0.0
1.11004168818,0.817575058576,1.04997878954e-05,-16596445.2316,2.02703720362e-05,0.0,5631147.06299,681.98091862,651.376910283,66432608.2574,1772.05184189,40340651.4012,69041053.6322,4607.78304764,4598.34120458,0.0
0.970524782798,0.991058051931,9.93065298069e-06,-94309513.489,1.39988045647e-05,0.0,5996823.86859,683.196138423,642.440614794,67366800.9021,1613.03756114,69304349.8787,69535696.0968,4028.64837339,4021.20332599,0.0
1.06282638376,0.984422343976,9.83067652845e-06,-38304215.0089,1.45435644834e-05,0.0,5820404.5626,679.710849728,648.409279831,66983734.5943,1711.13535971,34723459.0327,70043458.3869,4411.79231899,4403.38590065,0.0
1.13834927032,0.685725141885,9.99741273559e-06,-8887640.28947,2.54330117082e-05,0.0,5550761.76912,684.138457285,653.207527288,66230858.8204,1808.80024386,45222379.2426,68018692.0144,4725.2878211,4715.5546883,0.0
1.13569781674,0.897730856521,9.85229962887e-06,-10649013.0088,2.12286491419e-05,0.0,5590970.7104,683.972730199,653.053187648,66347656.3258,1805.45757828,44063024.851,67736892.0873,4714.28163729,4704.58936047,0.0
1.09448653797,1.17531332792,1.03722093548e-05,-23188539.6959,1.46581511944e-05,0.0,5721966.77293,681.042081808,650.444889577,66715715.2311,1752.08465603,37041271.9228,69025436.2897,4543.21361911,4534.21150958,0.0
1.11251998363,0.797940079225,1.01849364541e-05,-16606140.7212,2.06602111438e-05,0.0,5652744.46184,682.317878803,651.54240321,66517116.7964,1775.80436267,40472976.5767,69173437.3669,4618.07045205,4608.88493121,0.0
1.04031736225,0.649124917245,9.45161803285e-06,-54929057.4519,1.74995589008e-05,0.0,5820761.98068,679.070240261,646.889528989,66952745.6264,1679.151167,39860098.1153,71385375.1171,4318.3573707,4309.46975204,0.0
1.10910335022,1.1116302884,1.0042269642e-05,-19790782.947,1.6282630286e-05,0.0,5707231.78551,682.14476814,651.377767944,66689658.3401,1772.17946618,38574565.9789,68907450.4829,4603.88800676,4594.94688716,0.0
1.11318341674,0.890697194187,1.00443601483e-05,-16392686.2962,1.921934748e-05,0.0,5617224.14514,682.470378951,651.570753466,66393764.0673,1774.72211977,40585406.3243,69191881.9229,4620.82436289,4610.84182587,0.0
1.12887990603,0.773433116759,1.00033254103e-05,-12079559.8129,2.24873805586e-05,0.0,5578105.34578,683.419839843,652.515148494,66303162.4904,1795.96335675,43116001.1806,67279342.5435,4685.98048993,4676.12431467,0.0
1.10945619017,0.689285296193,9.49302534503e-06,-19195783.9904,2.16078833484e-05,0.0,5615081.95707,682.843861047,651.38652176,66385456.015,1769.80007229,39340327.9256,68744557.4334,4605.3526454,4595.14882581,0.0
1.22087749167,1.18277594432,9.94852027244e-06,12951362.4669,2.19239243983e-05,0.0,14145137.4444,689.00825141,658.408863335,65190412.0096,1905.69353936,58373151.0412,66509451.1586,5067.86246792,5055.74261307,0.0
1.15570734775,1.05088649075,1.01985464991e-05,-5158086.35476,2.13020790407e-05,0.0,5550751.36969,684.932626957,654.380015851,66254956.3493,1832.07424888,46940557.5024,68480731.4923,4797.34120051,4787.84859121,0.0
1.08198397799,1.21676959742,1.02783819824e-05,-28789722.2629,1.37275744375e-05,0.0,5783855.19141,680.393823194,649.667663153,66899114.2475,1737.23862302,35634544.9168,69261793.4994,4491.31549264,4482.99630205,0.0
1.16174000661,1.0797969098,9.82455380133e-06,-2716413.12341,1.91560823561e-05,0.0,5470815.44291,685.538841456,654.728015179,65979252.4736,1835.68977586,48357730.2689,67825416.702,4822.38276744,4811.47788257,0.0
1.11737708045,1.07882078742,9.58680376309e-06,-18361848.9786,1.70890750215e-05,0.0,5706597.21286,682.933049979,651.889651437,66699352.9373,1783.40803391,39458301.3599,69266854.4171,4638.23226095,4629.26226453,0.0
1.09127304981,0.886704753715,9.74967056026e-06,-25990869.434,1.72821154965e-05,0.0,5750193.88731,681.39012984,650.226598313,66808762.6558,1748.85431528,36290505.096,69334712.9758,4529.87442976,4521.11807668,0.0
1.08057332035,0.884295827238,1.03105473995e-05,-28520583.5673,1.71804436647e-05,0.0,5763510.83248,680.414559688,649.576733257,66841025.8513,1735.37428752,35654773.1737,69194238.8998,4485.45985277,4477.06491097,0.0
0.979623906179,0.669679855138,9.57950352868e-06,-94830376.4347,1.65040389264e-05,0.0,6009352.71837,682.731033339,643.037957618,67418199.922,1619.05585585,69762763.283,70000224.7863,4066.41883455,4059.452894,0.0
1.09189858543,0.717257163552,1.00461158713e-05,-25213916.3986,2.01455185563e-05,0.0,5725167.38401,681.264329871,650.236315446,66732058.0862,1750.01437139,36359744.2655,69113569.0528,4532.47102812,4523.80276444,0.0
1.12622247588,1.07071799418,1.06174858701e-05,-12198981.9529,1.84385492226e-05,0.0,5589579.60209,682.802448604,652.42487864,66334809.6887,1792.44392391,42954955.8064,67281660.8542,4674.94949738,4665.23825544,0.0
1.16839479633,1.05520676419,1.01916268403e-05,824791.81043,2.04729153083e-05,0.0,5453664.04507,685.66717583,655.143447073,65909548.3752,1844.48422782,50245462.3688,67516505.0554,4850.00679957,4839.40128506,0.0
0.915957380734,1.17883635256,1.00562597653e-05,-91922769.4344,1.16331535029e-05,0.0,6128623.61614,690.320724652,638.924529655,67683514.4671,1598.89951197,67203279.6197,67683514.4671,3802.13908743,3795.50475598,0.0
1.09992055154,0.822126794484,1.01736214338e-05,-22369444.0164,1.93937396696e-05,0.0,5704096.79263,681.675839355,650.818576352,66666918.3322,1760.38070089,37376602.94,68400423.3647,4565.77020944,4556.97593468,0.0
1.04436014527,0.852148510311,1.0094244643e-05,-48962877.2828,1.55199160206e-05,0.0,5818179.53269,678.607480985,647.148763176,66958757.1307,1685.52258385,37117239.5535,71017941.4328,4335.13896302,4326.53467946,0.0
1.02772359119,0.976309268339,9.98431764319e-06,-62609777.6482,1.3864579527e-05,0.0,5918592.17372,677.917757141,646.105627118,67243287.16,1665.76942288,44366290.0581,70943479.4871,4266.08062703,4258.81640171,0.0
1.11081933612,1.00507454683,1.01454648001e-05,-17087739.3734,1.77169653563e-05,0.0,5627842.4194,682.219010449,651.437000264,66426194.8113,1771.38887831,40225595.491,69076433.1613,4611.01106423,4601.07037383,0.0
1.18104750266,0.878279976536,1.01217421769e-05,4133195.69687,2.45896859808e-05,0.0,6024284.92578,686.552796964,655.891491989,65732497.4991,1860.39649744,52157864.4596,67001745.0115,4902.52818354,4891.81053065,0.0
1.185683119,0.800128683208,9.57546296036e-06,4277708.96171,2.56697037303e-05,0.0,6083158.32567,687.292677122,656.184974327,65628171.7372,1865.36642739,52428234.3448,66972620.8019,4921.77062697,4910.44305441,0.0
1.07413593641,0.994324364073,1.01554003265e-05,-32556787.928,1.55017198996e-05,0.0,5799843.82774,679.89171288,648.997113024,66946920.5437,1727.14285013,34925579.295,69604368.1205,4458.73827204,4450.53844828,0.0
1.10428088302,0.94077215216,1.02532647906e-05,-19014035.9767,1.81626117608e-05,0.0,5625271.35643,681.831061662,651.045183198,66416177.2303,1762.44068368,39331174.4326,68694430.6229,4583.86994542,4573.8531014,0.0
1.09782131002,0.822238116027,9.34289600908e-06,-24740718.9159,1.81943961472e-05,0.0,5746377.39115,682.035665236,650.612478535,66799825.6231,1757.61652724,36766107.7152,69394910.3601,4557.05625789,4548.19455054,0.0
1.05165539681,1.14496665318,1.0136717949e-05,-43701253.8978,1.28856319182e-05,0.0,5818990.32177,678.743144496,647.596369773,66969247.732,1694.75292733,35483887.17,70442024.1409,4365.42155216,4356.66708427,0.0
1.00563947152,1.04209866537,9.94489723274e-06,-90846961.3899,1.3259123275e-05,0.0,5898698.70304,678.126995696,644.684088431,67117424.607,1632.34529908,66270934.4317,70797513.9644,4174.40944628,4166.0093179,0.0
1.10106015078,0.87916669961,9.82995151236e-06,-22678646.256,1.83868803808e-05,0.0,5723027.56987,681.942334426,650.8881525,66734680.4351,1761.99668901,37294719.9032,68869309.0317,4570.50068589,4561.68671901,0.0
1.14157222299,0.895687456055,1.00923142944e-05,-8957721.54937,2.19235923319e-05,0.0,5540224.13308,684.040980094,653.287925927,66186671.8665,1812.16740815,44879570.2552,68177157.1004,4738.66629763,4728.56909112,0.0
1.05456915759,0.728795570075,9.95830437414e-06,-42689373.8776,1.6984769688e-05,0.0,5803097.17614,679.192298959,647.781623928,66919456.8448,1699.5191256,35251683.1907,70484099.5472,4377.51657316,4368.89306935,0.0
1.02730617254,1.16378666564,1.03606075216e-05,-63517399.0652,1.22912961513e-05,0.0,5838286.08605,677.579636276,646.051934451,66997014.5825,1661.04108945,44905281.0289,70669694.8164,4264.34792221,4255.50659941,0.0
1.16350534067,0.97071476614,9.69854018451e-06,-1036566.99211,2.09834171427e-05,0.0,5488459.1003,685.730364816,654.850063919,66020354.8628,1838.80213082,49590777.7667,67877405.9523,4829.71066912,4819.19157333,0.0
1.15558878212,0.804421988429,1.00874452782e-05,-5362783.28814,2.56718732488e-05,0.0,5532509.14861,685.137827037,654.376364227,66197808.6424,1832.26543378,46909760.2464,68464320.5635,4796.84903458,4787.35833518,0.0
1.07710993092,1.03166250562,1.00329616146e-05,-30716680.3541,1.49635078889e-05,0.0,5793335.18689,680.138702979,649.196093414,66918567.0591,1730.38209606,35372127.4273,69338368.5822,4471.08332325,4462.64540868,0.0
1.15336866189,1.24869351401,1.00146270786e-05,-4860732.4953,1.76765313751e-05,0.0,5559722.96109,684.740049047,654.180985446,66267643.9643,1827.46994969,47450542.5104,68662339.9873,4787.63331551,4777.75438234,0.0
1.17250771215,1.06187311224,1.0557769176e-05,2657497.54109,2.09626221784e-05,0.0,5404262.96543,685.677985221,655.359421748,65714498.5423,1848.52031135,51111582.2654,66962796.726,4867.07951313,4856.20597133,0.0
1.21518152416,1.07522115244,1.00617743435e-05,11860590.2783,2.33749925577e-05,0.0,13120669.3233,688.623965062,658.038875582,65259335.6974,1899.75723475,57476222.7468,66331123.9346,5044.21850679,5032.43277975,0.0
0.997873660603,0.881006451507,1.00532689011e-05,-95492637.623,1.4582717625e-05,0.0,5903945.40822,678.604678052,644.188018419,67123056.5209,1622.13931327,70346322.1325,70699993.3676,4142.17356516,4133.8997532,0.0
1.22764371674,0.801129148764,9.49707697132e-06,14068227.7634,2.93562638855e-05,0.0,15513343.7601,689.984857137,658.851883799,65062406.9212,1915.19133503,59295962.7936,66518260.534,5095.94906819,5083.83458897,0.0
1.07033900919,0.76887648467,9.43406440565e-06,-34811101.4889,1.69834020489e-05,0.0,5810214.3767,680.356268624,648.81195211,66959253.7859,1721.02930103,34757426.9411,70319795.7243,4442.97722715,4434.45474198,0.0
1.16305239797,0.775190254932,9.39581503178e-06,-3038865.78441,2.59005488604e-05,0.0,5523277.14919,685.971351146,654.797579668,66181334.9347,1841.00885336,48664784.8798,68552933.8442,4827.83050397,4817.99094447,0.0
0.989242128477,0.908904747971,1.00296392202e-05,-95135740.9904,1.42971987959e-05,0.0,5926986.00482,679.699922742,643.63647936,67182218.7824,1611.63243704,70031861.8322,70277478.9408,4106.34407531,4098.2101774,0.0
1.27426456749,0.853985698328,9.82966419669e-06,24179823.0686,3.46476679739e-05,0.0,26065984.411,692.68929293,661.772204608,64435663.305,1968.82588827,67176040.7769,68168873.0276,5289.47221965,5276.97780189,0.0
1.00717571609,1.158300553,9.97656609889e-06,-89096330.4459,1.21604296062e-05,0.0,5901606.48316,677.945944444,644.779057325,67128983.6955,1634.3169047,64781973.8307,70913013.9582,4180.78639749,4172.36114966,0.0
1.13307558046,1.00761858964,1.00921223564e-05,-11216408.9392,1.95015443824e-05,0.0,5581704.5288,683.516736801,652.79716418,66304417.061,1801.21117719,43557837.1876,67611256.3871,4703.39673449,4693.46823857,0.0
1.04318555016,0.695973744382,1.03027304591e-05,-48429713.8091,1.6911898702e-05,0.0,5801415.75237,678.439905532,647.070595247,66904413.6541,1683.89786181,36893434.4192,70676430.6111,4330.26321871,4321.58964824,0.0
1.01146497044,1.14946235021,1.00809797225e-05,-83525571.2507,1.22514685903e-05,0.0,5886456.21974,677.684008614,645.050072626,67090981.4197,1640.07436389,60079604.3487,70687223.7933,4198.5910923,4190.09555057,0.0
1.12909472356,1.04197640239,9.90701235818e-06,-12317229.5626,1.84276779833e-05,0.0,5604839.98302,683.443166831,652.603870698,66383325.1357,1795.96999444,43039686.3572,67329525.1886,4686.8721975,4677.01238669,0.0
1.11356287395,0.892045230081,1.0049507971e-05,-16398817.4944,1.93119811361e-05,0.0,5666750.71787,682.422710707,651.611762934,66557572.4503,1777.24434275,40575960.4829,69246461.1488,4622.39948977,4613.19790737,0.0
1.05342280041,0.917464082579,1.03315293973e-05,-43105782.269,1.51623045734e-05,0.0,5798291.16826,678.807462823,647.706067495,66906852.5434,1697.88563982,35302397.3505,70343099.0154,4372.7580445,4364.09616432,0.0
1.11621259611,0.883956855121,9.81898966769e-06,-17819282.3932,1.95692841631e-05,0.0,5673402.60914,682.785347487,651.795444672,66587924.8324,1781.35165657,39805413.1717,69188620.9398,4633.39848645,4624.24375127,0.0
1.05718261575,0.79148922499,9.63188097065e-06,-44195132.7829,1.66330796698e-05,0.0,5793039.48409,679.609838677,647.943766311,66893838.1989,1702.08182148,35606746.1033,70375377.4362,4388.36503798,4379.37121842,0.0
1.08219232474,0.856196110293,9.8655778156e-06,-29194582.1882,1.72271744068e-05,0.0,5770883.51407,680.826084372,649.669746103,66854705.7948,1737.18513896,35683354.7927,69330067.1032,4492.18034,4483.66354863,0.0
1.06518661171,0.803586102394,9.7268912407e-06,-37591592.314,1.65892370256e-05,0.0,5809947.76662,679.86729584,648.478572071,66954115.9401,1714.38227957,34691172.5849,70140240.1467,4421.58962521,4413.14633448,0.0
1.11835272491,0.595677353487,9.95740817348e-06,-15138029.24,2.51100409301e-05,0.0,5622956.96418,682.947053787,651.893155524,66428096.2539,1783.84135739,41200735.2166,69110026.6392,4642.2821611,4633.00195186,0.0
1.13530876545,0.899922455957,1.02489998856e-05,-10837183.5948,2.20659166671e-05,0.0,5607354.32986,683.651977163,653.038076443,66404981.6167,1806.35405244,43812381.4175,67827920.4346,4712.66668538,4703.52682251,0.0
1.22328312787,1.0386349585,1.01330987145e-05,13670899.8688,2.48641421726e-05,0.0,14979121.221,689.141102205,658.570786378,65149782.7335,1909.12630232,59002173.9601,66558061.5489,5077.84826379,5065.93661649,0.0
1.19911026582,0.920807312322,1.01251801149e-05,9014048.20201,2.50987681448e-05,0.0,10444141.1746,687.672420684,657.058170002,65496663.0607,1881.44317165,55306887.5801,66758264.0561,4977.50671342,4966.35837593,0.0
1.12202910766,1.00535375388,9.60024661102e-06,-15322909.9949,1.8441021508e-05,0.0,5687876.7449,683.151203861,652.142108435,66644951.503,1789.17376713,41307037.7813,69280499.8438,4657.5428259,4648.51000961,0.0
1.12968911806,1.17263941431,9.70819476858e-06,-12459510.0067,1.66279666019e-05,0.0,5642907.69312,683.526410273,652.650928643,66510497.7366,1797.51511802,42835722.7973,67896213.6813,4689.33952907,4679.74768971,0.0
1.07142149143,0.982714452657,1.00701476118e-05,-32649341.67,1.5201000285e-05,0.0,5792542.12301,679.824478511,648.837442588,66907772.1966,1722.26832365,35024726.4022,69669955.8398,4447.47061093,4438.92989088,0.0
1.15408408877,0.838852143835,9.77715231962e-06,-3613333.57818,2.23220626641e-05,0.0,5481625.32922,685.03498157,654.118402432,66006571.0356,1826.31073717,48217640.8943,68379120.6743,4790.60305248,4779.86266895,0.0
1.00381621944,1.13950447756,9.85349137712e-06,-92977896.5357,1.20438825001e-05,0.0,5989108.04579,678.026665184,644.590393341,67398779.9537,1633.44416453,68134943.9994,71002843.7789,4166.8411269,4159.87768096,0.0
1.1435298861,0.814332388399,1.0394028247e-05,-7025154.37149,2.44264299325e-05,0.0,5557003.95505,684.05438697,653.521958496,66239579.5209,1816.23544171,46044700.9693,68453843.1464,4746.7925572,4737.41856308,0.0
1.2024897325,0.748237564232,9.70898958242e-06,9102822.84689,2.88699292568e-05,0.0,10601199.3009,688.335597093,657.261459817,65332537.3446,1885.21133602,55447741.9562,66733194.3893,4991.53487961,4979.87578381,0.0
1.10104343363,0.935222137062,9.97028541007e-06,-22305093.8757,1.78178597992e-05,0.0,5721439.75875,681.822846269,650.890314667,66717148.2852,1761.90773578,37424823.7362,68618016.7651,4570.431293,4561.61758975,0.0
1.06350460211,1.01893024059,9.46250261068e-06,-38519013.4242,1.38957101762e-05,0.0,5832345.76882,679.884607506,648.368880099,67011715.3265,1711.42970859,34757162.273,70085567.87,4414.60760336,4406.00499806,0.0
1.0672408827,0.889664823067,9.96562172439e-06,-35714847.6354,1.58517709434e-05,0.0,5801216.05342,679.764409938,648.611594234,66935597.4419,1717.03287076,34668986.8489,70092547.6926,4430.11690409,4421.64146704,0.0
1.06755884286,0.9864867593,1.02727596828e-05,-34806153.7839,1.51050154821e-05,0.0,5797795.20962,679.524185088,648.63346902,66925069.2859,1717.7088355,34691039.7983,69839464.1702,4431.43675671,4423.05031712,0.0
1.11434039566,1.04266141227,9.62181601336e-06,-17476795.915,1.70927376789e-05,0.0,5628416.447,682.79448253,651.666673442,66438648.1577,1775.69411117,40062541.8442,69089896.4119,4625.62698238,4615.33772733,0.0
0.978204887917,0.911428816386,9.96935855423e-06,-94866294.9452,1.43222652031e-05,0.0,6022311.69998,681.497562062,642.947787079,67460897.4051,1613.75906188,69794341.882,70032119.2998,4060.52848974,4053.83731664,0.0
1.0269259647,0.873736080225,1.00360044308e-05,-61985016.8107,1.46968290154e-05,0.0,5903711.48988,677.856773401,646.041172617,67195162.2369,1664.14765924,43987571.7651,70883074.355,4262.76967947,4255.34379529,0.0
1.09668388671,0.832301918178,9.95047146184e-06,-23973140.8548,1.87672577467e-05,0.0,5724356.80947,681.588079973,650.574912542,66734773.1301,1756.17135553,36824390.9548,69053118.0898,4552.33481373,4543.59071301,0.0
1.07277628863,1.00564381515,9.8270665331e-06,-33292339.0959,1.48968582884e-05,0.0,5810787.01237,680.078099381,648.941742202,66971833.3871,1724.71106538,34895921.7112,69937950.8839,4453.0943741,4444.72347771,0.0
1.0496191524,0.919557562689,1.01371472439e-05,-46193030.7583,1.51115736774e-05,0.0,5808068.98133,678.792638277,647.47649422,66938769.897,1692.46513776,36139897.1751,70449175.135,4356.96910161,4348.27960764,0.0
1.0411362214,0.913384096148,1.01642423543e-05,-50738792.2113,1.45983068599e-05,0.0,5834220.13457,678.335165706,646.913340176,67004523.7889,1681.56683029,37834007.1343,70859156.6537,4321.75645503,4313.29226184,0.0
1.09934492506,0.816919841392,1.01818110578e-05,-22461217.0607,1.94207551946e-05,0.0,5704929.38627,681.633154432,650.779936796,66669802.1039,1759.6293451,37287135.3925,68445308.0726,4563.38078392,4554.59557597,0.0
1.21582381694,0.834852597573,1.00484108582e-05,12412322.4229,2.83570837599e-05,0.0,13679537.2363,688.80351488,658.097938403,65275253.0437,1901.9711337,57910945.9962,66396736.0986,5046.88466412,5035.55729219,0.0
1.12577521229,0.732195707376,1.01056571218e-05,-12765507.8042,2.25678776615e-05,0.0,5581227.35121,683.266870243,652.383353447,66306699.3592,1792.10488087,42659192.3586,67460481.3951,4673.09290622,4663.3067965,0.0
1.21183084221,1.02538692638,9.96996245426e-06,11054624.255,2.40305149102e-05,0.0,12355243.9242,688.485695155,657.791000469,65252122.307,1895.41531273,56829105.22,66459864.151,5030.30982601,5018.36664388,0.0
1.13267831323,1.09147543187,9.85080472913e-06,-11466769.2878,1.80666557607e-05,0.0,5619123.36895,683.674566081,652.85385496,66429237.4428,1801.37986723,43466388.0056,67592662.6273,4701.74767822,4692.10633282,0.0
1.11879018482,0.731441340579,9.83849898932e-06,-16990193.0441,2.21748705072e-05,0.0,5649424.40173,682.982056216,651.927905399,66519115.7969,1784.85513464,40270410.363,69304070.9396,4644.09805719,4634.90181578,0.0
0.993385260746,0.881771914505,9.95198405745e-06,-95321170.4312,1.45792505709e-05,0.0,5919648.76884,679.328217182,643.903495029,67161589.0249,1616.13303732,70195072.9273,70443741.7443,4123.54221736,4115.34117722,0.0
1.06867335156,1.04651296437,9.55729343306e-06,-36083798.1443,1.38560318963e-05,0.0,5826999.73004,680.07240399,648.70409963,67009899.4492,1718.83022591,34715833.3204,70390875.8656,4436.06308233,4427.56643377,0.0
0.977694854468,0.870199206806,9.74478848369e-06,-94768307.3072,1.46520438138e-05,0.0,6023994.05917,682.442747918,642.914058325,67462621.8686,1616.88139743,69708013.899,69945530.2839,4058.4113409,4051.55520857,0.0
1.03836297238,0.914840525697,1.00854816063e-05,-52169835.1241,1.46009623452e-05,0.0,5830603.09846,678.303712027,646.75203202,66986433.8328,1677.04866367,38386263.5164,70903259.4848,4310.24469835,4301.56106964,0.0
1.15534739194,1.16396412284,9.79033352829e-06,-2974210.69508,1.74122213756e-05,0.0,5539537.30523,684.85812943,654.204793908,66188555.8216,1828.39121976,48630781.2939,68553331.5314,4795.84702394,4785.47287649,0.0
1.10527487857,0.999904517847,9.65636498585e-06,-20398966.096,1.70185287083e-05,0.0,5651254.49299,682.302124466,651.133809788,66494018.406,1763.85259768,38656649.4844,68612865.0393,4587.99602094,4577.86598346,0.0
1.05785735742,0.982812903978,9.76663175506e-06,-41878374.769,1.44327007363e-05,0.0,5818803.55238,679.390680487,647.979868181,66971489.0515,1703.64072491,35184714.0036,70120685.3033,4391.16589065,4382.48949034,0.0
1.1047904464,1.05569132331,9.80199964667e-06,-21288335.7564,1.63576745438e-05,0.0,5722771.8019,682.110000982,651.132222506,66733592.3843,1766.44051902,37921361.7366,68685453.3967,4585.98514301,4577.01250083,0.0
1.01739875979,0.886403993484,1.04080253588e-05,-69342134.8078,1.43404957326e-05,0.0,5882557.93973,677.380364363,645.43659529,67107930.5663,1650.12866797,48964297.941,70683308.2089,4223.22225189,4215.35949185,0.0
1.02651160563,1.01909627315,1.02850204549e-05,-63338119.3435,1.36096349366e-05,0.0,5854351.50515,677.664606384,645.994992307,67041729.0981,1661.37036778,44786280.6357,70854364.6755,4261.04967497,4252.64498452,0.0
1.15009756053,1.01583824222,9.89985103793e-06,-7308023.56424,2.10327656077e-05,0.0,5580742.61625,684.703927955,653.957837591,66330356.6621,1825.03132855,45964972.5732,68698922.1633,4774.05497376,4764.5988637,0.0
1.12384963235,1.00771047493,1.00287267713e-05,-13425808.4679,1.86129788097e-05,0.0,5613784.88933,683.044102574,652.255966298,66404528.4212,1789.25462584,42314573.9967,67965794.9275,4665.09982388,4655.3286279,0.0
1.18359960149,0.628302273299,1.02852224834e-05,5400756.96059,3.15455816902e-05,0.0,6981617.59128,686.829591844,656.056739141,65548977.4651,1863.88006449,52836585.6689,66798954.0715,4913.12194579,4902.43915774,0.0
1.13026863876,0.758773682724,1.01791474255e-05,-11638602.4942,2.30798780406e-05,0.0,5561145.47296,683.529189615,652.690025069,66238803.4856,1797.88821126,43236503.6418,67359844.7826,4691.74511949,4681.86501833,0.0
1.08581676596,1.11656875203,1.07588076904e-05,-25132401.6127,1.49494880614e-05,0.0,5675502.26383,680.262722227,649.819966617,66556106.8807,1738.410527,36513080.2812,68812534.1161,4507.2253955,4497.51743673,0.0
1.18908628981,0.894920155249,1.00605100367e-05,5830327.33496,2.46720928272e-05,0.0,7362143.67737,687.154453596,656.401773815,65531029.3319,1868.81854747,53031770.0131,66703122.7491,4935.897189,4924.51411518,0.0
1.03275504908,0.853053956994,1.01366886443e-05,-57459630.4284,1.50021433263e-05,0.0,5841515.03117,678.059908653,646.396945302,67009978.7231,1669.92172073,41166931.0152,70984556.4359,4286.96620873,4278.46053022,0.0
0.986499809557,0.99675626904,9.90731372627e-06,-95064874.8529,1.3639158982e-05,0.0,5942793.10542,680.405760276,643.462202828,67225047.5548,1612.22083065,69969432.4976,70212760.5925,4094.96070947,4086.8709981,0.0
1.24754454222,0.894000105009,9.8391470207e-06,18975066.3793,2.99598060442e-05,0.0,20581887.8283,690.960173233,660.050031605,64706302.3461,1936.86748888,63173022.033,65557299.2135,5178.55739476,5165.95843595,0.0
1.01096937869,0.847646854423,1.03247180784e-05,-75517141.2852,1.41520769043e-05,0.0,5903108.99517,677.254934306,645.013909116,67134525.1313,1641.21064981,53635450.1859,70584406.6471,4196.53389094,4188.77704943,0.0
1.15141800171,0.852315993825,1.018003086e-05,-6408674.37638,2.43974196604e-05,0.0,5549698.16888,684.722288138,654.066402316,66247848.6264,1826.87598111,46306574.1863,68596516.91,4779.5361251,4770.11419481,0.0
1.17260720569,0.885143432417,1.00976803204e-05,1730694.8026,2.36906347167e-05,0.0,5388941.26289,686.126473779,655.378811109,65711344.6929,1848.88817859,50695310.1745,66950837.752,4867.49251082,4856.39321444,0.0
1.09061096992,1.04792514575,9.84632845235e-06,-26363215.2726,1.55797281582e-05,0.0,5762000.20276,681.21440324,650.187803129,66840379.4912,1748.05534839,36215938.8983,69355908.7079,4527.12613614,4518.47802938,0.0
1.01955336678,0.974148091935,9.94687918111e-06,-72937258.6715,1.36495612885e-05,0.0,5938536.77304,677.786592527,645.598088355,67286224.9376,1654.75886782,51649355.926,70957637.1926,4232.1660255,4224.98041365,0.0
1.02088561539,1.08481732252,9.91597955426e-06,-71634861.5406,1.26723373606e-05,0.0,5941752.63451,677.788355825,645.671286662,67301762.6337,1656.44231349,50676372.2827,70957357.9309,4237.69618948,4230.4916332,0.0
1.08312149718,0.958132867138,9.47828115755e-06,-29628108.7058,1.56674643294e-05,0.0,5793556.83109,680.911482214,649.593370256,66925315.055,1738.09382709,35665944.6728,69486169.6723,4496.03733479,4487.40938342,0.0
1.17221397106,0.873284808819,1.00999673641e-05,1653050.56731,2.38851215829e-05,0.0,5388850.9229,686.110185224,655.355192349,65710207.8693,1848.42485471,50643237.0828,66955383.9223,4865.86019387,4854.76797953,0.0
0.909532450762,0.933950067147,1.00240350619e-05,-91531522.6665,1.35986510493e-05,0.0,6117479.31601,691.418807164,638.507291183,67641034.9364,1597.34032281,66859073.0483,67641034.9364,3775.46920311,3768.6788174,0.0
0.984161665473,0.962100431932,9.9083197924e-06,-95182165.3127,1.35448132689e-05,0.0,6000504.91689,680.373759284,643.327090523,67391511.9949,1612.22720648,70072576.303,70314054.3767,4085.25507338,4078.1481899,0.0
1.11624356259,0.791425659064,9.90438881799e-06,-15924554.3181,2.08491305569e-05,0.0,5655806.1893,682.714926804,651.764794327,66525346.5007,1780.84553824,40825288.6869,69376499.4812,4633.52702831,4624.28110222,0.0
0.981774693841,0.926220773275,1.02870173195e-05,-94744190.0619,1.41082783562e-05,0.0,5940419.03046,680.27818586,643.15793438,67210476.4923,1608.96820509,69687054.69,69925941.2964,4075.34675413,4067.41292793,0.0
1.03081171894,0.986463697613,1.03482198159e-05,-59537517.0915,1.40102302065e-05,0.0,5819426.39504,677.775361994,646.267949648,66943870.0917,1665.81770209,42341490.3924,70621062.1043,4278.89944532,4270.00050763,0.0
1.10891400493,1.05840512279,1.0105376865e-05,-17703745.2986,1.66846719997e-05,0.0,5649263.81445,682.115117477,651.335641767,66491362.2927,1769.23952258,39830089.0593,68976488.1214,4603.10203446,4593.29014039,0.0
1.12910431893,1.1861608869,1.01377304664e-05,-12188276.0448,1.67072931446e-05,0.0,5609902.57983,683.13578604,652.529977631,66385279.4668,1795.93595032,43029311.4281,67373539.0483,4686.91202788,4677.05163971,0.0
1.00443249494,0.947140838072,1.01463011263e-05,-90317738.3907,1.41010866611e-05,0.0,5887559.19065,677.884591689,644.605036714,67084523.7095,1630.85654311,65824411.9529,70756567.792,4169.3992865,4161.0201464,0.0
1.12676575273,1.1415429244,9.87631605168e-06,-13049505.8066,1.68692840859e-05,0.0,5650608.12362,683.240450323,652.460379162,66524026.9843,1794.14746463,42412031.4834,68216448.7233,4677.20463958,4667.78832024,0.0
1.10949410513,0.850669384816,9.91217858977e-06,-17773024.429,1.92387390946e-05,0.0,5632890.63991,682.395032117,651.373450241,66445356.0564,1770.03325501,39869437.8057,68943825.3838,4605.51003039,4595.5920831,0.0
1.07094069792,0.976929428101,9.82180632415e-06,-34082424.4766,1.51043347579e-05,0.0,5813729.34454,680.017768357,648.847768737,66977197.97,1722.34096957,34787984.5611,70040527.0022,4445.47483707,4437.13226113,0.0
1.11245790049,0.978185914611,9.89698262355e-06,-17101282.4062,1.80158430394e-05,0.0,5683647.10134,682.444919008,651.565823935,66618555.3954,1775.76687649,40240567.7863,69176581.8243,4617.81274493,4608.62903418,0.0
1.10657075366,1.13358976542,1.05372053546e-05,-17524079.4691,1.5872654867e-05,0.0,5667196.70204,681.623864623,651.18748436,66538680.2809,1767.2150057,39785951.2526,68900692.4511,4593.37519844,4583.99152522,0.0
1.12037510515,0.870937686895,1.03713516327e-05,-14090778.5798,2.04603294248e-05,0.0,5604200.94495,682.671920618,652.02899064,66364349.4511,1785.25435369,41723665.2853,68150184.8728,4650.67706148,4641.06356834,0.0
1.15043456547,1.09490809133,1.01340108179e-05,-6806540.13611,2.00813995814e-05,0.0,5577992.39103,684.560675936,654.006551244,66332750.6613,1825.39715435,46135473.3294,68735181.6511,4775.45388127,4766.04605725,0.0
1.07296133004,0.933111213219,1.01012271987e-05,-31819151.7955,1.58590135541e-05,0.0,5783922.59954,679.883487557,648.912470504,66885619.5158,1724.32823998,35120857.1094,69540517.823,4453.862481,4445.29903376,0.0
1.12706751021,0.771122240585,9.85271428179e-06,-12804544.2891,2.22565736736e-05,0.0,5611145.63061,683.471876513,652.477350724,66396744.577,1794.574354,42520416.8317,67978805.1981,4678.45723488,4668.9341512,0.0
1.18090641576,1.13855575299,1.02303291505e-05,4262261.32448,1.99436700744e-05,0.0,6030185.5025,686.318107607,655.873648109,65749762.5468,1859.1093616,52144307.9488,67051964.0964,4901.94253182,4891.0086474,0.0
1.11036696043,0.887635290731,1.01497562178e-05,-17332290.898,1.91616639341e-05,0.0,5669219.07342,682.194791646,651.434059176,66564160.3225,1772.93348209,40087208.9208,69053920.7023,4609.13325274,4599.98251776,0.0
1.14872663735,1.05705670157,9.92835472016e-06,-7740034.33741,2.03117700432e-05,0.0,5590722.9177,684.564862052,653.862130271,66365865.9156,1823.38132582,45702605.68,68616797.2678,4768.36427164,4758.98384453,0.0
1.07391825016,1.01935957635,1.04120236438e-05,-30520486.3062,1.52639340478e-05,0.0,5774353.39366,679.876817988,649.116937947,66854972.4446,1725.84788288,35221094.7621,69222707.23,4457.83465641,4449.34950844,0.0
1.11157172418,0.731114433497,9.90660693912e-06,-17252047.0063,2.13513471731e-05,0.0,5664602.84824,682.520933883,651.514467859,66559823.0347,1774.87149656,40110305.4834,69050957.0095,4614.13422707,4604.96391691,0.0
1.15593471365,0.740282144421,1.00431358396e-05,-5353882.37537,2.7055467318e-05,0.0,5526559.39324,685.227314321,654.398709504,66179423.541,1832.80655135,46933927.097,68456047.0476,4798.28499636,4788.78872412,0.0
1.10361144068,0.854397629696,9.88201836986e-06,-21725395.6622,1.89852503088e-05,0.0,5711170.04896,682.078029853,651.059561645,66704376.7739,1765.34773032,37687717.6138,68573781.808,4581.09109026,4572.23753847,0.0
1.23541774077,0.925403539979,9.76167158548e-06,16147301.5322,2.76000049488e-05,0.0,17705685.5843,690.168648746,659.348210809,65034194.1321,1924.16791199,61064580.0537,66805594.6132,5128.21904194,5116.24344696,0.0
1.12057907145,0.835974410149,1.02510863023e-05,-14333225.4953,2.07741969849e-05,0.0,5605680.15234,682.776619296,652.042796754,66367856.6394,1785.52905538,41590674.2985,68322419.8325,4651.52372559,4641.90676794,0.0
1.18455052208,0.939298234918,1.01480100906e-05,4925571.03172,2.37281926176e-05,0.0,6556965.00858,686.718719853,656.114113557,65714478.9362,1864.52105443,52633205.9399,66963896.977,4917.06921715,4906.29053661,0.0
1.12940189882,0.860648282644,9.64703436353e-06,-12582557.089,2.09324759931e-05,0.0,5620074.32655,683.706119004,652.63111876,66438603.1219,1797.48564777,42766657.6624,67949637.6833,4688.147282,4678.56019409,0.0
1.18969959034,1.03867061376,9.87941180259e-06,5238351.99314,2.19440324418e-05,0.0,6845950.43147,687.220045512,656.434893698,65551276.3303,1869.14404274,52826979.4235,66853295.941,4938.4429995,4926.81560943,0.0
1.22558039737,1.00417766974,9.69042381535e-06,13825306.6462,2.51386567612e-05,0.0,15251178.2998,689.540854556,658.721268622,65208879.4928,1912.61509207,59154623.7035,66624502.1216,5087.38422948,5075.53585267,0.0
1.07442526046,0.956151882063,1.02037632983e-05,-32252389.5553,1.59726288109e-05,0.0,5790689.89243,680.069304573,649.143716431,66919958.315,1727.5371916,34967034.7698,69505813.1567,4459.93925617,4451.73353453,0.0
1.05938980833,0.876784864628,1.05639626464e-05,-37285289.6393,1.60437240657e-05,0.0,5812508.79436,678.877504749,648.107375927,66964070.0795,1707.69501752,34627797.613,69859260.5871,4397.52709438,4389.54961795,0.0
1.14805496145,1.05875171034,1.00762439184e-05,-7592945.09217,2.03865622581e-05,0.0,5585978.94068,684.430768416,653.819873024,66354818.7318,1822.44658737,45721386.2943,68603385.6386,4765.57614498,4756.20815924,0.0
1.20726357197,0.94237790714,1.05315189092e-05,11228561.9948,2.60153069991e-05,0.0,12480153.8229,687.884681931,657.522290751,65315505.5977,1890.6995707,56867484.5406,66415527.8821,5011.35108725,5000.05052021,0.0
1.14437004546,1.0817120253,1.0079615929e-05,-8595687.89793,1.97228274765e-05,0.0,5600464.66553,684.154743267,653.549619132,66392403.9389,1817.76434924,45136491.0064,68363673.8752,4750.2800587,4740.96936867,0.0
1.15375343798,0.740656588564,1.03722723139e-05,-5150355.61058,2.72210382365e-05,0.0,5518342.10453,684.885249033,654.256231667,66117230.0138,1829.87037358,46842206.1033,68328762.3197,4789.23052106,4779.77105545,0.0
1.16209434252,1.08085936791,9.76414873788e-06,-2937809.63107,2.06965471329e-05,0.0,5545947.82076,685.562272476,654.78190774,66229107.3652,1839.52475084,48607264.8512,68475451.6118,4823.8536158,4814.13816121,0.0
1.21295921526,1.02004845037,1.04024127012e-05,11827860.1105,2.47938969405e-05,0.0,13066631.849,688.350309688,657.900060909,65179007.1359,1896.58149362,57385996.5002,66240100.0061,5034.99370254,5023.16640469,0.0
1.05042578324,0.752890352743,1.03042254463e-05,-44680917.254,1.68061610882e-05,0.0,5786738.98664,678.764412204,647.525332956,66874165.6314,1693.50911544,35637598.9258,70356080.0305,4360.31742623,4351.52558559,0.0
1.02253812706,0.85377744979,9.89280106716e-06,-69705495.5932,1.47127902326e-05,0.0,5927209.4357,677.915520934,645.779916742,67261169.4059,1658.77418401,49249801.2232,70860255.0586,4244.55576543,4237.32768105,0.0
0.993407744751,1.27149117146,9.52338356578e-06,-95515786.1554,1.13023724354e-05,0.0,5955438.64799,680.110953764,643.908795375,67266155.9872,1616.21820117,70366395.4718,70605180.3691,4123.63554846,4115.35683755,0.0
0.973084310541,1.124728871,1.00333875756e-05,-94422626.5612,1.2692131944e-05,0.0,5995111.98969,682.479018507,642.604627343,67367958.1716,1612.46739101,69403914.957,69636077.1389,4039.27297306,4031.78887826,0.0
1.07944434429,0.899711023253,9.6883405812e-06,-30933209.1973,1.63879758253e-05,0.0,5792682.7083,680.574035178,649.351052578,66925825.1093,1733.54281343,35365144.665,69389854.8429,4480.77347315,4472.29936679,0.0
1.26343103374,0.779094195477,9.82138451639e-06,22342719.6654,3.53987477432e-05,0.0,24261315.959,692.053446308,661.097115013,64615125.403,1957.03340612,65912530.6912,66790824.7169,5244.50222105,5232.32008432,0.0
1.16467985764,1.08234242934,9.75989152569e-06,-2228849.72674,2.08583122165e-05,0.0,5536697.50622,685.717783719,654.940354389,66203877.9597,1842.7520569,48991686.7022,68302865.8599,4834.58608906,4824.82833545,0.0
1.15492598506,1.03261483032,9.89529776078e-06,-5160890.73128,1.99011927471e-05,0.0,5478070.37748,685.086058775,654.255866582,66000216.5961,1827.15844438,46941677.3348,68342720.8597,4794.09776398,4783.19985251,0.0
1.0986116136,0.902381139356,9.87906513763e-06,-23361991.5847,1.79142172882e-05,0.0,5729753.21535,681.73264625,650.712247343,66751740.1855,1758.76585224,37058063.0658,69131600.1325,4560.33680805,4551.56303358,0.0
1.21577065932,0.928157441014,1.03578824149e-05,12882593.166,2.68824365331e-05,0.0,14124852.3331,688.559010527,658.099712648,65264861.9456,1901.24768603,58278597.1079,66461115.1762,5046.66400684,5035.34511953,0.0
1.15006525816,1.07142452356,9.82597961269e-06,-7621383.14271,2.00755944221e-05,0.0,5592383.33168,684.708429857,653.953096153,66371556.525,1825.11296223,45811674.3794,68686139.2267,4773.92088662,4764.51898942,0.0
1.08244145937,1.12167464217,9.91912534519e-06,-29019938.8782,1.42052617428e-05,0.0,5785985.50817,680.69799887,649.691782593,66902566.0526,1737.31127637,35719048.0121,69373967.7923,4493.21449784,4484.69383226,0.0
0.924352985366,0.684444027854,1.03000095654e-05,-92083705.9433,1.55800054242e-05,0.0,6055147.863,688.925753087,639.459377197,67476189.6601,1599.13585369,67345128.7318,67549966.4626,3836.98924225,3829.94662622,0.0
1.08467251935,0.951461327093,1.00395659143e-05,-27777791.5419,1.64223966505e-05,0.0,5763294.87816,680.807570106,649.832238107,66838245.1451,1740.36605626,35850298.5349,69295395.8663,4502.47562782,4493.9193241,0.0
1.20949169834,1.17396439062,1.01810774601e-05,10764305.4462,2.14000361819e-05,0.0,12042540.4582,688.088925454,657.636933717,65328033.6017,1892.48112385,56587657.6058,66490926.9673,5020.60003981,5008.83668247,0.0
0.946566249414,1.11067351848,1.04631794209e-05,-92994348.2966,1.26600647081e-05,0.0,6017629.28371,685.600235922,640.888726394,67406483.0728,1604.95152017,68146793.1394,68361773.0967,3929.19650132,3921.81205635,0.0
0.993431164276,0.938376084681,9.85274660677e-06,-95354718.437,1.41804305074e-05,0.0,5926330.66958,679.54806068,643.906634709,67180457.9709,1616.1872349,70224666.017,70475347.2659,4123.73276291,4115.53097983,0.0
1.13315294642,0.85892226498,1.01859587969e-05,-11440148.0754,2.24249524797e-05,0.0,5614330.34361,683.578151013,652.900359821,66421759.6195,1803.65935872,43448198.1508,67660543.0046,4703.71788059,4694.61214827,0.0
1.01816025166,0.781120573865,9.67911850615e-06,-77061879.0305,1.52917909291e-05,0.0,5943366.60808,678.120163804,645.504940487,67296034.0952,1652.93930281,54849841.4293,71350098.7534,4226.38320464,4219.21737998,0.0
1.17076295481,1.32495143218,1.05035162914e-05,2043562.34802,1.71579584385e-05,0.0,5439125.9483,685.466152837,655.257909818,65819814.9424,1846.14634594,50825924.7457,67103518.4505,4859.83702542,4848.99437208,0.0
1.04930914648,0.892857598941,1.03455663584e-05,-45131276.1654,1.53655020592e-05,0.0,5796798.32269,678.621174539,647.45733694,66903390.1724,1691.9221495,35803611.0819,70338170.2686,4355.68226704,4346.90870882,0.0
1.21558453258,1.06722015826,9.95197578362e-06,11808630.8189,2.33374616791e-05,0.0,13084665.4589,688.699607881,658.054531654,65300331.4122,1900.45112013,57477768.4456,66107072.3563,5045.89139474,5034.11895629,0.0
1.04536186129,0.991701874648,1.04103781359e-05,-47220558.6895,1.43330059252e-05,0.0,5815622.25942,678.340304865,647.2069425,66951579.3329,1687.04837913,36494466.8026,70297820.7556,4339.29708621,4330.76548097,0.0
1.09987713739,0.763338053295,1.00094975753e-05,-22520671.8566,2.00829319136e-05,0.0,5709077.4711,681.81020072,650.814274892,66677949.5639,1760.54847291,37300645.9981,68701229.3213,4565.58999731,4556.79553331,0.0
1.12230773326,1.12266259216,1.00489968667e-05,-14359610.0607,1.73582610603e-05,0.0,5676405.74313,682.824235396,652.174782486,66611285.9071,1789.36524481,41776808.6378,68768325.3258,4658.69940076,4649.76631342,0.0
1.27486676666,0.742495400753,1.00938706309e-05,24537095.5242,3.92009718515e-05,0.0,26327682.3291,692.693858932,661.784723471,64311371.5281,1969.38054738,67369735.094,68355913.5662,5291.97194841,5279.522807,0.0
1.15574360259,1.09622297119,1.01157027963e-05,-5362598.93181,2.04660399762e-05,0.0,5558614.38666,684.968928604,654.385854656,66279065.7308,1832.1120813,46897691.4661,68543931.4825,4797.49169435,4787.99850101,0.0
1.07976688714,1.13355958651,1.01588055737e-05,-29180912.2222,1.40555807171e-05,0.0,5783746.55848,680.367050332,649.515947081,66895303.2167,1733.78301052,35607589.0331,69307946.0302,4482.11234852,4473.63323658,0.0
1.13456200083,1.11714206371,9.9263767348e-06,-10065226.9576,1.79078139059e-05,0.0,5610825.9792,683.713173715,652.979750812,66409766.8858,1803.49095668,44508388.6822,67847979.7429,4709.56686545,4699.89667559,0.0
1.16898890591,0.900911081762,1.03203702981e-05,1637252.31535,2.32700907176e-05,0.0,5420619.19842,685.704302904,655.160826113,65786677.6626,1844.88610628,50644922.6327,67287169.1787,4852.47294843,4841.77453581,0.0
1.17328641217,0.978768515985,1.00614564715e-05,1781222.73794,2.20224488718e-05,0.0,5400141.87117,686.122343956,655.42153518,65745884.072,1849.6088378,50757295.9592,66982840.2845,4870.31189692,4859.20036409,0.0
1.25245966952,1.03543329387,9.80116251125e-06,20061071.3123,2.68613330052e-05,0.0,21828049.7361,691.091725665,660.36233292,64840356.9148,1943.00401879,64139877.4346,65046362.4889,5198.96008818,5186.67817935,0.0
1.06106750504,0.844655604678,9.79243264661e-06,-39253256.4706,1.59069366878e-05,0.0,5820291.65789,679.580544921,648.213057535,66979497.7167,1708.8832804,34779369.7564,69896482.0734,4404.49121342,4396.11223002,0.0
1.10759075507,0.90803343596,9.91453061345e-06,-18319591.4525,1.83290773907e-05,0.0,5644295.10635,682.25744992,651.262503684,66478176.8401,1767.50429543,39530814.4033,68854882.608,4597.6092243,4587.72319377,0.0
1.05537742534,0.959467570123,1.03455870033e-05,-40877139.8842,1.48425745877e-05,0.0,5804203.71956,678.817924338,647.814205986,66924536.4423,1700.71415181,34935488.0291,69547058.3804,4380.87169259,4372.3274212,0.0
1.01950411657,0.659179276646,9.24540227613e-06,-79517321.6365,1.65985140317e-05,0.0,5950501.37193,678.631997789,645.591276488,67315014.0547,1654.67132109,56819184.8185,71182154.2716,4231.96158788,4224.77667596,0.0
1.11046655269,0.916110809559,1.02152021885e-05,-17068981.7826,1.88686670018e-05,0.0,5654137.30772,682.140832612,651.424887778,66523139.1945,1772.32791153,40175755.2497,69114562.9846,4609.54666022,4600.19726142,0.0
0.998272555194,1.02507287279,9.98409553238e-06,-95537540.1292,1.33717556721e-05,0.0,5914177.04334,678.657106921,644.215190609,67154031.2796,1622.55889275,70385805.5156,70724955.025,4143.82937661,4135.54908471,0.0
1.01649667088,0.876017311187,1.02736267563e-05,-73061016.6329,1.46411331892e-05,0.0,5871824.14717,677.570175757,645.37753745,67073012.2018,1648.21234267,51755421.935,70554858.2108,4219.47768082,4211.31815403,0.0
1.22988327803,1.21182361828,1.00183500054e-05,15121852.3345,2.22562117793e-05,0.0,16533135.3885,689.33608096,658.917399402,65268565.176,1917.71644386,60231592.223,66858961.278,5105.2454871,5093.63849314,0.0
1.195232603,1.18311071339,1.02489498969e-05,7233885.07685,2.03627929952e-05,0.0,8667823.62427,687.272553151,656.809224436,65435208.5434,1875.04374561,53832016.8902,66496264.7655,4961.41053505,4949.70224537,0.0
1.02159407704,0.861048388356,1.01371148043e-05,-68987919.2278,1.48612469214e-05,0.0,5861976.73132,677.763315917,645.697087706,67053919.76,1654.84871127,48709207.4141,70694265.0889,4240.63701379,4232.31127022,0.0
0.992068348239,0.798223764451,1.00575929113e-05,-95227642.9064,1.51242420905e-05,0.0,5914654.26797,679.278004759,643.818111064,67145768.6404,1614.48513617,70112842.671,70364209.9434,4118.07571354,4109.89617546,0.0
1.13940140065,0.928678173726,9.88516583225e-06,-10128102.5609,2.11250886287e-05,0.0,5582168.56539,684.054760883,653.207409758,66325795.1167,1810.29416606,44429449.6403,67947903.4166,4729.6552141,4719.90104735,0.0
0.964580665364,0.966098590251,9.98114153184e-06,-94101664.6148,1.41234156613e-05,0.0,6055455.29266,684.128420532,642.071008559,67554293.4978,1615.38214505,69121339.2967,69348142.4309,4003.97434193,3997.54630351,0.0
1.03812950254,1.02348417794,9.92561271092e-06,-53469403.0297,1.35431055056e-05,0.0,5844201.20337,678.379050429,646.730699261,67024989.4863,1676.64155653,39076323.2912,71250394.2799,4309.27556504,4300.59711686,0.0
1.29537428477,0.909986772736,1.0166573316e-05,27531721.6365,3.56131703121e-05,0.0,28938259.0928,693.847782503,663.037106267,63849795.0546,1989.52238147,68527518.5366,69681424.2803,5377.09865608,5363.56487712,0.0
1.15599322931,0.82993592716,1.00507811207e-05,-5346419.09077,2.51465251507e-05,0.0,5535484.237,685.171633639,654.402873021,66206734.0664,1832.76445054,46933702.9451,68481456.449,4798.52789487,4789.03067983,0.0
1.15151770223,0.810845626732,1.04476628903e-05,-3990637.98754,2.35126990607e-05,0.0,5445962.19715,684.707903597,654.081291811,65871819.075,1822.97007628,47254728.0615,67552307.0754,4779.94998196,4769.24012951,0.0
1.11526892056,1.02802674716,1.0099772154e-05,-15787598.639,1.76289657786e-05,0.0,5649783.69559,682.418449062,651.690435675,66508577.7995,1778.37547663,40835820.3263,69381115.8953,4629.48128924,4619.95230358,0.0
1.00524603751,1.00604751695,1.00744376916e-05,-90035282.6295,1.36044168327e-05,0.0,5892069.78148,677.933994005,644.658091344,67098348.0496,1631.89116628,65602728.5944,70812506.2939,4172.7763017,4164.3826016,0.0
0.99359080977,0.6458313031,1.0114406813e-05,-95213103.2268,1.67781825555e-05,0.0,5899831.16856,679.170147108,643.917047953,67106982.3649,1616.74812562,70100107.0378,70347890.6006,4124.39545136,4116.27134858,0.0
1.18120050543,1.0508489734,9.80751971756e-06,3217381.31247,2.09224186545e-05,0.0,5401492.43945,686.693241496,655.913707152,65761731.9387,1859.71790971,51738721.9169,67033922.4521,4903.16329804,4892.02759837,0.0
1.08353408991,1.08566660953,9.86673158737e-06,-28773189.1007,1.46433252965e-05,0.0,5782931.09892,680.818565792,649.766928922,66893786.4106,1738.76750511,35744656.3355,69378314.3467,4497.75000722,4489.21234195,0.0
1.11175245813,0.969484064553,9.61280328757e-06,-18360278.0153,1.80295947294e-05,0.0,5626977.24952,682.709574381,651.514363049,66428832.1382,1772.28918458,39642351.7357,68947009.4261,4614.8844537,4604.61732347,0.0
1.10275459996,0.717760131388,9.8467877101e-06,-22065228.2769,2.09803391189e-05,0.0,5703102.41938,682.125771627,651.003000905,66676625.2615,1764.37087435,37535614.415,68474814.2047,4577.53434443,4568.69526142,0.0
1.13765419167,0.976276008718,1.02589720671e-05,-10203127.5139,2.11279447184e-05,0.0,5604729.39251,683.744179036,653.175725639,66401343.1966,1809.27865179,44151836.455,67971443.0288,4722.40254962,4713.22549521,0.0
1.13611966651,1.11428351402,9.31289330717e-06,-11443436.031,1.73668639079e-05,0.0,5604730.79228,684.253622961,653.070604701,66398944.2682,1804.75624725,43491925.0829,67628694.116,4716.03273568,4705.83938399,0.0
1.09867020279,1.11612422828,1.00263840871e-05,-23177941.9955,1.54733663168e-05,0.0,5736331.00496,681.554304584,650.73001292,66762187.5372,1758.5029298,37109380.8309,69009628.0513,4560.58001178,4551.80542666,0.0
1.24353654954,1.10951161753,9.76398812702e-06,18091194.9192,2.46362305487e-05,0.0,19642402.5525,690.518662802,659.830614171,65016695.3982,1933.15070077,62580175.6761,67209884.8184,5161.92021714,5149.85230418,0.0
1.14156002998,0.766042962501,1.0452159924e-05,-8106509.03686,2.46411014834e-05,0.0,5507840.71199,683.866631187,653.261617846,66098417.9645,1812.13374498,45051918.2642,68235441.4234,4738.61568445,4728.54278492,0.0
1.05491337157,0.988354489992,9.59585098407e-06,-43501634.9507,1.41037243105e-05,0.0,5826642.78028,679.383947273,647.80985269,66989176.9139,1699.23018366,35488077.1904,71326900.8861,4378.94540539,4370.136074,0.0
1.20649765739,0.788776465964,9.47311292187e-06,9842422.82498,2.79447926859e-05,0.0,11279043.1919,688.579000096,657.521559768,65539927.2116,1891.86047465,56121537.4527,67045429.6702,5008.17177583,4997.09358433,0.0
1.10854787377,0.836541298614,9.75070228858e-06,-18616137.9175,1.90052293451e-05,0.0,5675638.30195,682.434194526,651.341711747,66582259.2816,1770.30846994,39480320.9749,68834325.726,4601.58222402,4592.16512104,0.0
1.04634094927,1.08427212281,9.54855002892e-06,-47381606.227,1.27125465157e-05,0.0,5863433.70979,678.96223272,647.285779385,67081017.2169,1687.99407156,36648583.59,71200878.7253,4343.36128042,4334.85226337,0.0
0.96065490838,1.15579177227,1.00347857913e-05,-93969154.7987,1.23052488946e-05,0.0,6072564.9165,684.385153671,641.818031496,67602320.8323,1613.448327,69004627.8978,69229469.7536,3987.67852469,3981.30361095,0.0
1.19096455979,0.794167011304,1.01378685947e-05,6037246.50656,2.73508907489e-05,0.0,7572311.51118,687.381636365,656.535683805,65356327.707,1870.85020535,53087267.9292,66526893.614,4943.69388769,4932.06295039,0.0
1.1053367879,0.893214021769,1.02553106173e-05,-18626620.3514,1.88597306023e-05,0.0,5617311.00377,681.913933589,651.106929126,66393893.5875,1763.85778343,39392896.3323,68742648.9646,4588.25300657,4578.21773223,0.0
1.06932939952,0.813013025099,9.8432222385e-06,-35260110.179,1.67968178127e-05,0.0,5795430.64472,680.002559454,648.74696463,66920016.9949,1719.81964114,34716292.4214,70062357.684,4438.78633741,4430.27946186,0.0
1.19180924824,1.04671347413,9.81399388472e-06,5757005.07081,2.17632914116e-05,0.0,7351084.53151,687.361903668,656.57618439,65607610.4067,1872.26494159,53199498.8437,66822627.7711,4947.20018944,4935.75950304,0.0
1.21594424558,0.839499077604,1.00375298037e-05,12105209.5248,2.81092356863e-05,0.0,13359923.365,688.875120283,658.091276635,65153830.1919,1901.13793364,57648694.1861,66231084.3708,5047.3845634,5035.6055211,0.0
1.09593200911,0.90012437478,9.78907694646e-06,-24483892.5434,1.76351709145e-05,0.0,5741467.5281,681.598836687,650.507179767,66781536.4244,1755.2855093,36716808.0075,69212904.6612,4549.21376982,4540.48206854,0.0
1.06113242564,0.719743452177,1.00245742483e-05,-38253948.9345,1.73980067418e-05,0.0,5803633.3706,679.454413254,648.215240565,66932461.1082,1709.10685484,34671502.0162,69916553.4148,4404.76069883,4396.38070345,0.0
1.04502930535,0.830917373526,1.01865305645e-05,-48063936.6703,1.57126647705e-05,0.0,5809738.7758,678.570134461,647.18667661,66931517.0508,1686.24852482,36838651.3445,70516454.1124,4337.91664651,4329.21301924,0.0
1.18364420066,0.666614369469,1.01594376037e-05,4897859.81344,3.00580996748e-05,0.0,6544395.07036,686.880917544,656.054727409,65597379.6473,1863.89605266,52576436.3272,66844888.3586,4913.30707694,4902.54419889,0.0
1.01117924252,1.05238685619,1.03305964315e-05,-80789547.7594,1.29395631418e-05,0.0,5944128.87804,677.25196643,645.040344285,67281327.6236,1643.33172931,57825824.3234,70610235.4794,4197.4050357,4190.33828879,0.0
0.995899730783,0.978745751666,1.03425345563e-05,-95320992.4368,1.38671595481e-05,0.0,5905019.70381,678.252747696,644.060991695,67129654.8292,1619.68611984,70195120.8953,70566868.9929,4133.97978248,4125.81856836,0.0
1.01269940793,0.901423087685,1.05962108089e-05,-74992451.0923,1.42956034809e-05,0.0,5903188.20043,677.053152368,645.138339728,67150806.5639,1644.49055848,53207171.5588,70476761.936,4203.71524232,4196.27663097,0.0
1.09971596824,0.962885955551,9.76892701666e-06,-21727920.4745,1.69147867202e-05,0.0,5664286.79651,681.903536873,650.77423972,66526429.4552,1756.74500688,38011902.1983,68647943.0355,4564.92098416,4554.88990845,0.0
1.14273024507,0.632964465911,1.04229812645e-05,-7096786.81231,2.82512613806e-05,0.0,5535813.68908,684.104962751,653.459998542,66173839.0128,1815.47529164,45925713.7433,68350859.3884,4743.47324729,4734.11210922,0.0
1.0645183613,0.927127686287,9.74235374412e-06,-37858050.7296,1.51864206559e-05,0.0,5819029.84998,679.768297168,648.434893405,66981948.5341,1713.40605282,34712881.8875,70128181.8627,4418.81571776,4410.38287339,0.0
0.967489016465,0.812089249227,1.02193621544e-05,-94064603.2131,1.51966241675e-05,0.0,6016989.48759,683.212142411,642.252064141,67442945.4539,1613.49464227,69088658.5277,69316818.2806,4016.04690735,4009.28447766,0.0
1.01963286961,0.899647707948,9.95939738774e-06,-72690776.8453,1.425054676e-05,0.0,5934072.66599,677.791886192,645.598387134,67276240.6977,1654.90177093,51458918.748,70937047.2889,4232.49604175,4225.30929998,0.0
1.10396322827,0.869817814806,1.0037959185e-05,-21276088.1048,1.89486696557e-05,0.0,5704279.97977,681.982209961,651.074449481,66672548.0899,1765.76001975,37873754.1832,68624670.453,4582.55136055,4573.69318796,0.0
0.97958409783,0.795348753721,1.01980556743e-05,-94942888.0383,1.46103610867e-05,0.0,6011506.80423,680.415298497,643.036436833,67428714.7891,1610.41269598,69862082.36,70099781.4727,4066.25359009,4059.60962735,0.0
1.15524219096,0.714890944625,9.84075000742e-06,-5771291.99345,2.7100935502e-05,0.0,5532592.19244,685.262406137,654.307464183,66185713.1851,1831.82470686,46853179.9777,68592253.0149,4795.41033467,4785.8307043,0.0
1.08835722943,1.14705131503,9.86214227268e-06,-27112923.93,1.42751568783e-05,0.0,5774178.42054,681.05651407,650.062904841,66874335.8453,1745.03049171,36055984.4225,69392882.6305,4517.77085936,4509.15798746,0.0
1.04799161498,1.04650788683,9.65653354179e-06,-48969010.0421,1.35358946301e-05,0.0,5833430.68327,679.051035684,647.381826488,67003937.3247,1689.67360864,37271747.8672,70896426.892,4350.21319378,4341.37278842,0.0
1.09674588266,0.913059966168,9.51384856122e-06,-24852973.9202,1.72308821433e-05,0.0,5746643.07055,681.817678868,650.544721412,66802440.6582,1755.99776006,36679676.1126,69320350.4393,4552.59215892,4543.74916543,0.0
0.935852551407,1.27816162548,9.82978799356e-06,-92737905.656,1.14872523384e-05,0.0,6077805.416,688.748965456,640.202490222,67560286.1196,1608.26235011,67920914.808,68130909.0605,3884.72394089,3877.50403268,0.0
1.16234700575,1.13253478522,9.75695564388e-06,-1025789.53859,1.83336342848e-05,0.0,5507389.39322,685.515202082,654.776946105,66077720.9426,1836.99914627,49608623.0579,67931977.3527,4824.90242087,4814.40579638,0.0
0.98902986451,0.796897627268,1.03770971264e-05,-95002968.2361,1.5048826157e-05,0.0,5912545.27855,679.017788798,643.620346121,67140543.1983,1610.80070211,69915134.8185,70159943.9329,4105.46296758,4097.41217117,0.0
0.990026043826,1.08061057961,1.06125850149e-05,-95048238.0391,1.27108333339e-05,0.0,5915737.54902,678.19808348,643.682997714,67157702.4128,1611.78603776,69954891.8562,70208029.1773,4109.59810792,4101.53116708,0.0
1.10435535604,0.90999025709,1.02694251452e-05,-18879518.5411,1.856728014e-05,0.0,5621683.41803,681.837942332,651.048233669,66405451.0357,1762.57786713,39260998.2922,68694726.3987,4584.17908292,4574.16021572,0.0
1.07284375004,0.884715076484,1.03595431837e-05,-31231116.0509,1.66878878453e-05,0.0,5770644.1448,679.896993259,649.036294978,66840827.1144,1724.53872648,35157758.552,69270535.8061,4453.37440642,4444.90601149,0.0
1.2091914079,0.986321676645,9.82773569479e-06,10345633.5251,2.43766816602e-05,0.0,11690346.7048,688.421752027,657.622031958,65302325.8396,1892.56152419,56293816.4155,67053789.4043,5019.35353419,5007.4798574,0.0
1.07493172838,1.02297475616,1.03032743641e-05,-30526716.6187,1.52192766699e-05,0.0,5776513.18845,680.01284275,649.182587913,66861883.6297,1727.18199595,35266661.6714,69251905.8869,4462.04160451,4453.5419538,0.0
1.0633153826,0.877788632477,1.01040875916e-05,-36184746.9909,1.58825926557e-05,0.0,5805165.99948,679.43499608,648.356958045,66941603.5984,1711.69491352,34627029.4907,70137801.0935,4413.82215317,4405.40839759,0.0
1.116166705,1.00216807314,1.01726669915e-05,-15403618.7876,1.81564482699e-05,0.0,5640829.7483,682.436014748,651.743244194,66483665.2934,1779.5361432,41099632.9606,69162198.9233,4633.20799245,4623.66407551,0.0
1.19512080677,0.984970686255,1.02460545953e-05,7430535.79091,2.37656434293e-05,0.0,8868963.24174,687.403051219,656.800604586,65357913.8784,1875.12844894,53961054.9113,66434227.09,4960.9464689,4949.23627539,0.0
1.01576706082,0.818236811823,9.51496886826e-06,-80573738.53,1.49961121266e-05,0.0,5947736.09265,678.262833,645.347253149,67290423.0502,1649.05584291,57674978.8738,71125541.3671,4216.44906946,4209.14040384,0.0
1.09961128565,0.87553893362,1.01693539806e-05,-22432407.7055,1.86518346565e-05,0.0,5709346.93298,681.633735829,650.797992008,66683542.1617,1759.92867093,37315298.4914,68442120.8339,4564.48644673,4555.69704376,0.0
1.04816642742,0.999683305796,9.78497244867e-06,-47157188.5059,1.40584248167e-05,0.0,5831586.67352,678.926221967,647.386598594,66994027.8022,1690.14402491,36605321.525,70470908.6753,4350.93884022,4342.24116784,0.0
1.09804987653,1.17294884701,1.00753848677e-05,-23256348.6689,1.48127983324e-05,0.0,5739645.40409,681.458310065,650.686825541,66770631.1091,1757.63929352,37064906.1972,69041059.6272,4558.00503748,4549.24021414,0.0
1.01834866358,0.94138217001,1.02386955487e-05,-71157172.1543,1.41047024843e-05,0.0,5869837.90366,677.590888362,645.492249341,67070342.1342,1650.48776082,50290342.2121,70862985.6889,4227.16530252,4218.89149574,0.0
1.27731537585,0.899479771805,9.8193608708e-06,24191494.7849,3.24412737449e-05,0.0,25915737.5577,692.855732174,661.920588671,64211643.4048,1970.08847685,66966627.6893,67904204.3065,5302.13612515,5288.90146268,0.0
1.07477041516,0.940474823018,1.02664794688e-05,-31166420.507,1.60962875359e-05,0.0,5784208.23211,680.056925811,649.172097244,66894677.9963,1727.72368095,35117041.4925,69366485.7187,4461.37199333,4453.06463209,0.0
1.10396912482,0.90346438507,9.99608319426e-06,-21362244.456,1.84914304762e-05,0.0,5708994.31412,681.994211149,651.076846995,66685873.7416,1765.75187243,37820396.2024,68627952.0935,4582.57583713,4573.71680557,0.0
1.11536885771,0.929170328598,1.00970418904e-05,-15790971.2426,1.90757853455e-05,0.0,5661406.38282,682.462627373,651.704911701,66545108.7779,1779.52384843,40871402.0424,69388129.5183,4629.89612835,4620.66437889,0.0
1.124219773,0.807824482807,1.01727781845e-05,-13232352.0333,2.15703654594e-05,0.0,5588657.81812,683.094721362,652.279249012,66312301.3384,1790.07316984,42370353.7304,67629499.3579,4666.63627772,4656.85749728,0.0
1.24072238039,0.759894715968,9.55818917524e-06,17551969.4174,3.21630993771e-05,0.0,19152615.6887,690.65630534,659.62968747,64995415.3046,1931.46653353,62202989.5634,66995923.5512,5150.238601,5138.45788015,0.0
1.09643422222,1.03985969377,1.05135152747e-05,-22581493.2995,1.64692770589e-05,0.0,5700491.24738,681.146727487,650.582648901,66638824.9363,1754.96345058,37201738.0802,68382683.2702,4551.29845644,4542.26460808,0.0
1.02274660677,0.828459068007,9.89666387467e-06,-69411298.9119,1.4934440209e-05,0.0,5925378.85158,677.920991084,645.791069517,67256140.7173,1659.05002284,49037040.024,70878089.0488,4245.4211647,4238.19010972,0.0
1.1454493264,1.07964568548,1.01378252929e-05,-8164948.88014,1.9907909925e-05,0.0,5593726.77406,684.189215011,653.622004833,66374451.375,1819.09454737,45365280.3032,68454260.2107,4754.76015389,4745.43220724,0.0
1.04918069082,1.16340978655,9.82265875213e-06,-45148581.3257,1.24098147651e-05,0.0,5855752.30917,678.843440033,647.45229276,67067123.8811,1692.23143507,35942178.3366,70552970.7467,4355.14904759,4346.77460813,0.0
1.1971345219,0.713551646505,9.99311455291e-06,7865018.21734,2.96611993518e-05,0.0,9321015.98828,687.869399573,656.942654559,65374716.6176,1879.36740861,54371603.9249,66500482.4624,4969.30540041,4957.98781845,0.0
1.12209107218,1.01822860847,1.01181953981e-05,-13726568.7075,1.8380215878e-05,0.0,5616567.80916,682.867226594,652.139618567,66411847.0056,1786.9536984,42122040.9372,68165755.572,4657.80004062,4648.05848388,0.0
0.94698938872,1.15933124839,1.03218597645e-05,-93048966.9775,1.23478242587e-05,0.0,6025137.81749,685.956315638,640.916970547,67427950.3446,1606.72206471,68194874.5848,68409883.0333,3930.95295258,3923.56401988,0.0
1.10719446031,0.845454043149,1.0189538028e-05,-18115809.49,1.94439346242e-05,0.0,5661135.35966,682.025728077,651.239647572,66536802.3106,1768.2828785,39673270.3373,68870516.6142,4595.96420475,4586.66816917,0.0
1.16730711364,0.859623056913,1.03261930737e-05,87488.465043,2.44670402263e-05,0.0,5374623.49985,685.745760815,655.054610468,65659674.696,1842.00403295,49530157.2771,67196396.2965,4845.49182872,4834.26846224,0.0
1.06196543908,0.741560815455,9.99026189466e-06,-38011333.8391,1.71993470021e-05,0.0,5804170.60461,679.518276133,648.269551681,66935227.2857,1710.20255427,34674324.3505,69963632.3105,4408.21853762,4399.82555286,0.0
1.16875913468,0.904323113885,1.04821758292e-05,1897886.68784,2.33364560757e-05,0.0,5404306.38568,685.600106879,655.139458803,65732285.0624,1844.13299592,50705490.1415,66999919.411,4851.51916806,4840.71437766,0.0
1.25937465116,1.02952841356,9.95223200451e-06,21549283.7456,2.87752848767e-05,0.0,23465630.5092,691.470654412,660.812931332,64784602.1537,1951.61470365,65358988.8982,66204324.3905,5227.66417697,5215.5561701,0.0
1.03621834634,0.866307406201,1.01042699498e-05,-53913733.4514,1.49636841287e-05,0.0,5831915.31321,678.21731949,646.616590007,66986281.5327,1674.23558678,39301814.1201,71106484.1098,4301.34235566,4292.69379761,0.0
0.991636656912,0.829436267388,1.02624767401e-05,-95143125.0943,1.49419251381e-05,0.0,5911355.12101,678.953045678,643.790041789,67141150.7865,1614.0780419,70038447.4879,70281234.8578,4116.28376284,4108.19101567,0.0
1.135579272,0.993193907919,9.9773023921e-06,-10866555.047,1.99321437177e-05,0.0,5594045.18447,683.846729461,653.044804532,66359073.4216,1805.32749516,43890312.4786,67702853.6934,4713.78955807,4704.0989668,0.0
1.13636008049,0.743937772908,9.61031033001e-06,-10989491.065,2.35487907152e-05,0.0,5593367.82865,684.247082707,653.102543376,66357016.2237,1806.85665585,43816314.3671,67675290.737,4717.03069411,4707.43199752,0.0
1.13122938309,0.940817610237,9.86994232665e-06,-11841406.5167,2.01323983196e-05,0.0,5613581.3382,683.544000753,652.678162729,66413084.4925,1799.71112923,43236181.6176,67482239.3229,4695.73316921,4686.14046035,0.0
0.955263650675,1.14487930738,9.78225767053e-06,-93804652.6339,1.24469080573e-05,0.0,6095974.10327,685.816045145,641.472544102,67658297.4265,1614.57900731,68859769.292,69081996.0265,3965.29941395,3958.99699458,0.0
1.02825737395,0.67199589571,9.77843918412e-06,-63693453.4361,1.65284375018e-05,0.0,5907551.10257,678.219205014,646.131722476,67212810.3185,1666.49391513,45082673.6515,70908982.8033,4268.29635927,4260.98659341,0.0
1.11641138615,1.1498673469,9.59454127065e-06,-16446488.8054,1.56803878702e-05,0.0,5670477.76816,682.820112124,651.797418016,66566134.4037,1779.64535252,40565925.9411,69405209.9356,4634.22366391,4624.4785916,0.0
1.14024324969,1.0986157719,9.95469629338e-06,-8969600.38463,1.8975583345e-05,0.0,5613861.58184,684.007772569,653.330423164,66436845.4739,1811.93206269,45205456.1184,68208477.2099,4733.14972946,4723.80221786,0.0
1.12035677292,0.777048583405,1.01745989237e-05,-14032332.2511,2.16376083823e-05,0.0,5598009.97122,682.849575786,652.027220851,66352861.3419,1784.96461492,41896450.8645,68307580.4115,4650.60096439,4640.88860287,0.0
1.10174544243,1.12646866254,1.01480051968e-05,-21906506.5256,1.56745983331e-05,0.0,5723043.39872,681.65212057,650.936576884,66728687.0242,1762.49580837,37574512.7534,68579537.8936,4573.34533153,4564.52152398,0.0
1.26797605287,0.834085652042,9.85525945597e-06,23257726.3364,3.45000473796e-05,0.0,25140102.8963,692.260949215,661.372080749,64568788.464,1961.93736257,66527632.798,67442106.6824,5263.36859546,5251.11137068,0.0
1.00032704763,1.03868532961,9.97311910315e-06,-95660790.7664,1.3251470604e-05,0.0,5910237.43547,678.487458198,644.345514097,67145649.7967,1625.28110238,70494390.9356,70765243.3749,4152.35757471,4144.04640705,0.0
1.14179772312,0.735486850293,1.01208890007e-05,-8696384.72081,2.48053298023e-05,0.0,5520276.38655,684.139256046,653.296133129,66126708.9037,1812.64601772,44982636.3892,68151877.5817,4739.60234867,4729.5012854,0.0
0.945601089766,0.821256656354,1.01044337865e-05,-93297117.526,1.4553182818e-05,0.0,6091267.44777,686.236877974,640.8481892,67632028.7182,1608.30735801,68412973.5453,68630232.7786,3925.19012362,3919.01715034,0.0
1.09003178166,0.898040364237,1.01034271506e-05,-25736754.003,1.74930341383e-05,0.0,5742369.53712,681.048627335,650.132878219,66781212.3399,1747.41294936,36273348.2,69193092.9148,4524.72192567,4516.08287953,0.0
1.18026851435,0.932032350214,1.02665282041e-05,4434974.78712,2.36491076192e-05,0.0,6176377.79524,686.367106876,655.835674539,65718726.0783,1859.08215566,52265338.1053,66995834.6618,4899.29460307,4888.59292432,0.0
0.995837021745,0.940798645824,1.01239161057e-05,-95361164.7639,1.42641890513e-05,0.0,5911485.05692,678.760209746,644.059239825,67146319.5025,1619.54354196,70230428.0442,70562046.8532,4133.71947726,4125.55927197,0.0
1.10567857178,1.01385421952,1.00616036074e-05,-18782849.0116,1.69691642121e-05,0.0,5658053.62569,681.994135154,651.148831532,66511458.619,1765.13884062,39277743.6837,68797906.7162,4589.67175146,4579.91436165,0.0
0.982561997081,1.01740762564,9.72922295065e-06,-94982483.1253,1.36017682437e-05,0.0,6014134.82546,681.755608797,643.22561708,67439521.4187,1617.96970062,69896613.7592,70135858.2681,4078.61484988,4071.60696349,0.0
1.1207275713,1.1174703668,9.8673509357e-06,-14759730.3811,1.67387041162e-05,0.0,5620079.33194,682.906332935,652.031937122,66411366.9838,1784.24586462,41493273.188,68486399.1309,4652.14014847,4642.02774575,0.0
1.0884015753,1.0832667528,9.82204879585e-06,-27168213.6262,1.49736146298e-05,0.0,5771485.24664,681.116282897,650.067014716,66865675.6678,1745.14400347,35997406.7977,69392908.8197,4517.95493907,4509.34137443,0.0
1.20904997044,1.05663391929,9.82496429122e-06,10435986.7495,2.29163267336e-05,0.0,11799936.5384,688.333829284,657.620596748,65403503.8677,1892.74594521,56404797.0611,67157069.6435,5018.7664273,5007.10997636,0.0
1.14060370065,0.959719959845,9.77352859802e-06,-8903847.73664,2.06012703174e-05,0.0,5590161.97402,684.242431952,653.358223542,66356679.3089,1811.73938391,45328098.2002,68184692.6311,4734.6459614,4724.98042361,0.0
1.12242376052,0.917048836409,9.8211030892e-06,-14213737.9552,1.96266265094e-05,0.0,5591551.3393,683.173064098,652.141480368,66336561.6847,1786.45590492,41712060.9818,68358280.7623,4659.18102992,4648.94159095,0.0
1.16320997172,0.842971115883,1.00029980415e-05,-680912.062961,2.3521511095e-05,0.0,5426305.61009,685.653231939,654.80978729,65831044.8317,1837.38633439,49423546.734,67673198.759,4828.48459261,4817.55377269,0.0
1.03778111179,0.728707132318,9.66294347309e-06,-55525476.2337,1.65208747382e-05,0.0,5824943.10911,678.749742513,646.729703107,66964252.8809,1675.75707623,40088912.5345,71041894.6126,4307.82939504,4298.98396636,0.0
1.05323974239,0.826731567224,1.01969226887e-05,-43772252.7418,1.62088919148e-05,0.0,5788545.54021,678.950020897,647.692930136,66883282.0065,1697.18664818,35436042.2514,70265236.3957,4371.99817066,4363.16018997,0.0
1.17482938719,1.14596060099,9.72108279261e-06,1782872.4267,1.88491345094e-05,0.0,5440958.51106,686.294540527,655.534638779,65889609.5565,1851.69865,51072790.3224,67139820.6591,4876.71678623,4865.68364673,0.0
1.18133855283,0.889692889492,9.80188053628e-06,3310924.09648,2.38445822971e-05,0.0,5424530.11903,686.821728425,655.921589262,65697792.0327,1860.13795449,51778754.8847,66970375.6589,4903.7363328,4892.59815469,0.0
1.25799236421,1.11676214623,1.02343062825e-05,21072004.0947,2.74462605826e-05,0.0,22992679.2662,691.271668066,660.71151411,64577851.7373,1947.8236527,64892079.9586,65714552.6033,5221.92630384,5209.14280898,0.0
1.03701448374,1.06847942237,9.66645560175e-06,-56242382.4766,1.323658837e-05,0.0,5848953.38646,678.566363741,646.677876806,67036572.3887,1674.48353344,40510227.2817,71076514.7594,4304.647122,4295.81443024,0.0
0.950913435616,1.13341295494,9.96806498282e-06,-93588746.9671,1.23500386516e-05,0.0,6098254.96149,685.827869179,641.191255007,67660598.4929,1611.19143339,68669664.333,68889743.3962,3947.24167124,3940.99760741,0.0
1.13622942926,0.792213980793,1.00502649387e-05,-11737254.8028,2.34077330351e-05,0.0,5509284.73406,684.063709187,653.066929646,66099763.3907,1804.61156261,43373866.9809,67502876.7043,4716.48836086,4705.99290968,0.0
1.14474447173,1.07773502374,1.03062369855e-05,-7846523.96862,2.00154685852e-05,0.0,5579958.7141,684.046074409,653.579013677,66327401.6901,1817.75865426,45544664.5784,68475638.4536,4751.83430215,4742.41289874,0.0
1.07391686847,0.966038695206,1.01326080714e-05,-31307725.9893,1.55660919828e-05,0.0,5782292.81309,679.904768141,648.977119585,66883322.0727,1725.5587544,35184690.7122,69457674.6512,4457.82892102,4449.25044095,0.0
1.05654346104,1.13715004365,1.07226536595e-05,-38594230.9106,1.32452925615e-05,0.0,5817518.79991,678.51879644,647.916780295,66978992.4763,1703.23461955,34679281.4176,69677703.8264,4385.71190678,4377.58996109,0.0
1.10030016759,0.814179078998,9.95621339461e-06,-22789990.7914,1.93502971534e-05,0.0,5711662.69965,681.849778359,650.842906691,66703141.0188,1760.89679181,37238985.9864,68721178.8448,4567.34599567,4558.54573941,0.0
1.09237300655,0.772940411445,1.00305212775e-05,-24416099.5989,1.87747087308e-05,0.0,5688411.89745,681.3220339,650.250175293,66602766.3643,1748.65854685,36592827.3921,69010523.1256,4534.44035019,4525.01294071,0.0
0.98827382462,0.817831733768,9.80135289578e-06,-95166800.924,1.52682435457e-05,0.0,5987297.82056,680.802447766,643.591997408,67368798.2149,1618.53731729,70058982.3972,70300977.2694,4102.324646,4095.23460597,0.0
1.04937139732,0.926431684119,9.95186982397e-06,-45715299.7121,1.48282396172e-05,0.0,5817862.37494,678.877062198,647.462157016,66958074.9017,1691.83406343,36123744.5313,70536486.0665,4355.94067028,4347.22339954,0.0
1.00791734424,0.985845040848,9.79711649452e-06,-88881747.3801,1.34261622035e-05,0.0,5973741.80413,677.990118237,644.848239747,67355960.8046,1639.04641382,64641137.9121,70946942.3201,4183.86489594,4176.84384076,0.0
1.1921069558,1.02588330231,9.94214401611e-06,5883016.59969,2.24366711506e-05,0.0,7423565.90206,687.36125129,656.600245441,65508481.5282,1871.99126307,53135100.0992,66734934.7885,4948.43597353,4936.76403811,0.0
1.05661010153,1.08215197881,1.00249669378e-05,-40496233.468,1.3313508502e-05,0.0,5836856.86449,679.048934813,647.902134376,67026085.7505,1702.82503806,34928363.9315,69957327.4794,4385.98853145,4377.6789099,0.0
1.06964307195,1.03099249603,9.94834815879e-06,-33877501.7013,1.44803527161e-05,0.0,5805409.658,679.832078268,648.761476257,66941867.4118,1719.88713605,34817831.6912,69933864.0764,4440.08839166,4431.57559322,0.0
1.09058125346,1.07999348158,1.00696416265e-05,-25697925.2012,1.53289992228e-05,0.0,5755231.48568,681.016225795,650.163170227,66821718.2446,1747.98400961,36299373.3893,69234127.3721,4527.00278311,4518.35439042,0.0
1.17871126541,1.11009664379,9.86248276464e-06,2996965.51024,1.98006191152e-05,0.0,5447715.22758,686.429754875,655.769133514,65903391.6528,1857.55112519,51673174.3477,67209871.7902,4892.83046272,4882.15908405,0.0
1.24063521536,0.930167341568,1.00451755225e-05,17551810.9658,2.87300354242e-05,0.0,19129516.8081,690.380728655,659.647465034,64855538.4639,1929.37688099,62099979.4228,66941076.6738,5149.87677896,5137.63712155,0.0
1.1266511391,1.03718669321,9.48759972609e-06,-13716647.8783,1.79120807947e-05,0.0,5629790.96413,683.560996615,652.429250221,66455118.7422,1792.86949252,42266362.974,68437200.4747,4676.7288784,4666.78497424,0.0
1.15155447589,1.02315112306,1.02681955035e-05,-4237789.58096,1.98067182245e-05,0.0,5518425.68541,684.629661912,654.101241202,66120507.0693,1824.18876576,47548045.26,68033444.3154,4780.10262942,4769.9063468,0.0
1.15649048914,1.19615693485,9.55025791606e-06,-4741328.65733,1.79843718206e-05,0.0,5560951.64986,685.249509274,654.383090872,66276480.2537,1831.40440829,47710396.0916,68772638.0564,4800.59202042,4790.54179057,0.0
1.12630520315,0.969841504881,1.01342962551e-05,-12578119.799,1.94705563648e-05,0.0,5599253.79276,683.055887682,652.341990936,66349512.8112,1792.41164346,42819404.5585,67202190.2483,4675.29289828,4665.4802555,0.0
1.20150192304,0.830965569041,1.04008290799e-05,9578018.97649,2.77467982829e-05,0.0,10941334.9836,687.679637033,657.168340746,65391228.0551,1884.60218061,55621401.6647,66808453.8814,4987.43448254,4976.37001066,0.0
1.13532260046,0.993702322256,1.00384315101e-05,-12054715.3998,2.0137492706e-05,0.0,5535339.71615,683.884417689,653.009919564,66177561.9464,1803.19772992,43132335.8278,67505316.3386,4712.72411451,4702.24471866,0.0
1.2562406501,0.901444522822,9.58768995924e-06,20422724.6415,3.03634278749e-05,0.0,22089825.7205,691.646483807,660.581346891,64588988.8643,1947.01241768,64353863.1714,65240153.2944,5214.65493857,5201.77503646,0.0
1.09067356673,1.05086463219,9.73199459457e-06,-26106294.2625,1.52458130727e-05,0.0,5766438.91806,681.301676655,650.198128365,66856427.6427,1748.02201895,36291372.0046,69403598.125,4527.3859755,4518.63836206,0.0
1.10402279007,0.662896197879,1.05019071e-05,-18298355.5216,2.26681446934e-05,0.0,5591257.42892,681.817945966,651.019985013,66304047.8446,1762.75417092,39454969.7132,68623682.6049,4582.79860158,4572.88078107,0.0
1.16390016615,0.752747055978,1.01983707484e-05,-1296075.02733,2.5561875765e-05,0.0,5401852.22345,685.665360115,654.850177716,65743554.2685,1838.58314897,48912857.1382,67468668.0472,4831.34958969,4820.41894245,0.0
1.10652181692,0.705869279157,1.00318486179e-05,-18290372.1599,2.13699678582e-05,0.0,5621260.29906,682.244722777,651.192875397,66408459.6834,1766.34142331,39483645.1328,68748525.9041,4593.17206203,4583.30592998,0.0
1.0884997913,1.00630188708,1.00793435186e-05,-26361608.8663,1.61152090637e-05,0.0,5754870.8198,680.953245629,650.055497606,66818160.8231,1745.32069989,36133619.1486,69264105.0956,4518.36263369,4509.74753472,0.0
1.03743661761,0.863877426487,1.00062981842e-05,-53496992.3822,1.50292794008e-05,0.0,5832741.69488,678.344683936,646.685872902,66989652.2678,1675.84889517,39077708.4421,71178124.4027,4306.3993997,4297.7309265,0.0
1.01037886387,0.852598052258,1.00129407408e-05,-80951333.7024,1.4739496824e-05,0.0,5891439.05086,677.848588547,644.984679255,67094734.8984,1639.52103696,57923901.8245,70794643.6596,4194.08266392,4185.90612711,0.0
1.19783424816,1.02459855287,1.01497662874e-05,8726114.01124,2.30515853152e-05,0.0,10150012.804,687.50647102,656.979922374,65526375.8757,1879.71231623,55082383.0872,66747758.2276,4972.20996411,4961.08427201,0.0
0.997892039108,0.93196230139,9.69664437534e-06,-95823578.8749,1.40137909559e-05,0.0,5995243.56511,679.056408638,644.212063972,67408356.7216,1625.38692347,70637440.3435,70922227.2581,4142.24985434,4135.36931198,0.0
1.17061153875,0.779946027989,9.75066416239e-06,934729.347263,2.50755569627e-05,0.0,5410415.88117,686.284985811,655.277589771,65789173.3833,1847.03284941,50551367.236,67629801.0776,4859.20849735,4848.25074543,0.0
1.10288522279,1.08516681117,1.01622653877e-05,-21544348.0735,1.62908137042e-05,0.0,5715944.89981,681.731921248,651.004436092,66710212.4487,1764.00283505,37741458.2234,68630084.3794,4578.0765598,4569.23552749,0.0
1.03483923807,1.16417284182,1.00724276462e-05,-57151166.9484,1.23608485823e-05,0.0,5859504.82218,678.09814086,646.539202055,67069971.3465,1672.69235287,41017589.1874,70988081.5356,4295.61767723,4287.165428,0.0
1.19459853738,1.03861207612,1.00872397654e-05,8017284.02811,2.24592021987e-05,0.0,9479275.97388,687.351643448,656.795459595,65586540.0354,1875.78586432,54596721.3962,66677187.9729,4958.77852866,4947.70363219,0.0
1.20569110293,1.03167975496,1.012241111e-05,9932989.51157,2.36363903364e-05,0.0,11272538.3572,688.010795923,657.397279323,65286863.4918,1887.67535791,55923336.4337,66916506.0959,5004.82376826,4992.91384271,0.0
1.0828769207,0.665325416442,1.03001042266e-05,-27715060.719,2.04068493483e-05,0.0,5742259.68198,680.64269012,649.716092374,66765919.5936,1738.58221368,35799077.9335,69144770.8412,4495.02209783,4486.59168342,0.0
0.971380285702,0.864721519946,1.01314256203e-05,-94516881.5274,1.47478172005e-05,0.0,6031186.9898,682.200179243,642.508548993,67485348.8294,1611.89244074,69486803.5079,69719621.4179,4032.19956595,4025.68482566,0.0
1.16571568803,0.970652661354,1.02532232933e-05,568357.045285,2.17716548818e-05,0.0,5452643.62216,685.50296083,654.970076649,65885929.045,1841.13422691,50142712.7572,67532322.4576,4838.88582101,4828.35467443,0.0
1.07116088448,0.92808171131,9.88046433753e-06,-34330336.7015,1.56057479319e-05,0.0,5796966.21605,680.021820554,648.858012854,66918028.4046,1722.13828314,34803234.5533,69901075.5871,4446.38883148,4437.85338928,0.0
1.13201318914,1.24624347194,1.00808656568e-05,-11562126.2062,1.61910985264e-05,0.0,5607043.04422,683.333400548,652.728637173,66380874.9032,1799.61506727,43380620.9442,67589416.2641,4698.98674812,4689.0770809,0.0
1.0026752362,0.823092573663,1.01820265207e-05,-95009264.9023,1.52365457564e-05,0.0,5885311.72748,678.078947257,644.48981227,67077771.5171,1628.77267785,69931440.1601,70588541.0861,4162.10490547,4153.83694612,0.0
1.09659475973,1.15206839235,1.02472191416e-05,-23203281.2224,1.50485979408e-05,0.0,5735314.25681,681.261582234,650.594330711,66759925.6401,1755.75752271,37030641.2504,68953531.6746,4551.96484764,4543.2221478,0.0
1.18019438941,1.24798110108,9.92618884915e-06,3082584.43835,1.80461803763e-05,0.0,5419132.11047,686.442367075,655.847624572,65818130.9384,1858.09610676,51635398.2146,67082353.2859,4898.98691044,4887.85603649,0.0
1.07583115254,0.854680988789,1.02731947175e-05,-29624563.7203,1.67604142424e-05,0.0,5739267.01278,680.180805783,649.227828184,66742749.339,1727.20393966,35344927.3802,69186140.0213,4465.77511419,4456.69757868,0.0
1.07603817032,0.663479107447,9.75727017346e-06,-32077399.4557,1.92637197331e-05,0.0,5782488.49682,680.421991211,649.12209255,66889687.9664,1729.25040585,35089488.6639,69698763.91,4466.634445,4458.21312525,0.0
1.05664123046,0.866576701117,9.95069625022e-06,-40741158.9341,1.54891847723e-05,0.0,5826311.57234,679.195817994,647.90658235,66992478.4761,1703.00440353,34961902.5359,70080397.9064,4386.11774764,4377.80764251,0.0
1.05469020721,0.92736169671,9.72663219106e-06,-45052356.2339,1.50647586826e-05,0.0,5806040.08318,679.36102116,647.79902849,66929389.4559,1698.68686325,35842314.1861,70497000.7231,4378.01905013,4369.06656142,0.0
1.08978594241,0.956790929079,1.01044458561e-05,-25812837.7282,1.68010421671e-05,0.0,5746685.58376,681.011237243,650.11985285,66795410.5278,1747.04395286,36245907.0343,69210192.5006,4523.70144694,4515.06624545,0.0
1.0988178399,0.8683484275,9.93144929226e-06,-23117186.7675,1.84021034405e-05,0.0,5724245.02361,681.733445371,650.733922693,66736242.3692,1759.06575275,37112933.2383,69147550.2734,4561.19285342,4552.41583275,0.0
1.13721871172,0.687598800829,9.95308195437e-06,-9227599.57397,2.51911279924e-05,0.0,5557367.65634,684.110845322,653.15055475,66249123.2583,1807.38444795,44981168.3958,67926530.9474,4720.59487235,4710.88054614,0.0
0.98341206509,0.851973601124,9.80278824568e-06,-95004037.3837,1.47127543348e-05,0.0,6000286.17247,681.286501046,643.278896039,67393795.6587,1616.00026828,69915637.9121,70156255.6495,4082.14348219,4075.04073999,0.0
1.11559665355,1.01873298478,9.90395817642e-06,-15975320.0748,1.78434442849e-05,0.0,5676523.221,682.557393433,651.72716391,66590559.8442,1779.58611901,40839851.1383,69437744.3958,4630.84170889,4621.62556677,0.0
1.0577463887,0.739891946227,1.0254701759e-05,-39297058.8522,1.70762520347e-05,0.0,5808156.49737,679.084335129,647.995419051,66938169.7463,1704.86454551,34747517.7843,69670663.3536,4390.70525949,4382.47201518,0.0
1.08008188565,0.948210557639,1.05384940456e-05,-27983785.9155,1.65597962041e-05,0.0,5759194.05846,680.189954246,649.536663924,66817230.2797,1734.64972005,35688769.775,69126239.4147,4483.41990733,4475.03100928,0.0
1.03173837737,1.07065752542,9.83747886074e-06,-59921731.0898,1.30042614183e-05,0.0,5916714.24831,678.155104868,646.367293429,67247560.5044,1670.92850553,42743224.5036,71059628.521,4282.74600446,4275.38633227,0.0
1.17358195905,1.11531274611,9.61347870422e-06,1010583.74763,1.92096794235e-05,0.0,5432946.03448,686.331049233,655.460027521,65869012.5989,1849.9033473,50605955.0755,67680406.7752,4871.53871202,4860.33072652,0.0
1.13557226144,0.960600770378,1.03556711028e-05,-10536252.3017,2.12737808403e-05,0.0,5605970.59999,683.571331436,653.053047092,66404151.0914,1806.59251487,43926109.8391,67870929.2695,4713.76045724,4704.61641917,0.0
1.14176722258,0.730118364894,1.02537007889e-05,-8538495.64078,2.50236117117e-05,0.0,5514746.5853,684.035232933,653.280440249,66114943.1204,1812.60819273,45120406.0643,68187379.7171,4739.47574093,4729.39918567,0.0
1.14062927064,0.819355215799,1.01724375656e-05,-9207395.96094,2.37419412923e-05,0.0,5578310.06042,684.041249775,653.337036264,66313353.5612,1812.86246807,44745715.533,68096033.6082,4734.75210243,4725.39534607,0.0
1.07298967683,0.796443047195,1.00743060884e-05,-31876397.8659,1.74601830973e-05,0.0,5775734.49095,679.962494705,648.914802813,66859956.8928,1724.47298364,35111237.4988,69537877.5692,4453.98014852,4445.41625548,0.0
1.05233937692,1.14274550068,9.96170365609e-06,-44108256.2396,1.28828073194e-05,0.0,5824045.58331,678.92500045,647.647252607,66983440.289,1695.62925147,35587102.7357,70594797.2139,4368.26075359,4359.495134,0.0
0.985733740342,0.863521233478,9.71734724086e-06,-95087083.2028,1.49189138286e-05,0.0,5998326.68709,681.390490468,643.429468414,67398348.6693,1618.84179256,69988824.1655,70229409.0321,4091.78075616,4084.72730042,0.0
1.19672694896,0.955305102521,9.84524142718e-06,7361775.0801,2.37555929149e-05,0.0,8812173.82093,687.725307944,656.933695103,65545294.7159,1878.57929681,54164480.773,66653497.4826,4967.61356513,4956.30331698,0.0
1.17859803554,0.955751584143,9.50144885652e-06,2591870.07857,2.20179061842e-05,0.0,5414347.34521,686.776805899,655.766016694,65813184.4916,1856.73219898,51574384.8898,67056742.8799,4892.36044553,4881.24843419,0.0
1.00123792048,0.903611796361,1.0186253764e-05,-95763151.601,1.45904033705e-05,0.0,5893237.91973,678.144881596,644.401860506,67099606.3272,1626.81853227,70583108.6966,70583108.6966,4156.13860791,4147.89133115,0.0
1.1208099943,1.07444848861,9.84356664161e-06,-14699376.1588,1.72245475655e-05,0.0,5669409.47129,682.889654771,652.055632023,66572450.3348,1786.54939874,41461239.7125,69133993.3368,4652.48228634,4643.16303309,0.0
1.09639004385,1.07680329696,9.8359512657e-06,-24254784.2031,1.55379429708e-05,0.0,5751174.70823,681.521819642,650.540767526,66813526.0085,1755.72188853,36800650.8229,69210335.4269,4551.11507202,4542.37623611,0.0
1.14771815923,1.03891388533,1.01268015157e-05,-7561431.27114,2.07422459845e-05,0.0,5582680.796,684.391146628,653.799414566,66344789.8624,1822.01373282,45679422.9756,68588478.6768,4764.17807896,4754.81548873,0.0
1.03493190312,0.793712707403,1.00338281433e-05,-56644423.5264,1.56355085325e-05,0.0,5884643.22965,678.290572359,646.647527384,67154064.1822,1675.38319635,40809928.5225,70928956.7167,4296.00232985,4288.59674591,0.0
1.00433187188,0.81483019116,9.93480606202e-06,-93535361.1266,1.52589665427e-05,0.0,5888306.50696,678.333651328,644.602759684,67083318.3631,1630.76199221,68631505.5151,70755921.4049,4168.98160017,4160.60282887,0.0
1.11971858602,0.778680538387,1.02922306967e-05,-14367883.7849,2.17197578867e-05,0.0,5600984.56852,682.73295485,651.985154188,66351314.969,1784.56036376,41518395.7845,68381345.4658,4647.95185057,4638.34930761,0.0
1.09684938268,0.905123444081,9.87430226078e-06,-23952401.5024,1.77197862115e-05,0.0,5735315.64677,681.609808028,650.578819772,66765585.523,1756.46477443,36860464.6423,69134286.9387,4553.0217875,4544.27573226,0.0
0.986561977795,0.955257955135,9.80442398572e-06,-95152299.1164,1.39399383903e-05,0.0,5995515.93687,680.769654405,643.481579769,67390360.0874,1616.48574352,70046313.1058,70288685.2782,4095.21876983,4088.07009061,0.0
1.0467657829,0.800138595037,9.84283437132e-06,-47994308.4536,1.59009792605e-05,0.0,5854146.73534,678.819582764,647.309968148,67066768.2487,1690.06416867,36820600.8207,70660484.8223,4345.12476482,4337.1792182,0.0
1.17912762347,0.856243044021,9.97345224751e-06,3102201.40655,2.45602182803e-05,0.0,5374890.86983,686.610943731,655.780817486,65678960.2763,1857.30336273,51564471.4439,66913054.5189,4894.55876502,4883.44704262,0.0
1.21197124481,0.805759470375,9.74772730346e-06,10997203.6021,2.82792926394e-05,0.0,12343943.4039,688.786089526,657.790021052,65199190.227,1896.26791276,56817748.4895,66529357.7096,5030.89263721,5018.96740587,0.0
1.00210976551,1.04155613638,1.00789770439e-05,-95361209.5772,1.31962664061e-05,0.0,5902164.75795,678.114729542,644.455774623,67124692.9427,1627.68406182,70238299.1773,70690039.1363,4159.75763663,4151.41490587,0.0
1.14199110628,1.15245628561,9.6918846755e-06,-8735717.63525,1.77406616349e-05,0.0,5607005.38576,684.265783354,653.440440979,66410006.903,1813.34241388,45466372.0702,68315359.1956,4740.40508217,4730.71668382,0.0
1.14383237996,0.718696573537,1.00606873524e-05,-8234791.59256,2.53281155247e-05,0.0,5513379.73769,684.299692443,653.411179901,66107788.9655,1815.27408887,45249314.1329,68280977.7724,4748.04820921,4737.91071766,0.0
1.11566307397,0.840813664848,1.02386133378e-05,-15663793.0275,2.01641000754e-05,0.0,5626628.99271,682.450882588,651.71164327,66423869.5295,1779.26681055,40863594.0926,69164570.147,4631.11742005,4621.58143331,0.0
1.12293870701,0.938927063764,9.71347894051e-06,-14283059.375,1.92148597829e-05,0.0,5650026.91058,683.186149585,652.193112728,66523810.7315,1789.15588647,41755047.7906,68914104.6299,4661.3185728,4651.86342888,0.0
1.1860339638,1.02864698193,1.02568778693e-05,5067422.10624,2.21891356345e-05,0.0,6582301.95818,686.724542801,656.210409958,65650927.6644,1865.7233051,52565362.1069,66837565.4847,4923.22698373,4912.20511547,0.0
1.16883524161,1.06015512322,9.63933028421e-06,5673.10397849,1.97263553199e-05,0.0,5474344.41745,686.037166685,655.175872825,65993324.4097,1845.17592462,50141258.1437,67830708.4091,4851.83508792,4841.11650894,0.0
1.06919684178,1.07140379217,1.03336212342e-05,-33871405.8504,1.42582814422e-05,0.0,5797048.95911,679.501428527,648.710284167,66927751.9024,1719.77884088,34765678.6046,69674405.1453,4438.23609023,4429.82420943,0.0
1.08651892558,0.893084383504,9.75960083821e-06,-28002167.3483,1.70238575218e-05,0.0,5765964.77684,681.140828117,649.955070154,66844836.7558,1742.83337154,35897994.9703,69375696.5664,4510.14006008,4501.55588449,0.0
1.00186082218,1.17473764995,1.02337371116e-05,-95417328.9157,1.21929393943e-05,0.0,5906363.45442,677.889910257,644.439869047,67141390.5886,1627.47457845,70284933.7268,70647787.3128,4158.72427287,4150.46692988,0.0
1.05890961315,0.821281714272,1.02874518817e-05,-38607771.0394,1.63021709867e-05,0.0,5808985.01648,679.093828211,648.071324946,66942905.0295,1706.37971239,34688793.8766,69779744.7294,4395.53380419,4387.28117846,0.0
1.12072706072,1.10058089881,1.02299306762e-05,-14440632.6546,1.71508855787e-05,0.0,5628866.83783,682.661900277,652.051851018,66438552.0302,1785.44573767,41592041.1701,68432411.8209,4652.13802905,4642.51768055,0.0
1.04679400248,0.862122262394,1.0121040549e-05,-45015369.9645,1.51545189336e-05,0.0,5832693.96526,678.598499553,647.298286638,66997036.3625,1689.31020814,35869739.6947,70364772.9909,4345.24190429,4336.90495537,0.0
1.08686120138,0.794881843899,1.0293435195e-05,-25456816.0398,1.82316991241e-05,0.0,5702316.59262,680.846859533,649.940192176,66630839.6301,1741.76554868,36264417.0857,68933075.0634,4511.56084693,4502.31967593,0.0
1.13461813677,0.856800145358,1.02080240282e-05,-10520625.3885,2.21566745207e-05,0.0,5567366.08499,683.70852454,652.978336511,66275239.7327,1803.73031729,44033773.1236,67713841.2235,4709.79988573,4700.04973686,0.0
1.05406192033,1.07099356321,1.05284662023e-05,-39868261.6638,1.36523717182e-05,0.0,5803857.88285,678.553457868,647.73902422,66920043.6921,1698.45691152,34807903.8636,69563295.3241,4375.41103129,4366.79722187,0.0
1.20186519674,0.87118176527,1.02248080643e-05,8799239.2348,2.66363354216e-05,0.0,10186737.6824,687.905195005,657.196586834,65244094.9531,1883.50749537,54973386.0089,66608009.0957,4988.94243167,4977.09088449,0.0
1.07383713692,0.967365484133,1.01071500522e-05,-31403826.3708,1.55315455924e-05,0.0,5783625.96882,679.91660346,648.970652355,66886491.2522,1725.4489265,35182710.4295,69491606.2475,4457.49795535,4448.92073006,0.0
1.08114645823,0.829592088974,9.40496237929e-06,-30472460.788,1.70072831228e-05,0.0,5792702.98356,680.904253892,649.462283165,66918535.8179,1735.60801348,35479694.505,69473403.3534,4487.83894811,4479.24199054,0.0
1.07234436031,1.08041912576,9.53959401266e-06,-34495788.2747,1.38650982822e-05,0.0,5828440.12593,680.261110844,648.941039855,67019761.6583,1724.10187272,34796184.9831,70205107.8012,4451.30143965,4442.93721082,0.0
1.17029509464,1.08165093655,1.01543851744e-05,1214070.40999,2.01337786689e-05,0.0,5451324.23998,685.784620717,655.257708573,65903279.8687,1846.82269332,50485847.8774,67528451.3393,4857.89493785,4847.25632967,0.0
1.0226295242,0.878729333216,1.0212844898e-05,-67430855.1127,1.47201471514e-05,0.0,5857725.00159,677.70188513,645.764445668,67044711.0091,1656.24554987,47587441.2504,70852001.3101,4244.93515495,4236.59281324,0.0
1.01883835937,1.05622505892,1.04207084433e-05,-69814609.8021,1.31204845025e-05,0.0,5870696.48558,677.371565098,645.51961108,67079698.6238,1651.25852338,49294602.5915,70909214.808,4229.19802974,4221.00140913,0.0
1.12418719746,0.889801466322,9.92026900166e-06,-13736712.8278,2.03124634086e-05,0.0,5634502.21477,683.167689689,652.288175162,66473210.9704,1790.9958655,42007915.8338,68464034.0522,4666.50105666,4657.1269224,0.0
1.12397864408,0.965938942883,1.00837546518e-05,-13282124.9538,1.9260837255e-05,0.0,5606681.31989,683.04254247,652.26427972,66384123.9252,1789.44552512,42409723.6334,67816108.8981,4665.63535158,4655.86105896,0.0
1.13778657605,1.04328150889,1.00513843649e-05,-8344591.22604,1.93170684489e-05,0.0,5563834.28026,683.839098457,653.151909465,66250374.4453,1806.39686976,45686098.966,68219467.5821,4722.95207718,4712.91413524,0.0
1.13460329433,1.04228682044,9.78902365436e-06,-11075452.567,1.88942430091e-05,0.0,5610771.27298,683.870713953,652.98620017,66405647.5985,1803.92062445,43790109.2462,67683297.9095,4709.73827476,4700.0641759,0.0
1.1338003858,0.930289558777,1.06772714068e-05,-10267213.9286,2.18983259148e-05,0.0,5594221.84893,683.253148143,652.924757499,66331884.5252,1804.23335899,43929125.7451,67821252.7034,4706.40540146,4697.28942447,0.0
1.11140239161,0.8488436326,9.93386470501e-06,-17304263.5676,1.95475046952e-05,0.0,5675344.62742,682.424239433,651.503761909,66592637.5053,1774.51057292,40127743.6329,69079619.1635,4613.43132757,4604.26375342,0.0
1.09707487927,1.00049213769,1.02050635721e-05,-23141091.9291,1.69873084939e-05,0.0,5724460.35347,681.388047834,650.625558946,66726463.7195,1756.50716257,37045614.2517,68912098.042,4553.95782385,4545.20833463,0.0
1.15435431341,1.07013061357,1.01549821235e-05,-5637315.2018,2.08197175923e-05,0.0,5559143.61914,684.871923604,654.298875399,66279527.7207,1830.36244798,46764336.5611,68561743.6898,4791.72475496,4782.25393161,0.0
1.11397927361,0.900336824055,9.95462060458e-06,-16358130.8676,1.90980252098e-05,0.0,5619608.73732,682.570822262,651.620146765,66400341.7499,1775.75265721,40626206.3883,69228215.4512,4624.12796476,4614.13166448,0.0
1.10953082087,1.11785483804,9.97148114761e-06,-17697016.3408,1.59162031209e-05,0.0,5653352.08553,682.216429451,651.373915733,66511641.5346,1769.79308064,39950246.7963,69019498.9321,4605.66243743,4595.743857,0.0
1.20911167593,0.955505055655,1.04081351206e-05,11082080.604,2.57047064629e-05,0.0,12325168.1224,688.119537595,657.630780287,65202815.3816,1892.09834672,56747421.2795,66197940.716,5019.02256679,5007.26620884,0.0
1.13746395512,1.01415674293,1.03172255774e-05,-10124291.6091,2.05653685153e-05,0.0,5605765.53027,683.708425144,653.201504551,66405631.8079,1808.97297076,44179666.8573,67975713.0759,4721.6128777,4712.43884217,0.0
1.1247493803,0.837838304559,1.01275844523e-05,-13022104.2437,2.07969676397e-05,0.0,5595097.60094,683.110778488,652.314280221,66347227.3795,1790.64920435,42523126.1471,67691011.6006,4668.83467763,4659.06583699,0.0
1.1791706541,0.901266973364,9.79964744434e-06,2821293.48869,2.34447931039e-05,0.0,5391211.24995,686.682134417,655.790542605,65726619.4934,1857.47430903,51505089.1012,66956250.7214,4894.73738517,4883.63810371,0.0
1.06378813271,1.13772377704,9.76109359853e-06,-38171014.7527,1.30084127673e-05,0.0,5830208.83117,679.75331432,648.471278786,67014298.6477,1712.28886146,34741620.8757,70122426.1712,4415.78453888,4407.3631037,0.0
1.11941621975,1.25291305204,9.58887481e-06,-17830429.7667,1.51965470127e-05,0.0,5712007.56042,682.957666477,651.99615089,66718866.0883,1785.89725909,39802351.0823,69379154.6715,4646.69672818,4637.69446892,0.0
1.17548278377,0.957523695907,1.01969979024e-05,2751213.18468,2.26639643996e-05,0.0,5398149.71002,686.160597904,655.555876903,65738026.9936,1852.62151592,51392266.2443,66968007.6137,4879.42903543,4868.48953514,0.0
1.12758860069,1.17996933916,1.00738569053e-05,-12328673.2527,1.66575263955e-05,0.0,5612736.60866,683.177887874,652.505979607,66406226.2556,1793.79580084,42985678.988,67313146.6893,4680.62028146,4670.76086954,0.0
1.11215842622,0.937650608036,1.02490774833e-05,-16914176.2627,1.87632795913e-05,0.0,5650388.76388,682.213437249,651.520649983,66497373.5962,1774.88442194,40270448.8682,69131311.4663,4616.56962724,4607.19174478,0.0
0.978708791219,1.23334524786,9.60359404557e-06,-94893935.0477,1.1765181447e-05,0.0,6039606.6299,682.554060491,642.9791269,67510727.6713,1618.2099361,69818615.8391,70055933.8688,4062.62019235,4055.66734297,0.0
1.05167048125,1.10626026345,1.00474527874e-05,-44078297.5181,1.32087415419e-05,0.0,5820112.09151,678.83839015,647.603858942,66971651.9595,1694.78161721,35576610.0297,70552505.9587,4365.48416767,4356.7294539,0.0
0.966814137094,0.815937786474,9.77774520825e-06,-94248656.8205,1.52277838907e-05,0.0,6050559.43195,684.27580953,642.215331879,67535103.0092,1616.83227794,69250686.5845,69480123.018,4013.24548308,4006.7076401,0.0
1.10113549593,0.868457262507,1.03239822082e-05,-19489496.4814,1.85541838518e-05,0.0,5648517.81253,681.630878674,650.869512136,66479504.0416,1759.37355783,38869061.293,68504460.2776,4570.81344361,4561.13494785,0.0
1.19961401031,0.671516195255,9.91732662694e-06,8668925.60003,3.11725688883e-05,0.0,10110101.3001,688.105991573,657.093467222,65332486.9952,1882.38703919,55105465.1474,66586560.2243,4979.5977568,4968.23288546,0.0
1.08143063379,0.898257210011,1.01463745846e-05,-28584163.2369,1.68589233049e-05,0.0,5764153.17499,680.579409387,649.633206299,66837703.5078,1736.14375346,35663886.023,69248108.6965,4489.01856086,4480.51360983,0.0
1.01814711844,0.89259040549,1.01015363139e-05,-72468389.0013,1.45279998844e-05,0.0,5872718.42892,677.7537189,645.477621329,67076014.5711,1650.21344613,51293071.9376,70777918.5547,4226.32868864,4218.05810286,0.0
1.12608321931,1.14521571302,1.01805010821e-05,-13343808.9371,1.74975380851e-05,0.0,5660703.87729,682.989665028,652.42598413,66552687.9708,1794.34407629,42373618.1738,68152303.8879,4674.37144336,4665.378101,0.0
0.995448683908,0.963549846318,9.70079146374e-06,-95535529.5873,1.38951043989e-05,0.0,5933431.87506,679.431558676,644.039376867,67204593.9788,1618.8946173,70383833.775,70638903.2419,4132.1074869,4123.95565678,0.0
1.23609522298,0.89915365034,1.01919853188e-05,16982139.3599,2.93258331021e-05,0.0,18568139.8902,689.794366322,659.237485102,64980112.6594,1924.57230898,61712623.9228,66845945.1162,5131.03127059,5119.19660691,0.0
1.03680472415,1.10835195118,9.73232211445e-06,-58081192.5476,1.28617017751e-05,0.0,5863898.0793,678.502483923,646.666109072,67084708.0374,1675.25615345,41574539.2791,71206206.63,4303.77640995,4295.2939502,0.0
1.03065654263,0.695856884146,9.77892644419e-06,-60891928.612,1.63994300701e-05,0.0,5903117.25803,678.297435096,646.299931731,67202291.088,1669.67803615,43213092.4725,71048293.9778,4278.25530846,4270.91116175,0.0
1.12370001264,0.867216939179,9.82326522202e-06,-13782791.9087,2.03898905691e-05,0.0,5636492.23986,683.201161583,652.244127958,66485938.5176,1790.16601154,41969950.9888,68624128.318,4664.47875247,4655.01109592,0.0
1.01066194487,0.9960704661,9.97918342177e-06,-80989505.3377,1.35478609936e-05,0.0,5900019.27598,677.836772734,645.003160932,67121383.8144,1639.8000373,57957630.0135,70833833.0072,4195.25773316,4187.07668928,0.0
1.03591194209,0.988549801249,1.028661003e-05,-53451463.8143,1.39382942801e-05,0.0,5836358.87259,677.990742383,646.583563808,67000237.3239,1674.03045055,39046291.6782,71062499.524,4300.07047162,4291.51370437,0.0
0.950515105821,0.872508905171,9.86447699846e-06,-93551100.6494,1.45615762379e-05,0.0,6091014.7307,686.298019677,641.166114498,67636252.9086,1612.44744663,68636542.4825,68856299.9876,3945.58820426,3939.34947203,0.0
1.19625926125,0.887040351236,1.01492760058e-05,7726409.43059,2.53874022832e-05,0.0,9149278.16371,687.560753017,656.887525514,65449475.2128,1877.76875449,54291088.7388,66520329.624,4965.67219345,4954.34972078,0.0
1.0829170731,0.941660518622,1.00741151648e-05,-28298156.2706,1.64216317156e-05,0.0,5765917.3027,680.695999117,649.725921405,66844349.5505,1738.0644561,35752203.3413,69280643.5533,4495.18877044,4486.66070673,0.0
1.20797306068,1.1083730288,9.99725696724e-06,10288619.1754,2.22691057054e-05,0.0,11608602.9379,688.167809342,657.540126587,65302897.8696,1890.4068288,56236620.6212,67033465.9716,5014.29617488,5002.31661678,0.0
1.19515086966,0.863353415399,1.01534425952e-05,7218949.74848,2.61069322316e-05,0.0,8687964.19774,687.56923033,656.808241783,65339506.7809,1875.57345226,53832765.0181,66418072.6794,4961.07125996,4949.36448446,0.0
1.13374043025,0.920577688081,9.93647051438e-06,-10582081.7693,2.11183788891e-05,0.0,5621608.06433,683.734051933,652.937783526,66449166.5973,1803.83109742,44156016.7916,67783840.78,4706.15652597,4696.91479045,0.0
1.15631540169,0.907969644171,1.03730790623e-05,-2732802.22446,2.1911442442e-05,0.0,5453699.24707,684.961334598,654.383685631,65884063.8308,1829.22138774,48095634.5685,67732456.6782,4799.86523242,4789.17845601,0.0
1.14269393171,1.05123847729,9.91382158418e-06,-9067039.0506,1.93672173062e-05,0.0,5560906.25244,684.142976164,653.368682644,66249122.3418,1813.4772067,44924302.1345,68247820.7939,4743.32251053,4733.20604239,0.0
1.10961096145,0.91785164221,9.67046425342e-06,-18711933.0463,1.8115900217e-05,0.0,5680226.0159,682.509832067,651.408262547,66597622.8833,1771.49983074,39462913.6966,68898808.02,4605.99510098,4596.56051406,0.0
1.00584914158,0.865376279516,1.0189802786e-05,-88024695.3015,1.49629392785e-05,0.0,5879509.3328,677.855363141,644.69355923,67064052.2757,1632.98087592,63830703.7413,70686331.7852,4175.2797867,4166.95807933,0.0
1.09653987618,0.838285401919,1.04821643071e-05,-22151928.4361,1.89889230316e-05,0.0,5685095.56501,681.259287194,650.589798977,66591938.4562,1755.02149353,37394397.5189,68282920.8027,4551.73702602,4542.7017897,0.0
1.24392279835,1.05343168835,9.7881822135e-06,18062000.8321,2.58730758355e-05,0.0,19649378.6441,690.607045157,659.837240558,64872660.5055,1932.72978806,62501752.0316,67132093.6992,5163.52353595,5151.08221861,0.0
1.07880856528,0.857958901331,9.8486730899e-06,-30595629.9036,1.69510026852e-05,0.0,5785045.46428,680.440788378,649.308676635,66904188.7105,1732.74559066,35385424.827,69345612.2949,4478.13435448,4469.67011128,0.0
1.21856606471,0.846928444981,1.0308130272e-05,13051120.6539,2.8761373104e-05,0.0,14249360.578,688.915034883,658.261134509,65025705.4684,1903.43524151,58341381.1297,66331889.8481,5058.26773461,5046.30484808,0.0
1.0811426886,1.04441491229,9.99501857332e-06,-29176166.1935,1.50502204372e-05,0.0,5781140.03662,680.597049485,649.603760502,66886439.7286,1735.66278206,35642719.1043,69337344.733,4487.82330038,4479.32282363,0.0
1.07663673525,1.05002844742,9.84057986512e-06,-31606157.5472,1.46057924097e-05,0.0,5803665.73928,680.23600374,649.16314485,66957640.8614,1729.7435982,35198937.6579,69684245.0077,4469.11908802,4460.68850193,0.0
1.09868188199,0.897143015465,9.75581026363e-06,-23505536.1414,1.77796538962e-05,0.0,5729213.42172,681.816522948,650.709251784,66742321.5648,1758.53497775,37025803.9245,69211368.9955,4560.62849214,4551.75476675,0.0
1.02215624681,0.814507220555,1.04367342388e-05,-66694017.3515,1.52370609268e-05,0.0,5849167.26789,677.50023835,645.736070676,67023451.2099,1655.85102766,47057604.1588,70729990.0587,4242.97058051,4234.72128515,0.0
1.14348423506,0.81690379307,1.02928796303e-05,-8138389.31055,2.42496531917e-05,0.0,5561631.00897,684.10686887,653.488783975,66268692.4285,1816.43849275,45318210.4375,68325074.5767,4746.60305973,4737.20032235,0.0
1.14463399894,1.12669210944,1.00225023207e-05,-8287435.49534,1.85277353556e-05,0.0,5553249.82291,684.235169856,653.548823512,66230057.4249,1815.78620988,45295285.053,68442926.9801,4751.3757296,4741.22610737,0.0
1.09055965943,0.824127874005,1.026184522e-05,-25087105.3462,1.86065598661e-05,0.0,5728115.67443,680.984018037,650.149272827,66728592.3268,1748.14180582,36389842.1652,69025509.0792,4526.91314629,4518.26584237,0.0
1.04121761407,1.0099835687,1.0101095119e-05,-51398029.5083,1.39363679869e-05,0.0,5834749.57309,678.374520304,646.925906907,67003394.7187,1681.2555206,38128863.6783,70865974.947,4322.094316,4313.54078807,0.0
1.21157851429,0.762861808612,9.84143320687e-06,10984879.9859,2.95540974231e-05,0.0,12306555.6754,688.761777946,657.765086475,65151616.431,1895.85104422,56803712.6001,66454430.7921,5029.26241282,5017.34438554,0.0
1.05568562355,0.905734647789,9.69238930148e-06,-44679475.7276,1.53257886685e-05,0.0,5803134.31231,679.44578646,647.858651015,66922187.3609,1700.01371216,35696602.9153,70460194.0656,4382.15102336,4373.18203709,0.0
1.16792716634,0.791402902436,9.77975675839e-06,-1089312.16592,2.68545861923e-05,0.0,5501192.70702,686.070385848,655.141932326,66106168.8207,1847.48518612,49404337.715,68058134.8207,4848.06566748,4838.36428819,0.0
1.0897658759,0.964441628606,1.02166323667e-05,-25393102.6497,1.68252596889e-05,0.0,5741722.65743,680.909578674,650.103952228,66782466.0221,1746.89876438,36332550.8164,69122303.46,4523.61815086,4514.98293831,0.0
1.19879568906,0.710029068633,1.01549348656e-05,8175609.80566,3.02233105644e-05,0.0,9609619.76369,687.885735182,657.036457836,65321500.5897,1881.32145711,54657474.0226,66494149.4406,4976.20090529,4964.83728271,0.0
1.042654791,0.914021384519,1.04015729985e-05,-46944111.9378,1.46002217763e-05,0.0,5825972.11931,678.192965317,647.037656826,66973745.4114,1683.55608667,36393104.9389,70490476.8847,4328.06003744,4319.62709517,0.0
1.08261119301,0.84932076155,1.01719395443e-05,-28062682.7354,1.75669642297e-05,0.0,5756474.4553,680.641246905,649.702931701,66815963.1096,1737.72945744,35734931.5532,69230519.6521,4493.91906218,4485.39575671,0.0
1.18548824554,0.906375961585,1.01555579066e-05,5501113.87546,2.43006264507e-05,0.0,7093988.01047,686.812638534,656.17355575,65623793.5245,1864.93431172,52961088.4211,66869500.4259,4920.96170724,4909.94910456,0.0
1.0394467616,0.806779278645,1.02235234961e-05,-51700617.6329,1.55065318605e-05,0.0,5829819.06874,678.273826083,646.828714485,66987655.6157,1679.39411297,38215378.736,70771319.2724,4314.7435074,4306.30494088,0.0
1.02385813628,1.16361885458,1.0102667882e-05,-67228647.7522,1.23086091346e-05,0.0,5875508.28549,677.73730356,645.846158765,67100335.7833,1657.67789702,47462251.5038,70972122.1264,4250.0351237,4241.67307003,0.0
1.19120913561,0.876866296574,9.98304965515e-06,5790422.24946,2.52655274954e-05,0.0,7355657.35485,687.389949307,656.536393352,65453306.9113,1871.15340607,53042358.0886,66671212.4591,4944.70912192,4933.07366486,0.0
0.967821594197,0.907204687872,9.76521249659e-06,-94308450.8261,1.45197247258e-05,0.0,6052715.99922,684.130889701,642.280258601,67542823.1405,1617.09845356,69303301.4074,69533684.2476,4017.42743751,4010.87335615,0.0
1.02527192701,0.962419994555,9.67742156481e-06,-68531821.9575,1.38718624763e-05,0.0,5933601.67277,678.1675624,645.959453217,67284108.1032,1662.32848156,48414228.1661,71128234.9291,4255.90376902,4248.63668967,0.0
1.22791382953,0.926594981076,9.78628580708e-06,14611032.5525,2.69647490483e-05,0.0,16026517.8791,689.668670607,658.882102396,65194752.3196,1915.85879775,59776839.5732,66709357.0215,5097.07030638,5085.40608504,0.0
1.03370421257,0.907020964208,9.68044667564e-06,-59521614.3417,1.46528838227e-05,0.0,5845755.69071,678.495111694,646.466613481,67020893.2413,1670.22246084,42431111.1299,71114769.0605,4290.90618638,4282.12706945,0.0
1.01766894042,1.10592099209,1.01734466425e-05,-72895122.3697,1.25063289857e-05,0.0,5934780.98762,677.48325766,645.466735539,67268333.4259,1651.8238694,51604442.6424,70843782.0665,4224.34377168,4217.09598933,0.0
1.13140712438,0.83642270789,1.02644843676e-05,-11388732.4184,2.19610993513e-05,0.0,5568533.95386,683.487440408,652.771682777,66269859.3816,1799.47319617,43469067.2875,67481599.1375,4696.4709733,4686.67255014,0.0
1.0960506401,0.897100467201,1.02123003786e-05,-23411722.4737,1.80989943612e-05,0.0,5719855.26812,681.359009532,650.550548205,66709973.7375,1755.26879486,36947644.5902,68928451.6877,4549.70620706,4540.9720576,0.0
1.05624402009,1.0129318158,9.61553230108e-06,-41329381.4836,1.36507116861e-05,0.0,5808391.23819,679.524432883,647.957745877,66923512.2482,1700.05400989,35020299.937,70691921.6525,4384.46892739,4375.28120117,0.0
1.13654094976,0.875908780394,1.00147456761e-05,-9375962.06912,2.17903845441e-05,0.0,5577392.85913,683.905047427,653.106380203,66311449.3219,1806.22896807,44909083.6056,67953976.5516,4717.78148245,4708.07835386,0.0
1.02958863427,0.965514375986,1.00157137971e-05,-62079487.9271,1.40277724827e-05,0.0,5860713.93698,678.053300606,646.211074865,67065480.2143,1665.82928539,43990360.2702,71017904.0164,4273.82242085,4265.454301,0.0
1.03503081163,1.0048122657,9.7027872091e-06,-58477046.247,1.37094052202e-05,0.0,5909861.1073,678.408965394,646.568163453,67230255.7896,1675.32218073,41888981.3722,71140168.6085,4296.41289908,4289.0073261,0.0
1.05518901277,1.00822290261,1.00601486349e-05,-40340195.8613,1.4197828478e-05,0.0,5823611.7287,678.963753171,647.806789371,66983597.3787,1700.20373532,34896722.3883,69852851.4549,4380.08959201,4371.62000137,0.0
1.27730044705,0.943392177071,9.93469500649e-06,24320796.8661,3.32196073257e-05,0.0,26091022.552,692.834731937,661.917053093,64188453.0545,1970.35909637,67123921.953,68098352.8956,5302.0741557,5288.80207007,0.0
1.16585894631,0.798405171155,9.7199080248e-06,-663128.024731,2.42936306511e-05,0.0,5424907.31218,686.028853574,654.980528905,65823301.0762,1841.01033703,49700895.0108,67770242.5079,4839.48048613,4828.50247979,0.0
0.978198702881,0.969482500994,1.0067053174e-05,-94650367.1298,1.38858487468e-05,0.0,5959218.7276,681.391489049,642.92998009,67259703.221,1610.41708063,69604492.7242,69841899.936,4060.50281566,4052.62680696,0.0
1.04219133528,0.941860766131,1.00691706414e-05,-50758905.8556,1.45927691373e-05,0.0,5829613.85131,678.461507802,646.978795571,66988874.554,1682.58174885,37834904.7043,70899229.7579,4326.13623275,4317.56699104,0.0
1.10904223804,0.941071827466,9.96704891695e-06,-17714305.6358,1.81286394097e-05,0.0,5639562.33903,682.286037647,651.345036331,66467976.6993,1769.33651078,39779476.4049,68946107.9529,4603.6343301,4593.72328843,0.0
1.16272902247,0.840045822312,9.87517057853e-06,-2377245.52595,2.53174881121e-05,0.0,5512585.90724,685.673398024,654.815342909,66130507.5075,1840.50859939,48741783.6732,68257745.5402,4826.48817227,4816.76234119,0.0
1.05914135484,0.972576165197,9.95391553301e-06,-39535848.8,1.45408510055e-05,0.0,5826639.73374,679.299577056,648.083643668,66998498.9516,1706.26095204,34803521.6142,69805889.7006,4396.49576394,4388.14678243,0.0
1.22105010684,1.03110059637,1.02112830151e-05,13335823.6607,2.49463911406e-05,0.0,14587158.4183,688.958976962,658.426614322,65163378.4295,1906.4208461,58687703.0078,66509063.5837,5068.57899349,5056.70870399,0.0
1.05830471811,0.845085959447,1.0046339264e-05,-39523906.1423,1.58397018048e-05,0.0,5817532.82154,679.230578234,648.027489186,66970565.5641,1705.25161609,34777841.6755,69738034.2631,4393.02288487,4384.68692115,0.0
1.22137474764,0.995979073726,1.05333327448e-05,13902123.4681,2.61078258365e-05,0.0,15141253.6194,688.822516127,658.44464005,65067969.9657,1906.30062006,59071027.1596,66366651.8904,5069.92657745,5058.06006257,0.0
1.16584154425,1.08883275341,1.01647324519e-05,287039.180909,1.96276358206e-05,0.0,5439478.24632,685.526185563,654.970484839,65860097.0183,1840.11786762,50021820.3083,67597605.9351,4839.40825018,4828.45796236,0.0
1.07339913299,1.07895214997,1.00891658272e-05,-31707026.7911,1.42428823144e-05,0.0,5793101.32957,679.856854681,648.941659734,66914591.0769,1724.79135609,35140907.3904,69557148.6474,4455.67980104,4447.10946749,0.0
1.00372101593,1.1483482474,1.02491308101e-05,-91529848.9757,1.24324140935e-05,0.0,5899470.96257,677.754939798,644.559222269,67123485.7811,1629.96430863,66876211.4614,70726421.0938,4166.44593713,4158.15998618,0.0
1.16642967772,1.03944221492,9.44008682968e-06,-1718860.01241,2.09169968891e-05,0.0,5506656.21016,686.074278368,655.042120347,66108654.1672,1843.61746163,49309512.2629,68072223.6512,4841.84959222,4831.52415467,0.0
1.11003620741,0.934494647708,1.00627814196e-05,-17460514.1805,1.83384875555e-05,0.0,5636768.4325,682.268743823,651.402957209,66453739.3107,1770.82243634,40040603.1098,69000340.6641,4607.76029696,4597.92932473,0.0
1.05970353736,1.03659265163,1.04719134593e-05,-36975692.5257,1.42400194514e-05,0.0,5822443.01183,678.902300101,648.125588343,66986816.622,1707.76888705,34610311.6005,69954226.7456,4398.82938358,4390.7529916,0.0
1.19449319515,1.04445994056,9.6951360833e-06,5992875.33465,2.19564683583e-05,0.0,7569257.66329,687.630369903,656.748760546,65549711.5982,1875.13722127,53354912.5253,66809422.7104,4958.34125307,4946.63839046,0.0
1.22788149936,1.12746590005,9.59936104843e-06,14185274.2206,2.26597178001e-05,0.0,15589323.0859,689.646807426,658.874552601,65238362.6613,1915.14934713,59450060.4566,66727954.664,5096.93610384,5085.01719202,0.0
1.11552394548,0.848097005165,1.00529347306e-05,-15821154.8502,2.01002659141e-05,0.0,5656372.15598,682.536796306,651.713537875,66528778.154,1779.81696677,40854460.467,69371085.5097,4630.53989769,4621.30563531,0.0
1.15836696248,0.809927076369,9.53671080549e-06,-2535823.60676,2.30292614189e-05,0.0,5501036.30964,685.544839217,654.489746406,66066489.188,1832.77540957,48972598.0903,68403886.0753,4808.38126125,4797.95374434,0.0
1.18015671538,0.612009959439,9.91188129981e-06,3411654.55468,3.0747199907e-05,0.0,5543346.6797,686.953389428,655.843581524,65544725.1493,1859.13330245,51734982.1758,66806726.1993,4898.83052554,4887.70032816,0.0
1.00508768892,1.14631759302,9.82936172274e-06,-91698761.167,1.20061061639e-05,0.0,5987435.93848,677.99119033,644.671894387,67394020.466,1635.14810853,67022435.9124,70973039.0726,4172.11899671,4165.13771195,0.0
1.05447625317,0.984288840578,1.05275019418e-05,-38785835.157,1.44727530687e-05,0.0,5815823.64758,678.588550786,647.779652515,66955410.167,1699.92410514,34670147.6778,69671157.8359,4377.13092691,4368.8561661,0.0
1.10950065362,1.03756788411,1.00659918892e-05,-17613144.51,1.69867242345e-05,0.0,5647103.87787,682.186225867,651.372090085,66485126.1041,1770.02118062,39867422.8968,68998692.9308,4605.53721318,4595.71451511,0.0
1.15746176639,0.979702918286,9.65801616202e-06,-3261799.93706,2.02595002852e-05,0.0,5488996.03178,685.236955359,654.330024514,66028829.1578,1830.51629946,48430148.8808,68009419.6438,4804.62379228,4793.79623314,0.0
1.06578688306,1.09867520085,9.79745491372e-06,-36641408.6163,1.33770383273e-05,0.0,5789000.72803,679.733528961,648.501525746,66883864.8168,1712.76373233,34763592.8269,70182128.8834,4424.08135158,4414.89455914,0.0
1.00724613029,0.966234907875,9.94550727587e-06,-87889037.3643,1.35334011851e-05,0.0,5968716.09122,677.796172833,644.805688052,67341839.1313,1638.18732989,63755923.5632,70903417.4835,4181.07868683,4174.06707422,0.0
1.03778475347,0.823981872583,1.01899953467e-05,-53389488.1242,1.5279014744e-05,0.0,5835739.01491,678.213220527,646.709760381,67001398.6584,1677.17154185,39022757.4389,70942278.2187,4307.84451165,4299.43369655,0.0
1.08453127174,0.687670835473,9.91902755998e-06,-28153376.9138,1.98106657517e-05,0.0,5749819.82409,681.009535523,649.828788916,66794827.3447,1740.40028951,35799545.517,69271438.3867,4501.88930899,4493.33611695,0.0
1.2106172043,1.04662978778,1.01764953899e-05,11045244.3559,2.37711178041e-05,0.0,12304542.8513,688.277339532,657.718720606,65251896.1421,1893.72716652,56780629.0871,66334976.0015,5025.27201505,5013.37867151,0.0
0.997865778314,0.943735494104,1.00836768267e-05,-95473851.3421,1.40735849108e-05,0.0,5906244.2442,678.514232994,644.187629519,67130588.2015,1622.09611093,70329708.4049,70728900.3183,4142.14084578,4133.86716185,0.0
1.12268654407,1.0366445559,1.01670960096e-05,-13512780.6217,1.82026972188e-05,0.0,5613977.37217,682.857594563,652.178587289,66405291.9416,1787.68911122,42304321.9002,67940122.2435,4660.27184443,4650.52025547,0.0
1.08181962245,0.922262648421,9.59368574774e-06,-30233961.8296,1.62361199865e-05,0.0,5791683.35774,680.771053979,649.508695286,66925283.1031,1736.64517225,35534798.4951,69427655.125,4490.63325279,4482.12225585,0.0
0.967740810404,1.00336494657,1.01862411098e-05,-94110822.0749,1.3786722579e-05,0.0,6026050.48689,683.213297665,642.268483854,67470488.6305,1613.83148657,69129325.2304,69357688.3182,4017.09210399,4010.3261197,0.0
1.05219352873,1.23134666787,9.94926414854e-06,-44297435.2739,1.21446110435e-05,0.0,5829783.4127,678.898493414,647.640121026,67000368.024,1695.37601424,35679948.0207,70575211.3522,4367.65533776,4358.89209657,0.0
1.0734972776,1.11618118585,1.02542318752e-05,-31414830.8795,1.40460231263e-05,0.0,5788660.2251,679.918058496,649.078624101,66908061.7032,1725.22799369,35172861.2174,69399336.6006,4456.08719932,4447.60861655,0.0
1.12656608739,1.08656560672,9.82826037112e-06,-13096126.0236,1.75767181513e-05,0.0,5641361.40255,683.286643519,652.443965111,66490210.5572,1793.48584826,42490102.5132,68181463.9546,4676.37582876,4666.86067147,0.0
1.206059906,0.903472693954,9.7642104527e-06,9101933.43482,2.54728205374e-05,0.0,10489614.4298,688.333631306,657.479034091,65458100.5993,1890.36875866,55384731.9179,66893922.6219,5006.35466981,4994.97665923,0.0
1.13242658023,0.940542411533,9.75558885964e-06,-11487144.4201,2.01112256171e-05,0.0,5597071.67627,683.810204491,652.831847652,66356059.8628,1800.61712725,43553651.1517,67510126.7738,4700.70273453,4690.86172577,0.0
1.04995890929,0.986963628427,1.03343266035e-05,-44847748.3513,1.45041916601e-05,0.0,5801489.69009,678.622404395,647.495584714,66918931.8224,1692.71551944,35715084.2713,70353953.3466,4358.37943246,4349.59523769,0.0
0.951445711498,0.956042067273,1.01930416752e-05,-93441997.3162,1.38217229926e-05,0.0,6062905.85225,685.406019097,641.219266918,67552872.8868,1609.32165618,68540590.9793,68760460.4986,3949.45114843,3942.91355589,0.0
1.12210377273,0.866868438776,9.96140187864e-06,-14108532.3455,2.03846309129e-05,0.0,5587256.41654,683.085649045,652.124012382,66314778.2334,1786.27812565,41748034.121,68122614.2063,4657.8527606,4647.71643327,0.0
1.07548461465,0.763751549937,1.01634860716e-05,-31924717.9965,1.8388949278e-05,0.0,5777417.77505,680.245733718,649.21934952,66880408.5066,1729.06799318,34988912.8692,69430952.2632,4464.33663541,4456.1163494,0.0
1.22885063885,1.1007220722,9.59978682125e-06,14276859.1831,2.35270107875e-05,0.0,15698609.6435,689.779312964,658.925520084,65098802.0553,1915.32995928,59514160.218,66658287.0947,5100.95900187,5088.59922384,0.0
0.919474470503,0.924731446111,9.9588299995e-06,-92029027.8984,1.39450968116e-05,0.0,6109821.39141,690.422113494,639.1513893,67630250.1212,1601.93288645,67296842.6196,67630250.1212,3816.73852706,3810.05529442,0.0
1.10517727892,0.772846527933,9.9194855349e-06,-21144874.6524,2.03507077138e-05,0.0,5697495.59529,682.176135036,651.150465931,66650953.8303,1767.46252813,37870854.2999,68641960.6049,4587.5908848,4578.71352009,0.0
1.14423546717,0.807380689267,9.97964248856e-06,-8441478.03562,2.35626828018e-05,0.0,5526263.43315,684.341703651,653.441062073,66150563.5152,1815.68712797,45243853.8655,68313989.6446,4749.72142422,4739.57855931,0.0
1.04919176594,0.866132383829,1.00661001459e-05,-45234447.1046,1.54193122042e-05,0.0,5810245.31389,678.8042131,647.452415092,66936753.0279,1691.661387,35859376.8422,70466657.0593,4355.19502042,4346.48067245,0.0
1.14914907939,1.00087906113,9.76244285064e-06,-7442026.34601,2.06996856252e-05,0.0,5550601.90009,684.76354854,653.869141139,66235357.0824,1822.23575657,45812247.3425,68643554.1739,4770.11782855,4760.09606826,0.0
1.19250116857,1.12944939483,9.71783014669e-06,5547913.46987,2.04175504712e-05,0.0,7145117.97669,687.423611957,656.614319717,65602495.0816,1872.59025774,53105228.4535,66893133.0737,4950.07235073,4938.40637237,0.0
1.00309727992,0.839475976576,1.0066201889e-05,-93885861.8326,1.49789703257e-05,0.0,5887909.44091,678.164614094,644.52261334,67082103.6772,1629.13091695,68941285.0492,70707168.9594,4163.85680895,4155.49945343,0.0
1.11668985871,0.816151498152,1.04661390978e-05,-14810051.0755,2.09623489061e-05,0.0,5606916.24771,682.398572995,651.785368754,66367804.1496,1780.58010192,41236476.5309,68628143.3107,4635.37960351,4625.82659635,0.0
1.09240083138,0.833849960579,1.00734938659e-05,-25016526.0406,1.84735791936e-05,0.0,5731705.67045,681.218155294,650.268037732,66752946.42,1750.56166796,36462353.6656,69098246.3399,4534.55585106,4525.87971979,0.0
1.21851444424,1.00130812331,9.89154976145e-06,12352364.8016,2.48957167395e-05,0.0,13582379.7316,689.009886372,658.264033345,65217324.8182,1903.91050378,57905250.7202,66347117.2777,5058.05345804,5046.15786337,0.0
1.13984878754,0.817539629043,9.72863527555e-06,-9525206.65222,2.32330800728e-05,0.0,5609400.43595,684.281378154,653.331215036,66422666.3612,1812.15325293,44923596.8322,68084205.2434,4731.51231708,4722.27823753,0.0
0.951040471781,0.675927054622,9.69105452445e-06,-93573934.5175,1.63096196493e-05,0.0,6086429.33243,686.840529079,641.200962221,67621562.5888,1614.74181394,68656685.7094,68876778.1773,3947.76899836,3941.52323376,0.0
1.04488852475,0.748674949312,9.67531313486e-06,-50705228.4315,1.62845793465e-05,0.0,5870000.70366,678.904808701,647.203074009,67117872.6745,1688.20541127,37905523.9613,71180141.9735,4337.33226624,4329.59868081,0.0
1.09494318061,0.668754320903,1.02140800677e-05,-23674592.7698,2.14211929052e-05,0.0,5704451.94735,681.392419551,650.467846844,66661706.4708,1754.04462278,36809995.4008,68873472.2762,4545.10914271,4536.39221583,0.0
1.02096369698,0.858567720905,1.04110752106e-05,-67952386.4552,1.48481561789e-05,0.0,5855191.28363,677.480463704,645.654876106,67038454.0668,1654.2186884,47959834.3288,70658715.6528,4238.02030616,4229.78995953,0.0
1.13323532802,0.933447110043,9.54159466256e-06,-11862691.7431,2.00664772562e-05,0.0,5570453.05421,684.055108698,652.875701841,66286175.8138,1800.59232602,43202733.9669,67488776.9878,4704.05984661,4693.70495143,0.0
0.975582300296,0.840376659345,9.77587836475e-06,-94788657.209,1.49683959075e-05,0.0,6032997.68355,682.426786149,642.78041952,67486248.6343,1615.11919572,69725995.7528,69962252.8626,4049.64212853,4042.98724104,0.0
1.10312413226,0.978706786548,9.69733316697e-06,-20729444.0546,1.68606424187e-05,0.0,5704099.13263,682.103075418,651.020831931,66659676.7123,1763.00649169,38484177.8157,68575188.9298,4579.06827301,4569.73995151,0.0
1.17236379602,0.942810507224,1.01600195658e-05,1752457.95478,2.26952011251e-05,0.0,5394007.92793,686.030696319,655.361810469,65727963.5136,1848.44408609,50676082.5747,66962919.379,4866.48211728,4855.38720485,0.0
1.11980220663,1.08659124785,1.05932691754e-05,-14150139.8332,1.79484243533e-05,0.0,5560911.64663,682.448561053,651.973542497,66229307.4976,1782.24653248,41670097.7181,68029508.7358,4648.29895972,4637.91208539,0.0
1.18418166345,0.798242550855,1.00858488613e-05,4828892.75226,2.65589652752e-05,0.0,6470455.98723,686.835175057,656.088794606,65668956.4396,1864.36723629,52591789.2131,66934214.5849,4915.53808498,4904.7658369,0.0
1.08165027064,0.982185562635,9.99180530542e-06,-29022818.5391,1.58388154125e-05,0.0,5775474.08166,680.65971549,649.639619588,66870078.1987,1736.38509169,35671737.3436,69322376.6078,4489.93027343,4481.42190887,0.0
1.10198472948,0.921539359037,1.01388674022e-05,-21848617.1286,1.82883096868e-05,0.0,5707388.56112,681.768554032,650.951348262,66682027.0966,1762.97469714,37618223.0971,68543783.4339,4574.33861207,4565.51179266,0.0
1.07083041526,1.0696472671,1.01783109988e-05,-32522612.6736,1.42469399786e-05,0.0,5795538.78769,679.671453012,648.794686285,66918208.6001,1721.42349342,35031778.6563,69629717.3288,4445.01705374,4436.48561788,0.0
1.05235411783,1.00628198549,9.6683530361e-06,-44609779.153,1.38394647336e-05,0.0,5831193.24667,679.206322962,647.657932403,66999192.8238,1695.82041186,35767505.1075,70657838.6347,4368.32194311,4359.55439743,0.0
1.15655795111,1.00590939748,9.39647923747e-06,-4761395.00716,2.08789020126e-05,0.0,5565518.2415,685.305355364,654.306716116,66307335.3003,1832.19517644,47866166.3978,68841694.1143,4800.87205506,4791.03303342,0.0
1.02932530515,1.01231246773,1.00521600531e-05,-62035163.2858,1.36002900463e-05,0.0,5862626.34632,677.992282386,646.194007283,67071373.212,1665.45632204,43958632.5995,71029546.3518,4272.72934168,4264.36543209,0.0
1.08794767673,1.04766388818,9.45265896848e-06,-28020158.3115,1.49879078201e-05,0.0,5783520.38866,681.370156655,650.050414092,66901361.1001,1744.37087733,36066734.3993,69511248.8359,4516.07080611,4507.36692713,0.0
1.11278628535,0.887468686362,1.00698718887e-05,-16601188.5465,1.92010915103e-05,0.0,5622701.69397,682.427903239,651.552861693,66415803.7114,1774.41112529,40387594.4293,69175860.6154,4619.17587049,4609.29834775,0.0
1.07309333614,0.708571831336,1.00654086755e-05,-31805630.437,1.85769510343e-05,0.0,5769670.19553,680.012839182,648.921266417,66841321.2763,1724.6810244,35095198.9763,69521035.7516,4454.41043832,4445.84491496,0.0
1.10295010903,0.908309881193,1.02029959378e-05,-21382063.8581,1.85871701044e-05,0.0,5700438.59627,681.787268154,651.005748142,66662678.0907,1764.23823929,37769624.1147,68596622.3465,4578.34590258,4569.50384579,0.0
1.12658461632,0.9526237412,1.00037816636e-05,-13249553.7066,2.016352262e-05,0.0,5651454.16242,683.21100457,652.457923261,66538619.1205,1795.05067512,42490408.9874,68232720.8458,4676.45274234,4667.45242249,0.0
1.12281045176,0.892252360988,9.80158736573e-06,-14131571.4672,1.99188005216e-05,0.0,5642523.68405,683.145531615,652.184620734,66502174.6507,1788.99901822,41802713.9133,68804983.0914,4660.78618526,4651.33373347,0.0
1.17230542524,0.884170515576,9.72660919384e-06,1312529.30063,2.32253642318e-05,0.0,5452020.80834,686.27630193,655.393295237,65925322.821,1850.05470932,50858710.1052,67665512.6258,4866.23982017,4855.67387149,0.0
1.0802497967,0.755634534376,9.63705126945e-06,-30720403.1897,1.82424836648e-05,0.0,5782663.64912,680.721155471,649.404704,66895621.5885,1734.71930022,35409406.9382,69368447.2606,4484.1169061,4475.63029758,0.0
1.18250071801,1.05568238212,9.8175086958e-06,4352935.21217,2.08030198029e-05,0.0,6145003.3511,686.702618592,655.9986062,65824278.3928,1861.69485851,52509201.0477,67146710.1836,4908.56048046,4897.72837507,0.0
1.11527878333,0.973131422966,9.94588837784e-06,-16165913.0764,1.83849055449e-05,0.0,5672061.0765,682.550239275,651.712319693,66574520.2126,1779.41016202,40722252.3138,69360149.6495,4629.5222296,4620.29193951,0.0
1.13959594859,0.836733836106,1.05585229959e-05,-8440765.24763,2.32625000805e-05,0.0,5517840.90468,683.628201861,653.133173982,66089549.8848,1809.50958275,44865867.2694,68151534.8734,4730.4627826,4720.42338479,0.0
1.08172790808,1.08248980284,9.80121711855e-06,-29655176.7673,1.4524268578e-05,0.0,5790284.37382,680.739327313,649.633065118,66924239.9052,1736.3962295,35643012.1104,69405757.4957,4490.25254644,4481.74297514,0.0
1.07753966612,0.885106418807,1.01119281927e-05,-31268459.9637,1.69610048118e-05,0.0,5782075.86518,680.35873548,649.359847517,66897022.0828,1731.6680977,35133886.5012,69242216.1899,4472.86715406,4464.61394883,0.0
1.2185504411,1.2153652326,1.02377688071e-05,12824411.3361,2.14959637636e-05,0.0,14063495.8249,688.656228589,658.265148222,65236999.7818,1903.13565514,58264076.6748,66515264.3545,5058.20288101,5046.35775524,0.0
1.1556030523,1.01623510911,1.07243132528e-05,-2562757.3392,2.06931263204e-05,0.0,5454547.53088,684.627553984,654.333709199,65880812.3103,1828.18025951,47781789.1114,67585382.9455,4796.9082701,4786.332284,0.0
1.07139733531,1.12856693081,1.01081484972e-05,-33897941.2079,1.3849893934e-05,0.0,5816694.42353,679.757483099,648.85303172,66991906.4026,1723.46849159,34818812.0375,69831636.3259,4447.37033887,4439.21049731,0.0
1.20515172055,0.848219379006,9.7422349593e-06,9888496.29106,2.66894892207e-05,0.0,11256461.8835,688.290722767,657.422442373,65495621.7946,1889.50107844,56028473.717,66998150.6332,5002.584792,4991.42594614,0.0
1.01557556004,0.742532994865,1.02974112062e-05,-75825585.7942,1.5555008856e-05,0.0,5919558.06543,677.447783696,645.329364794,67224294.511,1649.41566159,53856637.9699,70615845.7861,4215.65414973,4208.52525323,0.0
1.11195954597,0.872603489953,9.76963197496e-06,-17397087.8979,1.89291703089e-05,0.0,5640863.29734,682.611749568,651.52977844,66476678.1261,1773.53274992,40068508.3107,69073888.1431,4615.74407532,4605.88004874,0.0
1.00857170836,0.824068836368,1.00087268047e-05,-87223418.3768,1.52186733011e-05,0.0,5875666.70969,677.995449358,644.867910527,67052085.0868,1636.4272176,63193444.2618,70751331.738,4186.5811614,4178.13306127,0.0
1.16195307058,0.845933271583,9.63120428077e-06,-2628923.29967,2.43906676463e-05,0.0,5498797.81252,685.810620139,654.763900742,66090382.6573,1838.4737223,48663467.3165,68138960.99,4823.26719598,4813.125312,0.0
1.06393475527,0.799126786754,9.7102977945e-06,-38241663.7435,1.65565721291e-05,0.0,5813369.20443,679.814476484,648.397671933,66962191.9094,1712.71764826,34725443.7464,70072511.9199,4416.39316913,4407.9694436,0.0
0.930651644292,0.800876399642,9.74953430065e-06,-92464202.8869,1.53170259161e-05,0.0,6067588.06568,689.881812878,639.867995082,67514348.1624,1607.92990507,67680018.7548,67887817.0341,3863.13497546,3855.99445642,0.0
0.890583446589,0.677211753117,9.96099474221e-06,-90792811.0344,1.47104624315e-05,0.0,6154287.28894,693.618172672,637.287504922,67722519.2147,1590.08693423,66208804.758,67722519.2147,3696.81188679,3690.3013414,0.0
1.1693849076,0.762501940735,9.91069784612e-06,-317173.121184,2.77838057064e-05,0.0,5476601.19618,686.099083932,655.227579242,66026755.1784,1848.8814505,49790245.4559,69230481.8469,4854.11675145,4844.28183308,0.0
1.05298804779,0.893990280497,9.84491367024e-06,-45367781.4616,1.53640233009e-05,0.0,5803481.32474,679.20029286,647.69367084,66920454.5745,1696.48471513,35905109.2528,70481798.5542,4370.95338638,4362.0290803,0.0
1.09709352671,0.787540566081,1.02482586486e-05,-22957022.5455,1.97030358175e-05,0.0,5706395.49118,681.459885488,650.630164591,66671583.0573,1756.71626209,37076219.4987,68752319.0497,4554.03522937,4545.28544699,0.0
1.13852081408,1.07335729201,9.96975023692e-06,-8863180.28317,1.88210851381e-05,0.0,5564052.42231,683.964978407,653.212349941,66265100.5361,1807.438315,45267436.9155,68124648.3597,4725.99989925,4715.85729991,0.0
1.16664231084,0.912264717899,1.06254615136e-05,1446607.81937,2.32079590666e-05,0.0,5405624.98733,685.3798437,655.003258041,65713313.8157,1841.50647017,50321745.4269,67226599.7655,4842.7322323,4831.96239251,0.0
1.19772165,0.871318155692,9.94958972396e-06,7836119.49016,2.56777873795e-05,0.0,9284451.34004,687.779111458,656.9838378,65469602.1723,1879.75253133,54459059.2228,66609134.3115,4971.74256915,4960.40990394,0.0
1.21738745486,0.919174678622,9.89390270958e-06,12153931.5978,2.63505131736e-05,0.0,13406191.1161,688.981087892,658.185483326,65219679.0889,1902.91665843,57734339.8096,66290770.2008,5053.37532512,5041.56983181,0.0
1.04953086665,1.08144941387,1.02058642235e-05,-45681246.343,1.34620268933e-05,0.0,5814445.05285,678.664065202,647.470783108,66955139.6936,1692.05260072,36120397.4226,70469273.9281,4356.60262746,4347.82544029,0.0
1.0485090658,0.870018597066,9.53069999204e-06,-49068629.4833,1.53174822909e-05,0.0,5825003.99564,679.253703607,647.417073668,66980834.5692,1690.48461951,37226309.6593,70957528.8491,4352.36113214,4343.51081451,0.0
1.12834299061,0.84319906483,9.96977603311e-06,-12347937.8984,2.12933079314e-05,0.0,5588930.1219,683.362089263,652.478445049,66334505.0149,1795.20297338,42983485.2033,67255312.8845,4683.75175402,4673.90466312,0.0
1.00803511331,1.14337445175,9.7183131667e-06,-89510829.5392,1.20754987805e-05,0.0,5984723.83148,678.057429151,644.861775213,67388745.33,1639.09366756,65174906.7615,71151178.2523,4184.35375535,4177.33104285,0.0
1.02650912341,0.912528098665,9.99906522235e-06,-63455978.7717,1.44080887548e-05,0.0,5908700.29963,677.888012383,646.022657275,67213372.6774,1663.65528099,44897563.4779,70844688.4554,4261.03937127,4253.66456679,0.0
1.05905794398,1.01511329518,1.01825233709e-05,-38648771.1603,1.41740260135e-05,0.0,5820727.18124,679.105876499,648.079914657,66983815.4152,1706.15405441,34698349.8073,69859994.9364,4396.14952546,4387.80184217,0.0
1.17881905082,1.03941330589,1.02095287566e-05,3352056.22331,2.14288825083e-05,0.0,5403469.79749,686.306267815,655.749638524,65699348.2149,1856.39999423,51575548.9435,66955873.8968,4893.27787995,4882.17169493,0.0
1.12869609325,1.11999000381,9.80830348797e-06,-10901050.2342,1.61771543706e-05,0.0,5600862.19047,683.406482525,652.570824065,66339439.9052,1794.04066061,43737759.9777,67576132.6027,4685.21748308,4674.93532194,0.0
1.03631081436,1.06186027416,9.98473018712e-06,-56057020.6429,1.32238956982e-05,0.0,5898995.90845,678.187286554,646.652651513,67200947.3161,1677.07093203,40479438.2488,71059769.4766,4301.72619041,4294.30074505,0.0
1.19352231252,0.897383476077,1.06388128033e-05,8013091.35775,2.57913705641e-05,0.0,9371567.46538,687.092155784,656.693990119,65338207.1977,1873.57928488,54231401.691,66416660.8214,4954.31111927,4942.93947652,0.0
1.19850298481,0.858575571724,9.90247683137e-06,7866021.56677,2.59562760786e-05,0.0,9314685.77754,687.867050747,657.032805934,65473035.009,1880.81938249,54501628.5099,66621893.456,4974.98588995,4963.64367056,0.0
1.01556050362,0.817089364166,1.02550214451e-05,-76304719.0632,1.49753554928e-05,0.0,5925140.18506,677.478765436,645.338099169,67240540.6039,1649.33551995,54234252.9099,70653537.454,4215.59165053,4208.46296727,0.0
1.13831023921,1.04825835384,9.65747603156e-06,-10513565.3037,1.89142548211e-05,0.0,5612907.98965,684.162576027,653.223409794,66420629.7267,1809.00596769,44168032.0318,67887301.2328,4725.12580296,4715.49495323,0.0
1.1469895755,0.991616092899,9.95673993626e-06,-8143455.52377,2.12976604221e-05,0.0,5589089.26549,684.44714921,653.722884582,66360022.0078,1821.23636202,45423452.4807,68486480.2496,4761.1537279,4751.80280513,0.0
1.21269159559,1.17200044416,9.83105196303e-06,10971453.8886,2.12910065932e-05,0.0,12286556.6198,688.503574242,657.843092738,65329558.7407,1896.45167092,56858407.2538,66569181.253,5033.88281329,5021.94408405,0.0
1.16596049303,0.961999841941,1.0400509188e-05,870876.254003,2.20847132482e-05,0.0,5417455.90964,685.467946454,654.978533772,65771205.0925,1840.46966702,50150957.0395,67362330.11,4839.90200657,4829.03603282,0.0
1.06084534129,0.948979471866,9.79027635926e-06,-39384632.4514,1.47939911849e-05,0.0,5827411.60644,679.528346668,648.198253899,67000918.7835,1708.50935544,34789156.1759,69898404.3456,4403.56901169,4395.19349098,0.0
1.11022979071,0.83994980587,9.8698416755e-06,-17636994.5642,1.94203115994e-05,0.0,5631207.8499,682.473382561,651.419042166,66442252.0964,1770.99857891,39950474.1109,68973175.591,4608.56386124,4598.63233779,0.0
1.11489414299,0.928121667368,1.01035372319e-05,-15883463.4779,1.89045345372e-05,0.0,5642583.71863,682.439219724,651.665172146,66485843.3872,1777.98685308,40788248.1489,69398676.8065,4627.92558755,4618.40283213,0.0
1.14256020558,0.925626970654,9.80328827516e-06,-7978242.98065,2.13210214044e-05,0.0,5521537.08851,684.390665658,653.427825206,66138230.0821,1812.06623201,45821215.4909,68338901.3236,4742.76741336,4732.25248298,0.0
1.06617913002,0.887440978108,1.0094668703e-05,-35685693.9104,1.58746213876e-05,0.0,5798771.83387,679.611469013,648.542628696,66917412.6896,1715.64595665,34653951.8169,70039551.4367,4425.70956871,4417.25075277,0.0
1.1905363645,0.72078954734,9.74437767973e-06,5672858.3525,2.84327702555e-05,0.0,7262736.99387,687.565909675,656.500507198,65549564.5436,1871.82092084,53232101.3628,66765203.2853,4941.91644904,4930.7146692,0.0
1.09247985557,1.15034750981,9.98747109122e-06,-25338926.2632,1.45960827248e-05,0.0,5757821.76403,681.142882586,650.273473341,66831892.6203,1750.40213597,36440366.2858,69232738.1699,4534.88388047,4526.20651103,0.0
1.30649625325,0.887799176108,9.99806412199e-06,28920065.1617,3.71307460329e-05,0.0,30430840.7115,694.74782401,663.825523576,63717256.4635,2002.75154618,69203052.0867,70389913.115,5423.26594724,5409.60644619,0.0
1.03748635249,0.781239794938,9.70177996153e-06,-56768330.5835,1.58779405179e-05,0.0,5892793.8019,678.586345139,646.735819405,67183189.1061,1678.73241584,40885447.5353,71081187.6579,4306.60584919,4299.16489444,0.0
1.20048369988,0.786147079115,9.74433777223e-06,8351982.49331,2.79426884849e-05,0.0,9845324.78799,688.204873342,657.139618558,65313615.5128,1882.43680087,54882049.5329,66581223.0721,4983.2078382,4971.36653272,0.0
1.0639913345,1.00480615607,9.7281436268e-06,-38191073.4984,1.43297722847e-05,0.0,5825770.22997,679.719422285,648.40116278,67000583.0846,1712.6439983,34738439.8147,70115799.7396,4416.62802951,4408.20342011,0.0
1.01610894709,0.920633608421,9.35966997211e-06,-79434847.572,1.4263339683e-05,0.0,5914443.8731,678.619422719,645.362620122,67184642.0371,1647.6252605,56701892.138,70963234.7766,4217.86823937,4209.71453244,0.0
0.959303616085,0.683454609268,9.91317694651e-06,-93856842.3975,1.62749660707e-05,0.0,6057415.59981,685.131488778,641.731645893,67551601.0934,1614.82544126,68905817.3264,69129655.1424,3982.06931037,3975.71263864,0.0
1.03250076507,0.986595400902,9.6791517686e-06,-60267876.7565,1.38184768705e-05,0.0,5916332.71759,678.362797158,646.421620226,67245195.3406,1671.95562876,42946916.3823,71083032.0932,4285.91067581,4278.54005417,0.0
1.05527890285,0.809754902188,1.02024563633e-05,-41542524.653,1.62859778772e-05,0.0,5801032.0674,678.98793615,647.812770621,66922289.9913,1700.67368119,35077198.6423,69872347.1894,4380.46272573,4371.92002444,0.0
0.970585984715,0.822087314438,9.62929556133e-06,-94545035.4284,1.49768889578e-05,0.0,6054467.99995,683.720657706,642.461178575,67545122.7637,1616.85868437,69511539.2198,69743972.8032,4028.90242255,4022.37160471,0.0
1.0664779882,0.958983471201,1.01413583911e-05,-35370659.1827,1.51466953211e-05,0.0,5800556.83677,679.566469461,648.562831112,66924797.994,1715.98659945,34668602.1652,69997003.1903,4426.95012902,4418.48663598,0.0
1.05394047913,0.753089073095,9.76352749944e-06,-45228313.9469,1.69127155358e-05,0.0,5794072.41972,679.377238941,647.753528867,66891764.6963,1697.84331085,35870140.2938,70471244.2211,4374.90692887,4365.96685778,0.0
1.24231980005,1.21464567621,1.02226622392e-05,18182424.9868,2.36994709342e-05,0.0,19839441.1696,690.132824107,659.74019898,64984898.5618,1930.89284266,62674794.2272,66753941.1196,5156.86949001,5144.83492023,0.0
1.11513600901,0.921371402703,9.73218210635e-06,-18614084.5059,1.89981378838e-05,0.0,5681389.07759,682.779623401,651.742650465,66625441.6944,1779.82700018,39407016.0632,69109906.9309,4628.9295734,4619.79226418,0.0
1.03828927476,1.08132908027,9.81049339508e-06,-55735758.3177,1.3073463268e-05,0.0,5901862.23684,678.400630013,646.769097188,67211089.6318,1679.6610276,40330814.9927,71170296.5113,4309.93877953,4302.48606689,0.0
1.21365121392,0.675141633976,9.72409609775e-06,11568125.2527,3.21500808689e-05,0.0,12846971.1693,689.04556245,657.921337306,65165774.9619,1899.24455964,57214769.4541,66271017.5081,5037.86618898,5026.15710574,0.0
1.13173250783,0.725368346847,1.01197013759e-05,-11384024.7033,2.37966408301e-05,0.0,5557132.64775,683.585815319,652.711597974,66227824.1536,1799.82746722,43402179.7638,67442437.6052,4697.82164,4687.91673204,0.0
1.14280536566,0.684985564974,9.61926459624e-06,-9328900.12209,2.55464452765e-05,0.0,5562322.38091,684.665743812,653.497961147,66273469.25,1815.22732377,44983328.079,68104532.5074,4743.78507285,4734.07838648,0.0
1.06506626304,0.797056343567,9.94959801298e-06,-36758950.6428,1.67577039885e-05,0.0,5801402.43836,679.695563023,648.470685045,66931852.7426,1714.26190312,34673572.8559,70134520.4037,4421.09005788,4412.64864888,0.0
1.2056195934,0.966552069537,9.86916601727e-06,9795789.25935,2.45760637989e-05,0.0,11138388.2494,688.225800624,657.415194641,65300898.0942,1887.94902623,55848200.6317,66900797.7818,5004.5269322,4992.59150257,0.0
1.06559810316,0.896652026958,9.64091365723e-06,-37769560.5612,1.55223151535e-05,0.0,5818217.87822,679.915882849,648.505401767,66978821.8816,1714.84090684,34720033.2463,70179416.503,4423.29772622,4414.84800025,0.0
0.980095689816,1.03321363195,9.85118313474e-06,-94890751.2453,1.31446680604e-05,0.0,6014945.20473,681.561677996,643.065700231,67435897.9612,1614.71798859,69815849.7067,70054834.101,4068.37720843,4061.32227238,0.0
1.16015431765,0.724517851343,1.02363154332e-05,-1303112.88882,2.58214789704e-05,0.0,5419089.71668,685.407840864,654.621019632,65798975.0618,1834.14842919,49022315.2979,67596867.3768,4815.80057257,4805.04058501,0.0
1.04963873143,0.953299544573,1.04572793596e-05,-43098064.2376,1.45721983112e-05,0.0,5809687.99555,678.46298439,647.470641677,66940718.5946,1692.83812012,35329544.3397,70308749.5384,4357.05037417,4348.50734439,0.0
1.13248949252,0.948854685013,9.77551477785e-06,-11667554.1337,2.00898305772e-05,0.0,5610519.33741,683.786103253,652.83965043,66400942.8146,1801.31683364,43455657.8952,67528289.6704,4700.96388345,4691.32566826,0.0
1.19403308188,0.836896480885,9.89041937024e-06,6409514.89631,2.63232132275e-05,0.0,7945763.15533,687.685382996,656.73459505,65392949.1715,1874.70317646,53456339.1418,66544230.2178,4956.43132288,4944.71042065,0.0
0.952294916263,0.9336568518,1.02885614049e-05,-93456234.8347,1.39045507392e-05,0.0,6056624.36904,684.98251405,641.273537665,67536492.298,1608.37230289,68553144.2939,68773541.6257,3952.97619741,3946.42678536,0.0
1.15548774441,1.15049677833,9.93385250559e-06,-4166017.78346,1.7914845214e-05,0.0,5490367.83304,684.991712609,654.288642389,66032588.0494,1827.47941466,47547350.0395,67943481.9022,4796.42962705,4785.54744689,0.0
1.11383764044,0.84998553437,9.88418922965e-06,-16503756.8711,1.96650205902e-05,0.0,5619043.79314,682.645524573,651.620603118,66411759.825,1775.65411779,40541561.5625,69190734.7959,4623.54004547,4613.5470863,0.0
1.14292327749,1.0894662805,9.9858743187e-06,-8050475.32215,1.81812596176e-05,0.0,5569783.27352,684.026052077,653.370587106,66268637.3452,1813.57387016,45518946.5058,68446673.5513,4744.27452486,4734.19459505,0.0
1.14234919351,0.973479158309,1.01476609188e-05,-8531422.71571,2.0844242239e-05,0.0,5542368.39001,683.995189591,653.322600801,66196253.7439,1813.02383455,45011518.4854,68274253.7987,4741.89150226,4731.78100466,0.0
1.24286359771,0.74388812309,1.01585700882e-05,18340542.4748,3.41943634947e-05,0.0,20009317.9359,690.664457289,659.758102602,64617838.7737,1931.41704425,62637614.8735,66016162.9427,5159.12679409,5146.62374773,0.0
0.985606065559,0.99518384537,1.02262572191e-05,-94930146.3169,1.36808768691e-05,0.0,5936851.3226,679.834953622,643.404347945,67205455.7284,1610.15797556,69850918.3378,70092152.4151,4091.25077814,4083.2543363,0.0
1.1673145468,0.990839865067,1.02780732455e-05,936417.644334,2.15385161889e-05,0.0,5415664.3346,685.614593974,655.06149996,65770445.698,1841.98301026,50221580.4588,67401440.4144,4845.52268377,4834.54601802,0.0
1.11920695956,0.935068491557,1.03343115063e-05,-14756762.0001,1.97802866129e-05,0.0,5560883.08768,682.663994365,651.934497494,66223058.9223,1781.76783652,41315057.1784,68377631.5779,4645.82808913,4635.45267364,0.0
0.931483977798,0.96684009477,9.74507868604e-06,-92523598.2359,1.42082542311e-05,0.0,6072756.40285,689.719831214,639.921485625,67533214.6187,1608.09665209,67732255.6881,67940407.6196,3866.58999184,3859.436792,0.0
1.11758779771,1.01487622213,9.7908187308e-06,-15694701.5717,1.76839049605e-05,0.0,5632628.27049,682.813536332,651.836002355,66447736.1512,1780.64512996,40998042.3993,69381401.4725,4639.10694829,4629.14628042,0.0
1.0240476849,0.967479856646,9.98539524667e-06,-66966660.3692,1.37871786406e-05,0.0,5924597.44079,677.816887759,645.86912697,67258452.5088,1660.75698545,47300369.9807,70938763.728,4250.82194002,4243.57233433,0.0
1.14659832616,0.815318975514,1.01009417508e-05,-7425429.30664,2.3832132637e-05,0.0,5512211.71529,684.407347545,653.614603613,66109250.1581,1818.59898618,45689262.1102,68492646.4063,4759.52965189,4749.34634514,0.0
1.10404333696,0.834104319435,1.06304165808e-05,-18443396.2272,1.97747954886e-05,0.0,5606295.64357,681.619532136,651.01994263,66351935.4576,1762.77399757,39349519.5643,68624830.3357,4582.88389172,4572.96578759,0.0
1.0596302241,1.07245855416,1.02799293905e-05,-38385062.4248,1.37404006986e-05,0.0,5822406.56346,679.045912872,648.117929398,66985607.9778,1707.16269275,34696111.4124,69876142.5857,4398.52506024,4390.26277624,0.0
1.17975743158,0.87072651019,9.7488361622e-06,2847101.33636,2.41065775891e-05,0.0,5369961.1806,686.792751976,655.819302114,65668434.982,1857.69735664,51527875.3587,66773511.7967,4897.17309849,4885.85284782,0.0
1.10455805189,1.20824960254,1.02112545592e-05,-19085080.4397,1.48002941621e-05,0.0,5650202.044,681.733679083,651.064340561,66492915.1222,1762.53659355,39220405.8338,68774013.3296,4585.0204734,4574.99818707,0.0
1.2397524586,0.682545175232,9.52478571497e-06,17160636.1828,3.40975746026e-05,0.0,18722192.3424,690.76962488,659.575751921,64865223.4083,1929.76521455,61823874.2848,66853178.2577,5146.21245565,5134.09923558,0.0
1.15196505195,0.895015503054,9.53928736118e-06,-5925931.09159,2.2374514204e-05,0.0,5547941.83951,685.132869184,654.082216747,66231225.4639,1826.03759286,47053876.5879,68871074.5374,4781.80693064,4771.83290828,0.0
1.09496867109,0.977995722455,1.0235902704e-05,-23882867.2926,1.72197105319e-05,0.0,5733035.85906,681.230318431,650.467014632,66757240.9961,1754.14405403,36765610.1429,68973395.5526,4545.21495369,4536.59733395,0.0
1.05199353339,1.01051584168,1.02220723421e-05,-43907180.4212,1.42771784497e-05,0.0,5851455.50213,678.687574594,647.629275136,67081513.5711,1697.83885031,35615386.163,70475000.7074,4366.8251571,4359.07963342,0.0
1.05079082338,0.80935880686,9.90930629932e-06,-45139683.6699,1.60503186126e-05,0.0,5808505.94506,679.034123948,647.556737765,66931322.9663,1693.80058478,35930851.1449,70501897.2083,4361.83270785,4353.0923279,0.0
1.0854414633,0.89499351489,1.03017537114e-05,-26865157.3511,1.7418400501e-05,0.0,5751239.6359,680.682524937,649.872533259,66797567.1593,1741.75435191,35980358.45,69190151.553,4505.66751416,4497.19753657,0.0
1.02129331688,0.915925036361,1.03420219809e-05,-70399352.0195,1.44006325707e-05,0.0,5836450.90148,677.535625316,645.668130404,66980299.0265,1653.23535393,49711206.5883,70508490.7845,4239.38855837,4230.64769195,0.0
1.20367264252,0.89669610329,1.02619565506e-05,10025582.8093,2.61052706464e-05,0.0,11424296.9482,687.861311269,657.284184438,65342197.7118,1886.23385732,56008805.4566,66923194.0257,4996.4451391,4984.99566135,0.0
1.21759020436,0.946118230655,9.89805978193e-06,12191149.7911,2.58507151356e-05,0.0,13437255.209,688.972673304,658.200069686,65227967.0676,1903.10261098,57760432.3348,66302857.7685,5054.2169383,5042.40771893,0.0
1.13518547669,1.15541098391,1.02826807294e-05,-10847847.2393,1.81994484447e-05,0.0,5626908.19279,683.501373698,653.030615183,66465887.1892,1805.93740634,43798345.1864,67888125.7948,4712.15491374,4703.01700416,0.0
1.12872010505,0.88566360861,9.95242821311e-06,-12285468.0183,2.06894045833e-05,0.0,5592265.76843,683.374751905,652.503708272,66344079.4099,1795.64585535,43037330.7631,67286533.5581,4685.31715606,4675.46368491,0.0
1.01449542982,1.00243825976,9.97437583239e-06,-78714646.1745,1.33287630415e-05,0.0,5951375.79853,677.702284882,645.274899698,67302140.7809,1647.96578339,56158007.4487,70925008.4541,4211.17052918,4204.05664677,0.0
0.991425944386,1.0248821393,9.60610267405e-06,-95374203.9026,1.36701483129e-05,0.0,5997062.01092,680.806412293,643.795546756,67401091.8121,1621.01312043,70241533.3552,70485595.4843,4115.40909515,4108.27354449,0.0
1.14335685132,0.99134246095,1.00850294988e-05,-7656385.46299,1.98333867203e-05,0.0,5550669.05726,684.145245583,653.466205633,66212292.952,1814.19887374,45688352.7694,68471703.3608,4746.07428983,4735.98544484,0.0
1.13074088507,0.879540293845,1.0106045362e-05,-11711708.816,2.11407145126e-05,0.0,5577832.34044,683.412439309,652.639024325,66289041.5846,1798.36654526,43250944.6339,67410060.9106,4693.70541393,4683.81731275,0.0
1.12545807339,1.14674817494,1.01015618684e-05,-13444917.392,1.73538326713e-05,0.0,5665678.45258,682.982324236,652.383553722,66584330.1531,1793.38939046,42397557.8243,68303944.673,4671.77646264,4662.79387205,0.0
1.14528605957,0.929923303821,9.84955022217e-06,-7854919.63672,2.20177484635e-05,0.0,5594493.30902,684.417154934,653.615654436,66389764.6208,1818.9315629,45874346.6787,68455888.6078,4754.08243328,4744.76166263,0.0
1.1025645628,0.94424092179,1.02416733255e-05,-21413162.2655,1.81572401061e-05,0.0,5702539.42346,681.725253163,650.981891438,66669182.9935,1763.7010236,37767340.619,68583858.7874,4576.74550018,4567.90953007,0.0
1.22705385799,0.921308139361,9.97630647012e-06,14400405.9579,2.73295504411e-05,0.0,15805504.9472,689.5646725,658.813583081,65061586.6116,1913.80335084,59572304.014,66576007.3544,5093.50056452,5081.49152187,0.0
1.0246604938,0.941242049095,9.82997952474e-06,-67764804.3096,1.40264381961e-05,0.0,5928147.75539,678.006417072,645.919765825,67268115.4003,1661.56164636,47874750.4872,71043036.2093,4253.36570976,4246.10735967,0.0
1.12740230717,0.749240389993,9.70159192808e-06,-12949386.3492,2.25318224425e-05,0.0,5616408.30807,683.596011658,652.488179762,66425626.0731,1795.03477384,42490667.3039,68168316.6895,4679.84697706,4670.29294206,0.0
1.15908319939,0.814348403715,1.00512002289e-05,-3697988.01665,2.57572733385e-05,0.0,5408565.56332,685.53357092,654.554397385,65789108.3674,1832.66452059,47712845.8757,67936779.6724,4811.35436067,4800.30556406,0.0
1.21988862771,1.06164367651,1.01448228568e-05,12926339.3307,2.42545436976e-05,0.0,14130787.2025,688.922458911,658.344414435,65130374.0452,1904.58690234,58312197.6787,66436268.7156,5063.75769362,5051.68486885,0.0
1.04156733333,0.900369726024,1.02012872451e-05,-49787826.3123,1.49089687035e-05,0.0,5821671.08336,678.342047544,646.942182131,66961248.9633,1681.59965504,37472401.2372,70917046.536,4323.54600065,4314.89877574,0.0
1.09981156156,0.809487148114,1.03564730859e-05,-19923746.466,1.95393650023e-05,0.0,5630679.22315,681.582844965,650.780424484,66414834.9186,1757.1112708,38548277.2661,68419843.4738,4565.31779204,4555.4727696,0.0
1.02641509794,0.704352646774,9.84901830612e-06,-65326142.6828,1.61384514022e-05,0.0,5911675.96837,678.096431294,646.026030456,67222236.6892,1664.02653611,46175303.8953,70958469.2255,4260.64907155,4253.36565949,0.0
1.24277644877,1.19231794662,1.01072053028e-05,18192768.8895,2.38696337169e-05,0.0,19830892.8145,690.238540192,659.769855491,64980887.5973,1931.57567122,62675753.0061,66962613.2217,5158.76503884,5146.6931853,0.0
1.03363314612,1.07087808449,9.72943987599e-06,-59249531.009,1.30372880841e-05,0.0,5916256.80611,678.315995667,646.484513017,67246729.8598,1673.4287814,42334573.7191,71137101.0884,4290.61118954,4283.22429183,0.0
1.16750764255,0.974121322478,9.9171152245e-06,442295.49344,2.14959658959e-05,0.0,5461949.92121,685.823241734,655.087902829,65948463.6055,1843.55860588,50269917.2326,67713523.7013,4846.32422422,4835.73560544,0.0
1.0321219181,0.823970071531,9.7721055259e-06,-59972006.2575,1.5261875463e-05,0.0,5903096.73155,678.419467195,646.469305276,67205568.0216,1671.56492917,42764737.5282,71032038.2607,4284.33808203,4276.97290228,0.0
1.15697950362,0.675445333848,9.95011000205e-06,-2619552.53763,2.61517614486e-05,0.0,5433350.46171,685.44595429,654.430521144,65847177.3456,1830.24741291,48492609.272,67706494.226,4802.62191953,4791.82850983,0.0
1.10678338275,1.05798619722,9.6250808967e-06,-20048440.0156,1.63351835722e-05,0.0,5653135.00084,682.376098841,651.224745625,66501943.8899,1765.74690972,38874856.2307,68712959.16,4594.2578218,4584.10123154,0.0
1.12817630183,0.862167404208,1.02928636392e-05,-11962113.3252,2.13193900433e-05,0.0,5576453.95001,683.149489892,652.46979067,66284168.2451,1795.04317581,43007965.1864,67276330.8873,4683.0598289,4673.2151417,0.0
1.13202002201,1.02831930678,9.69333292169e-06,-11900905.5595,1.87911672002e-05,0.0,5623121.87877,683.761742267,652.806897604,66453458.1843,1800.65839051,43227009.5688,67504143.2235,4699.01511136,4689.38467714,0.0
1.25649963655,0.997738541969,9.58707119966e-06,20402179.838,2.82010186639e-05,0.0,22082327.7182,691.573581085,660.597850727,64636782.3697,1947.10888129,64353946.4145,65229308.8474,5215.72999132,5202.84532137,0.0
1.06440104577,0.855007824464,9.71436428283e-06,-38013648.7039,1.59500233496e-05,0.0,5815708.1747,679.811039498,648.42674449,66969951.499,1713.29919886,34719432.1667,70110104.1069,4418.32874099,4409.89773,0.0
1.11681172991,0.910326429334,1.0268467647e-05,-15294154.1248,1.93744444578e-05,0.0,5627449.33562,682.467202499,651.784257119,66428944.4859,1780.6484351,41027479.7878,68973654.069,4635.88549086,4626.33039452,0.0
0.947130551745,0.691686954716,9.80509690004e-06,-93270266.9246,1.62095814772e-05,0.0,6055634.02927,687.308905224,640.938428795,67512713.5286,1612.11172204,68389450.871,68606116.6727,3931.53892029,3924.75172689,0.0
1.01724678196,0.979744479165,9.77602181092e-06,-77293784.3315,1.3589369649e-05,0.0,5950948.62895,677.939972366,645.443109155,67316483.1221,1651.63629611,55028437.8295,70935866.722,4222.59139192,4215.43852914,0.0
1.12660603403,0.807275398032,9.74560998425e-06,-13372558.7251,2.14761815494e-05,0.0,5571862.01627,683.558126417,652.431768178,66270512.3048,1792.13209564,42237448.5354,67843845.0459,4676.54164726,4666.32683246,0.0
1.16088003061,1.31813605041,1.03350717267e-05,-907571.315626,1.64772575246e-05,0.0,5477055.16574,685.001989549,654.661655501,65959610.2149,1834.01679858,49256984.8979,67702829.3485,4818.81300706,4808.04169129,0.0
1.0968598029,0.72667094118,9.86847804568e-06,-23906040.4745,2.02774915975e-05,0.0,5720976.85636,681.704668312,650.579760039,66721131.7008,1756.65038692,36845903.8172,69094631.791,4553.06504184,4544.31882279,0.0
1.15448228599,0.759540810531,1.0017471884e-05,-4577058.50681,2.63628058921e-05,0.0,5533666.87297,685.050428548,654.255315568,66195627.4902,1830.55656892,47495011.2746,68549938.8162,4792.25596914,4782.73203188,0.0
1.12995477996,0.899671301419,1.01967541179e-05,-11739294.9574,2.08584381827e-05,0.0,5575551.49942,683.412959422,652.66773826,66283263.7107,1797.31274375,43192811.6385,67382951.0374,4690.44229161,4680.56750591,0.0
1.03757735072,0.814761630303,1.01845564456e-05,-53569224.1423,1.53552945918e-05,0.0,5835924.74807,678.208576605,646.69250613,67001315.2308,1676.90425397,39107241.4913,70971636.2649,4306.98358284,4298.57486443,0.0
1.17870949638,1.04061618428,1.00476652342e-05,3244295.99677,2.11504853617e-05,0.0,5380905.37191,686.407660693,655.744254345,65675938.406,1855.75471122,51615346.4098,66995611.4492,4892.82311947,4881.51031363,0.0
1.1294300001,0.980110599363,1.00732979837e-05,-11772450.6819,1.95812511886e-05,0.0,5589477.15918,683.334571144,652.59988229,66325901.9365,1796.21938541,43323242.3541,67454489.2705,4688.26393042,4678.4178935,0.0
1.13554653743,0.653006423366,9.74027837891e-06,-10781279.9176,2.54582107673e-05,0.0,5570024.46228,684.196006458,653.044920548,66280335.8949,1805.62574898,43935693.5419,67614641.426,4713.65367687,4703.96391333,0.0
1.04474129382,1.19548707123,9.81844695945e-06,-50580888.6433,1.23709003591e-05,0.0,5833080.80449,678.702845958,647.161397643,66999364.7469,1684.69546407,37652723.3531,71011296.1404,4336.72111065,4327.7597093,0.0
1.10151523943,1.00483340001,9.78898692807e-06,-21092933.11,1.66225321874e-05,0.0,5660633.981,681.985991026,650.897419265,66518046.135,1759.04330128,38275807.1389,68427909.6081,4572.38975887,4562.32713197,0.0
1.09042609766,1.18869724618,1.02774916149e-05,-25332939.0231,1.43818548659e-05,0.0,5758070.1306,680.81592848,650.143639445,66826040.7846,1748.04513598,36381680.7576,69178615.3779,4526.35873139,4517.81163814,0.0
1.16030277979,1.12668091895,9.57531358949e-06,-3864197.90411,1.92675533069e-05,0.0,5542925.03989,685.380576374,654.526809291,66225657.4502,1836.36650345,48056173.145,68500156.0507,4816.41683891,4806.30008209,0.0
0.936753388098,0.752529575521,9.95457029603e-06,-92966678.6504,1.49127096907e-05,0.0,6114824.00818,687.848684014,640.278834112,67684434.6225,1607.10989638,68122022.0052,68335013.4815,3888.46331399,3882.40756394,0.0
1.01692905401,0.975306012563,9.79143920688e-06,-77536426.7163,1.36184853948e-05,0.0,5950902.8813,677.920676393,645.423420316,67314197.257,1651.21309051,55224454.5567,70953658.332,4221.2725032,4214.12414654,0.0
0.989687592354,0.973532971564,9.8973153031e-06,-95196128.0161,1.38531016171e-05,0.0,5934413.98827,679.949218159,643.667246135,67203866.565,1612.80822599,70084987.9987,70329694.5038,4108.19319586,4100.05191205,0.0
1.10393424401,0.856129426264,1.03426708382e-05,-18726516.9126,1.92870268145e-05,0.0,5609981.85067,681.799982502,651.016953078,66365390.4264,1761.9075249,39328018.1883,68666327.3405,4582.43104689,4572.32605921,0.0
1.07495310707,1.08711776758,9.64650589989e-06,-33019409.6204,1.39869822618e-05,0.0,5818260.12304,680.282003442,649.070987169,66995342.5226,1727.50102542,34970787.6543,69977325.0909,4462.13034745,4453.72581482,0.0
1.0463449124,0.908732539212,9.98606698323e-06,-49684890.8886,1.50639417889e-05,0.0,5867520.9771,678.672291446,647.291661438,67121010.4953,1690.56895546,37478050.8257,70680933.0809,4343.37773137,4335.80853998,0.0
0.974467810556,1.19099804296,1.03178055761e-05,-94476160.9333,1.20738401673e-05,0.0,6029868.72849,681.726126913,642.704752101,67499407.5435,1614.23725097,69451136.5221,69683685.4827,4045.01588162,4038.45320406,0.0
1.08838340446,0.963524950842,1.04516782629e-05,-25411598.3755,1.69807218756e-05,0.0,5741113.03902,680.670550702,650.016342707,66773263.1326,1745.526247,36279365.3808,69068527.0266,4517.87951191,4509.36252051,0.0
1.08694533535,0.815736148107,9.9839257788e-06,-27138374.289,1.82076690434e-05,0.0,5749814.54564,681.03016823,649.971877441,66799060.3839,1743.44998424,35983792.6183,69277893.5482,4511.91008704,4503.3192586,0.0
1.08108545062,0.798718826085,1.00898212426e-05,-28868403.1955,1.8045547527e-05,0.0,5760682.96717,680.636143962,649.605999233,66825329.4894,1735.77307114,35649342.8355,69249953.6566,4487.58570552,4479.08611807,0.0
1.15405769845,0.912309854341,1.04166841896e-05,-3169076.7874,2.18648487122e-05,0.0,5482527.27355,684.759773398,654.250901594,65989357.5431,1826.96511191,47803918.8094,68026851.3935,4790.49350627,4780.15661274,0.0
1.10650565475,0.785788866198,9.76432772562e-06,-20792318.743,1.9907236561e-05,0.0,5698078.30654,682.35712939,651.234709497,66660490.2056,1768.90492845,38140228.8156,68697361.7012,4593.10497287,4584.10494207,0.0
1.09710149835,0.833457229295,9.62217061348e-06,-24652222.5313,1.85337715e-05,0.0,5745015.8427,681.811201668,650.580312759,66790812.2443,1757.13311217,36756281.6388,69355019.59,4554.06831965,4545.41702086,0.0
1.03845940265,0.865638069971,9.96191023483e-06,-52829807.9754,1.50458471766e-05,0.0,5832072.10607,678.422029445,646.748108906,66989415.4904,1677.20227495,38716548.9102,71076554.06,4310.6449804,4301.961134,0.0
1.06354920201,0.989527395073,1.00796021015e-05,-36190701.9485,1.47030476823e-05,0.0,5812453.14556,679.423718925,648.372752218,66964214.5725,1711.93221934,34646758.4966,70171220.4449,4414.79273754,4406.37533059,0.0
1.0443210035,1.14099883861,1.01344722695e-05,-48929977.8889,1.28062528508e-05,0.0,5834638.0256,678.462741108,647.147781971,67009408.1207,1685.28129706,37091255.4803,71011846.3447,4334.97648553,4326.37283491,0.0
1.10892487996,0.920900729153,9.6820622223e-06,-18900742.6104,1.80244283898e-05,0.0,5682188.58639,682.462675044,651.367353837,66602664.3516,1770.60734834,39395495.1053,68853662.5633,4603.14717671,4593.72394723,0.0
1.13417716766,1.0013452177,1.01675836742e-05,-9994406.9949,1.90566541206e-05,0.0,5583135.59217,683.487425007,652.865510989,66302385.8643,1802.49765104,44327276.124,67895569.4776,4707.96942296,4698.0619022,0.0
1.11291435209,1.07675774165,9.75120851602e-06,-17209674.0878,1.64047256901e-05,0.0,5656007.60238,682.571038003,651.588017137,66524512.3811,1774.56408614,40188806.5493,69172632.7179,4619.70747553,4609.82708043,0.0
1.07349925328,1.02409957092,9.99795685217e-06,-31993999.9488,1.47998903862e-05,0.0,5792951.98372,679.952117829,648.950201816,66912449.0523,1724.960986,35128645.7866,69630200.4159,4456.09540037,4447.52349167,0.0
1.09963698207,0.969966099637,9.78978490444e-06,-21691057.1378,1.68580118815e-05,0.0,5664149.08993,681.882299413,650.769880502,66525680.3695,1756.63526121,38022490.1573,68623404.6646,4564.59311257,4554.56196018,0.0
1.11464806176,0.752658397697,9.8333134879e-06,-16245653.3939,2.10627748213e-05,0.0,5610127.77247,682.785782382,651.668054459,66383672.8695,1776.88930398,40727887.1518,69210765.5962,4626.90410437,4616.8961205,0.0
1.06243524395,1.02091353241,9.79296792423e-06,-38654122.5826,1.41020668127e-05,0.0,5828087.41352,679.580883565,648.300849843,67006275.0577,1710.57632094,34771499.4631,70037590.0558,4410.16869764,4401.76838346,0.0
1.05238465249,0.926369112708,9.8940222424e-06,-45479640.7798,1.50217901215e-05,0.0,5805238.53176,679.119431314,647.65640948,66925653.7504,1695.66446228,35938742.4257,70488561.1052,4368.44869249,4359.53575782,0.0
1.17500155028,1.12079885715,1.03627802559e-05,2770003.36329,2.01268729336e-05,0.0,5378624.86379,685.951243345,655.50662791,65654405.5825,1850.57540154,51213923.545,66969863.9972,4877.43143521,4866.08278305,0.0
1.04720031542,1.00075359362,9.78624064276e-06,-47624078.0394,1.40112499781e-05,0.0,5833901.83671,678.882037176,647.327596365,66999633.1696,1688.85713459,36691506.3461,70698564.6979,4346.92850931,4338.24653749,0.0
1.19369133649,0.72249156394,9.83678667404e-06,6252696.20307,2.90569849774e-05,0.0,7795875.79828,687.806270653,656.709949675,65348579.1387,1874.63339452,53358021.3977,66575918.7743,4955.01273777,4943.32472773,0.0
1.07824016522,0.969300683125,1.03663674237e-05,-29250622.6811,1.60831003519e-05,0.0,5772592.24129,680.201359009,649.420695165,66866701.737,1732.24844035,35486179.1277,69202260.2651,4475.77492583,4467.41584891,0.0
1.15301143298,0.911854759528,9.3453921436e-06,-6053063.89613,2.19427726054e-05,0.0,5555605.57423,685.301344063,654.147208339,66267979.8463,1827.44587761,47080119.0957,68911246.2171,4786.1504583,4776.15883566,0.0
1.05024082152,0.860992733785,9.97553787081e-06,-45123977.1858,1.55017341265e-05,0.0,5810836.44486,678.93165798,647.521021654,66938709.4235,1693.04309489,35871124.6741,70484136.12,4359.54965013,4350.81822751,0.0
1.04919542543,0.898165920569,9.8068068689e-06,-46321332.4827,1.5051064456e-05,0.0,5822085.40403,678.992500542,647.447797049,66968383.8576,1691.58758455,36141523.9465,70487726.6217,4355.21021096,4346.49580345,0.0
1.12424781972,0.985096015094,9.54731559485e-06,-14699723.9524,1.8907944667e-05,0.0,5680010.87182,683.344114656,652.29056694,66621506.3718,1792.00004143,41732094.591,69129099.7211,4666.75269966,4657.65882634,0.0
1.01533254807,0.688852707304,1.02938323224e-05,-76138790.3827,1.60787110172e-05,0.0,5916881.15139,677.473682239,645.315275178,67215327.6777,1649.1250241,54101002.889,70579100.5377,4214.64540704,4207.51995201,0.0
0.993237762498,0.933362506285,1.05677951328e-05,-95158473.5843,1.40379557652e-05,0.0,5900823.4096,678.019001224,643.886206573,67116129.2196,1616.18998223,70052016.1261,70421424.4044,4122.92995213,4114.81151785,0.0
0.964897372712,0.956609328114,1.03345382366e-05,-94038670.5543,1.39570938896e-05,0.0,6039401.27701,683.04860653,642.089067454,67514287.4907,1611.58867398,69065924.1011,69293013.7301,4005.28899413,3998.85666161,0.0
1.03919971062,1.02448709502,9.46075616397e-06,-55416657.1747,1.34116846754e-05,0.0,5896420.28046,678.734908435,646.829752409,67180756.0287,1679.77221261,40175170.4421,71366399.1011,4313.71799878,4305.88646923,0.0
1.12387856451,1.11977141233,9.6731381511e-06,-14150181.3796,1.67703321313e-05,0.0,5663794.27971,683.185354656,652.25777631,66566443.9306,1790.2024772,41846794.8245,68892569.9048,4665.21992128,4655.74932913,0.0
1.05943883451,1.04600980632,1.00036050875e-05,-39218350.2187,1.37864900894e-05,0.0,5828917.5739,679.251900733,648.106719768,67006638.9532,1706.61196818,34779591.0105,69854600.7806,4397.73060205,4389.37698984,0.0
1.05496354307,0.949254312699,9.89591997881e-06,-42799906.6095,1.46903235897e-05,0.0,5815711.09132,679.292798975,647.890046529,66957955.7824,1699.86579155,35310962.7321,70548617.7142,4379.15366728,4370.52382601,0.0
0.998802841506,0.82449002797,1.03179672679e-05,-95471318.4015,1.50679599853e-05,0.0,5890517.22573,678.108326808,644.246312624,67089141.1015,1623.64828148,70327430.0916,70547422.1691,4146.03059509,4137.82282498,0.0
1.13715868479,0.813371676649,9.89525327496e-06,-11666282.7082,2.30733721662e-05,0.0,5514360.00535,684.212730135,653.127002206,66111220.0642,1805.80065802,43381307.897,67527890.4482,4720.34570056,4709.80901485,0.0
0.989799123615,0.767138933122,1.04806581071e-05,-95008226.2976,1.51948569009e-05,0.0,5904714.74628,678.668864596,643.670379263,67121249.0711,1611.69926623,69919704.658,70162126.5747,4108.65616213,4100.59305442,0.0
1.18178258186,1.1731399998,9.74514871006e-06,3833665.15286,1.89780964023e-05,0.0,5825029.72874,686.644063649,655.958030731,65895402.106,1860.85121962,52238721.1408,67180958.816,4905.5794973,4894.75722045,0.0
1.17801823408,1.12748108249,1.00298294947e-05,3098125.56497,1.96485033362e-05,0.0,5395005.18137,686.31437108,655.703182151,65728351.0511,1854.75787732,51564131.5864,67036894.5854,4889.95368967,4878.64957255,0.0
1.23508163469,1.09423888144,1.02535531696e-05,16443736.3267,2.51147537474e-05,0.0,18036001.936,689.698487756,659.269790214,65036614.1987,1922.99341378,61283808.501,66869162.0142,5126.8238656,5114.92217853,0.0
1.14325355112,1.11065508013,9.49513145108e-06,-8412822.06215,1.81563374303e-05,0.0,5595708.38661,684.498554597,653.516683575,66375666.9136,1814.44237873,45615264.9883,68359048.9827,4745.6454907,4735.72703171,0.0
1.04172418537,0.971111307901,9.95135523368e-06,-52107165.3603,1.43035015551e-05,0.0,5836586.38606,678.557756388,646.973811502,67008357.8329,1681.92321249,38454649.7908,70909397.245,4324.19709347,4315.63539202,0.0
1.02264248884,1.18567945909,9.83460537691e-06,-70260931.2449,1.18858332025e-05,0.0,5945468.58705,677.875792267,645.788471044,67317027.418,1658.72826923,49667261.6597,70907954.6857,4244.98897117,4237.75939982,0.0
1.06978247871,0.867631884825,1.01722546562e-05,-32975221.8511,1.64405602764e-05,0.0,5785101.21112,679.717307903,648.743179257,66883755.9058,1720.19997686,34933963.6173,69643624.6785,4440.66706913,4432.15190671,0.0
1.0070568571,0.991963846621,9.68189488535e-06,-91340840.4805,1.35233831601e-05,0.0,5928956.28573,678.420608498,644.784402245,67208217.7371,1635.60006049,66736298.4057,70950159.4264,4180.29301382,4172.2816966,0.0
1.20689589475,1.11376657682,9.88311651448e-06,9972052.0613,2.19443889441e-05,0.0,11350081.8486,688.164594352,657.479488874,65347038.4559,1889.20503803,56035349.7586,67019488.7136,5009.82485911,4997.86556536,0.0
1.1223076821,1.10619025177,9.91824356132e-06,-14146056.0861,1.71208863373e-05,0.0,5661181.5105,682.928722739,652.152831314,66552376.4038,1788.3649066,41664908.4819,68850471.3517,4658.6991884,4649.35567397,0.0
1.02521730004,1.08609640063,1.01532032702e-05,-63495767.1939,1.28296179381e-05,0.0,5914674.37798,677.643909317,645.939730683,67230547.2676,1661.86439576,44916869.6201,70802636.713,4255.67701247,4248.32085277,0.0
1.155628818,0.9954163147,9.89661014678e-06,-5636104.0942,2.17816896701e-05,0.0,5556805.68418,685.088654595,654.332041756,66262145.5375,1831.93895899,46918366.8581,68638002.452,4797.01522352,4787.42931562,0.0
1.19105554388,0.815722937602,9.94144183812e-06,5772334.36947,2.66041663732e-05,0.0,7327601.98349,687.466970979,656.527984916,65423631.9362,1871.10709881,53050504.3184,66675607.6297,4944.07156265,4932.4190904,0.0
1.11329324021,0.861871434312,1.0284622919e-05,-16428699.2885,1.96919130725e-05,0.0,5584934.07448,682.343309345,651.552103341,66283926.5247,1774.39016767,40313094.2634,69103332.8697,4621.28024011,4611.02485269,0.0
0.956062557404,0.886359774725,9.79446222184e-06,-93788243.3922,1.46650610479e-05,0.0,6080669.42984,685.795632578,641.523716373,67613160.9738,1614.92661446,68845357.4551,69067957.3618,3968.61567578,3962.30251398,0.0
1.10841265247,1.00013920476,1.01994842638e-05,-16655546.6822,1.73441275403e-05,0.0,5674094.96644,681.97273073,651.308911863,66572124.2156,1769.56576174,40408610.2752,69111813.7547,4601.0209204,4591.72518225,0.0
1.0547669808,0.789966651509,1.01036467195e-05,-41036935.7633,1.62174141654e-05,0.0,5820052.46434,679.006855762,647.788130334,66968052.0805,1700.53031539,34998052.8326,70228880.6678,4378.3377373,4370.05650864,0.0
1.25276324743,0.957483560208,9.94417187195e-06,20074295.9349,2.94496240528e-05,0.0,21877008.614,691.145968798,660.376585454,64734397.3724,1943.49297862,64170576.3394,65093145.9196,5200.22024008,5187.87650747,0.0
1.25543226587,1.09633689967,9.8690807443e-06,20614958.9157,2.64743158089e-05,0.0,22414159.6542,691.21756988,660.548215237,64814327.0048,1946.58953545,64631140.014,65488491.697,5211.29933563,5199.02681489,0.0
1.00865957313,0.830759627268,9.66250793652e-06,-88598038.74,1.48788170484e-05,0.0,5916732.04441,678.444753497,644.884098311,67172699.9551,1637.82760886,64358531.4807,71119518.7409,4186.94588806,4178.90969868,0.0
1.00927918526,0.934072488003,1.02816653694e-05,-83553902.448,1.39377399405e-05,0.0,5944996.04468,677.365029675,644.93423235,67280543.9605,1640.83902221,60102514.7504,70666434.6035,4189.51789801,4182.47793971,0.0
1.13275942578,1.03043863737,1.03600803637e-05,-10850136.2709,1.93767847486e-05,0.0,5569284.77692,683.415572494,652.853788076,66270925.7581,1800.68765192,43738246.5721,67667279.2676,4702.08437641,4692.1612454,0.0
1.18714577171,0.63954661842,9.98031868811e-06,5435008.95894,3.1026107541e-05,0.0,7009302.16895,687.361285385,656.264120532,65350403.0519,1866.5730317,52899425.0903,66662357.2177,4927.84209837,4916.28276271,0.0
1.03051257694,0.822007957099,1.00210713212e-05,-61086964.7313,1.5303606617e-05,0.0,5850033.77788,678.131977187,646.270062114,67033406.204,1667.1732978,43363517.0205,70941966.47,4277.65770688,4269.27480764,0.0
1.05965930807,1.06021043893,9.78846486997e-06,-40972496.2822,1.36878488267e-05,0.0,5818944.17171,679.436602261,648.100034858,66975497.1553,1706.00317796,35012054.1966,69756955.1493,4398.6457878,4389.94034432,0.0
1.161647559,1.07843738361,9.53362455748e-06,-3736661.98585,2.02175348163e-05,0.0,5472727.99608,685.711210021,654.681743593,66000952.9026,1835.96168054,48095744.3511,68278117.6968,4821.99901741,4811.02410079,0.0
1.13785677752,0.86635486912,9.82932107887e-06,-9350150.33069,2.18895715539e-05,0.0,5583817.63082,684.002810955,653.110056766,66329204.9662,1808.00847962,44956139.601,68000260.2812,4723.24348349,4713.51854499,0.0
1.09484260266,1.02446429005,1.04705742574e-05,-22940062.345,1.66650722296e-05,0.0,5715891.32635,681.069319959,650.482448594,66686285.769,1753.23846671,37065397.8424,68798840.3536,4544.69164364,4535.87863483,0.0
1.1064432227,0.99764518929,9.6604569012e-06,-20034148.9157,1.71534449733e-05,0.0,5646989.19128,682.36535436,651.202334573,66483026.5993,1765.37962984,38861400.1344,68681576.6022,4592.84581743,4582.6960873,0.0
1.06923658575,1.01721600647,9.72451770149e-06,-35180930.6446,1.45047466046e-05,0.0,5824489.03119,679.988722467,648.744724658,67005205.6172,1720.08144032,34723093.0055,70223337.2623,4438.40106745,4430.08474808,0.0
1.12446715861,1.19172458378,9.66465590791e-06,-14045753.0789,1.59344936682e-05,0.0,5667600.41906,683.193996433,652.294522926,66579384.4946,1790.89536231,41929138.3972,68839309.7871,4667.66317539,4658.18290349,0.0
1.1433601347,1.02672512965,9.83324970523e-06,-8032059.24151,1.98583454224e-05,0.0,5584149.03696,684.290570076,653.493447069,66344461.9382,1815.15691133,45791858.0986,68417037.8037,4746.08791914,4736.37687086,0.0
1.1228417844,1.10614564627,1.0099392863e-05,-13610519.0076,1.71824477062e-05,0.0,5622938.91868,682.881815532,652.189713412,66432947.5739,1787.83072668,42234497.7369,68076820.8444,4660.91624704,4651.16204198,0.0
1.02209570265,0.745200391542,1.01187830323e-05,-68626318.1561,1.5862787468e-05,0.0,5855056.35828,677.836074223,645.730364946,67033328.5327,1655.59358189,48443945.7221,70712150.3311,4242.7192617,4234.38547878,0.0
1.07124342966,1.17726938379,1.01480106869e-05,-32480889.7545,1.32164194676e-05,0.0,5802020.04075,679.678835621,648.819992657,66938139.6041,1721.89493589,35062970.3366,69654702.3153,4446.73147652,4438.19355377,0.0
1.01979848793,1.00707639565,9.88028187464e-06,-73294514.6016,1.33779562692e-05,0.0,5941812.21632,677.84307152,645.608126316,67299577.4289,1655.05599808,51924454.1792,70968601.772,4233.1835234,4225.99442755,0.0
1.09738909957,1.14617689252,1.02200119947e-05,-23045044.8442,1.51554927204e-05,0.0,5733676.68828,681.334999765,650.648842877,66755677.2448,1756.78970345,37103907.8875,68857596.0559,4555.26215232,4546.50772245,0.0
1.0299239321,1.06330379477,1.03244861347e-05,-59988149.7938,1.32660605779e-05,0.0,5848444.17676,677.730472287,646.222575028,67028995.6477,1665.87215774,42656361.2864,70963116.5557,4275.21424215,4266.75459234,0.0
1.13198404297,1.11838447172,9.75166560326e-06,-11724072.1204,1.75722980324e-05,0.0,5627182.78868,683.671451737,652.807569299,66460236.9536,1800.26677944,43439159.9567,67579123.4717,4698.86576237,4689.23144602,0.0
1.0303428635,0.810974708484,9.71965780216e-06,-61722456.6531,1.5331785175e-05,0.0,5911756.11322,678.307477429,646.280526518,67227156.9995,1669.18128552,43757131.2912,71105740.0877,4276.95322639,4269.6135787,0.0
1.22137455107,1.0681134657,9.86740836515e-06,12870733.7247,2.37543171467e-05,0.0,14132999.0486,689.15536213,658.446494887,65208061.0879,1907.1546931,58346806.4807,66472085.1595,5069.92576149,5057.96337485,0.0
1.05209630424,0.966066551831,9.73715802847e-06,-44402472.4349,1.42540748093e-05,0.0,5826424.05596,679.157571855,647.642084731,66985363.0163,1695.51895734,35660759.3399,70620696.8274,4367.2517589,4358.48841818,0.0
1.21276492965,0.775620171403,1.00976183881e-05,11546044.5432,2.96918543777e-05,0.0,12826608.7168,688.704808455,657.868540364,65128014.4693,1897.15468784,57167034.0483,66137277.0089,5034.18722298,5022.33606107,0.0
1.16799114408,0.902750462752,1.00805856392e-05,934024.378957,2.29631062015e-05,0.0,5443390.62693,685.798070695,655.118052348,65874432.2565,1844.13063663,50293479.7704,67556222.5095,4848.33123908,4837.73420931,0.0
1.098283366,0.970474429293,1.02079765232e-05,-22742939.6084,1.74464055789e-05,0.0,5718727.61189,681.479624201,650.710776099,66711136.53,1758.11802348,37192997.4977,68635901.3108,4558.97425227,4550.20499566,0.0
1.07440407663,0.931027911818,9.88971250597e-06,-32356258.6287,1.58407731266e-05,0.0,5799450.54532,680.121519061,649.016562352,66941032.8745,1726.90121713,35031879.4483,69747677.8444,4459.85132209,4451.45527832,0.0
1.0314082486,1.19549350134,9.98936825479e-06,-60662187.2805,1.2051337515e-05,0.0,5871154.31419,678.051332487,646.328310837,67099582.7536,1668.11399239,43113436.8471,70988534.3583,4281.37563994,4272.97840344,0.0
1.03758288955,0.847649116946,9.8394373954e-06,-55988591.7716,1.52390687758e-05,0.0,5890440.05336,678.433366484,646.732110167,67175412.5443,1678.85864152,40447188.9325,71096047.034,4307.00657452,4299.56422731,0.0
1.12153663091,0.712362467975,9.70297490648e-06,-14594983.5555,2.248810617e-05,0.0,5633704.64885,683.236205747,652.101966215,66470791.5258,1787.60867812,41536216.2961,69045688.7185,4655.49855491,4646.06643776,0.0
1.01245220945,1.09972897452,9.85706072573e-06,-82296351.6336,1.24419841679e-05,0.0,5966461.07037,677.788628116,645.139900671,67341773.0454,1645.11674269,59067590.9477,70924775.2845,4202.68912143,4195.6041279,0.0
0.981212438766,0.812075534401,1.00384459822e-05,-94984023.7549,1.47160892179e-05,0.0,5998095.1367,680.678200971,643.137478084,67384975.8699,1611.75799373,69898012.2138,70136861.4423,4073.01283332,4066.03233687,0.0
1.10736845113,0.782939652671,1.01724558439e-05,-18105103.2396,2.03573075515e-05,0.0,5654735.37991,682.085936192,651.250618823,66518793.3922,1768.56770762,39683651.5836,68859763.0245,4596.68644064,4587.38818423,0.0
1.00398037977,0.92193994677,1.03345123557e-05,-89140015.6441,1.44307601559e-05,0.0,5881558.48233,677.673878162,644.575776821,67070163.7801,1630.49095341,64798210.5555,70677409.9869,4167.52255643,4159.23240709,0.0
1.19774361142,0.987063012339,9.98111866899e-06,8122646.1454,2.3668979446e-05,0.0,9582891.41035,687.706861179,656.965631691,65395178.7584,1878.33761297,54628301.381,66594230.0691,4971.833731,4960.07183228,0.0
1.20176083439,0.978948900805,9.95275063918e-06,9461028.28059,2.39805637613e-05,0.0,10887595.4474,687.88039367,657.223365179,65520514.2545,1884.64761191,55703672.0535,66909031.2225,4988.50922355,4977.3282025,0.0
1.14891103456,0.967112871193,9.97198622278e-06,-7589537.56657,2.1881948361e-05,0.0,5579527.73317,684.602427441,653.877867243,66332636.5137,1823.68624101,45782394.0019,68613414.3773,4769.12970446,4759.74799889,0.0
1.08610467589,0.695717589902,9.79094986159e-06,-28002727.8596,1.9741772099e-05,0.0,5751313.14283,681.185116719,649.927683447,66799259.3294,1742.4604285,35873208.8609,69318731.2099,4508.42050962,4499.84279514,0.0
1.14567676217,0.918965576633,1.03268876254e-05,-8361541.01138,2.26896404795e-05,0.0,5470957.72367,684.339308378,653.616077723,65962115.2317,1816.12105974,44812285.9245,68170541.8123,4755.70423977,4745.01713825,0.0
0.988108154222,0.993905412373,1.02941465761e-05,-95017606.7181,1.36884982683e-05,0.0,5926866.39162,679.28767311,643.563285496,67183659.9634,1610.16576013,69927896.9882,70170260.2196,4101.63694818,4093.60089285,0.0
1.1781135298,0.813936635918,1.00023581654e-05,2942687.13484,2.54002958978e-05,0.0,5371022.16446,686.56602154,655.717861665,65666803.5731,1856.10938853,51458441.4306,66893230.7475,4890.3492622,4879.25573382,0.0
1.15378247099,1.00769676943,1.02914742486e-05,-5497716.05948,2.20078171094e-05,0.0,5549148.11917,684.78417798,654.261307941,66251229.0882,1829.67553881,46767476.8604,68478699.8655,4789.35103708,4779.90293003,0.0
1.11847887368,0.837675206739,1.02223137975e-05,-14952714.7575,2.04966574194e-05,0.0,5617227.69098,682.645266745,651.894402625,66399325.0724,1782.86364611,41260546.6473,68745163.1592,4642.80580465,4633.2229457,0.0
1.17014379803,0.830191500893,1.00048284762e-05,878315.747626,2.42396475364e-05,0.0,5398516.73609,686.081398723,655.242003197,65731148.3122,1846.08732397,50285856.5387,67371287.3755,4857.26690562,4846.21766239,0.0
0.973686144287,0.983438905931,1.00111367983e-05,-94419256.1016,1.40637603074e-05,0.0,5985141.09981,682.534752079,642.643419925,67338788.0227,1612.97372107,69400992.0435,69633538.553,4041.77118494,4034.27789648,0.0
1.26643580677,1.17836179397,1.01417892867e-05,22508645.3455,2.69928044193e-05,0.0,24486966.7606,691.823811131,661.264828908,64515015.5305,1957.72698066,65919133.775,66931246.0886,5256.9750339,5244.1472345,0.0
1.05163704356,0.963412921697,9.88513351768e-06,-45920831.6071,1.46163928309e-05,0.0,5809844.60955,679.070689527,647.606409735,66938346.6823,1694.63989129,36080271.54,70556607.33,4365.34536782,4356.44479297,0.0
1.14334175596,0.88449024551,9.77450325454e-06,-7887765.30763,2.19015119467e-05,0.0,5547831.32391,684.324560023,653.398768987,66224250.9837,1814.18489954,45870862.8453,68381855.6441,4746.01162899,4735.88796015,0.0
1.08204788185,1.06396830155,1.00040394108e-05,-28862893.3213,1.48827008819e-05,0.0,5779779.22137,680.646430832,649.669837012,66884016.0225,1736.83529169,35691193.9791,69335225.1157,4491.58075756,4483.06621205,0.0
1.05628094046,0.832515897693,1.0303339916e-05,-39797647.6163,1.60228661692e-05,0.0,5815147.73491,678.924150962,647.891552299,66957789.4724,1702.86036412,34824895.3277,69583277.656,4384.62218385,4376.41150061,0.0
1.11249861272,1.07374275402,1.0305768508e-05,-16344765.9819,1.69349444513e-05,0.0,5654262.37118,682.1170448,651.526795326,66504216.6182,1775.00879267,40394730.8868,69228980.9005,4617.9817414,4608.49838132,0.0
1.13411732267,1.04553404601,9.9897303339e-06,-10349474.1245,1.85083124555e-05,0.0,5581150.44783,683.70562148,652.943830356,66311641.472,1802.06847303,44319152.5028,67811173.0084,4707.7210064,4697.69334204,0.0
1.12405242749,0.862043580629,9.78782171698e-06,-13791192.5332,2.04653062332e-05,0.0,5636506.83391,683.250921903,652.267394632,66486059.1654,1790.63889027,41972710.0582,68621828.2206,4665.94162651,4656.4681755,0.0
1.0710279405,1.03907760803,9.97554898354e-06,-33206435.3331,1.44763915118e-05,0.0,5801252.47151,679.867260994,648.831829451,66932054.6455,1721.70021413,34935337.6137,69797671.7687,4445.83698102,4437.30391752,0.0
1.08212345549,0.914401431692,1.00584206945e-05,-28628703.2579,1.66602829085e-05,0.0,5766959.34411,680.676120077,649.678356081,66845763.673,1737.04904219,35699007.5738,69279595.9975,4491.89446374,4483.37874321,0.0
1.11184769674,1.00931900415,9.98315290052e-06,-18915522.6191,1.79009327502e-05,0.0,5693648.99457,682.382034326,651.540075686,66644075.7739,1775.77346941,39104262.5558,69017460.1058,4615.27978917,4606.29463869,0.0
1.07819425036,0.711139275635,1.00903510372e-05,-29860198.714,1.89758999128e-05,0.0,5762672.35505,680.483832502,649.401452771,66826782.9091,1732.05053734,35444473.2295,69245210.8456,4475.58433324,4467.12961574,0.0
0.98233071742,1.12228919301,1.00557107024e-05,-94923480.858,1.24820242468e-05,0.0,6007561.27894,680.849125826,643.208337732,67425353.6786,1614.62411491,69844747.6551,70083303.494,4077.65480801,4070.65174273,0.0
1.12662706878,1.04069076501,9.70301480346e-06,-13337177.7155,1.81045899197e-05,0.0,5646677.83744,683.386063984,652.438721592,66517439.7272,1793.78541351,42310634.6299,68400813.6594,4676.62896251,4667.11313563,0.0
1.08096560278,0.798648827996,1.02572661888e-05,-29229222.1856,1.84380534511e-05,0.0,5761260.3489,680.51512182,649.606251186,66827401.102,1736.2074332,35489898.0589,69186645.9216,4487.08821714,4478.78455607,0.0
1.22468178101,1.04059977584,1.00214076335e-05,14043842.7314,2.47967213866e-05,0.0,15383427.1696,689.266877683,658.666578255,65190328.9335,1911.30855517,59309212.537,66650458.0799,5083.65407297,5071.91369369,0.0
1.0452125763,1.15156790286,1.01058881773e-05,-48618367.3763,1.27395799407e-05,0.0,5834338.74932,678.521429825,647.203618673,67009600.4239,1686.45013431,37054483.834,70897379.5353,4338.67740422,4330.05933197,0.0
1.09545021876,0.958655313614,9.82306987947e-06,-24567390.17,1.69400571119e-05,0.0,5745635.47464,681.517925256,650.469227959,66794536.5016,1754.59673877,36682398.9338,69221438.0802,4547.21385807,4538.48978563,0.0
1.01696388543,0.920112609752,9.82164128716e-06,-77187634.72,1.40558487935e-05,0.0,5947302.57419,677.902774214,645.424053338,67305327.4836,1651.29395657,54945170.5637,70899549.775,4221.41708842,4214.26823783,0.0
1.05070492921,0.782972976391,9.66734989972e-06,-45471534.2839,1.59649762117e-05,0.0,5820868.5127,679.209630546,647.545061524,66964037.7448,1693.78702212,36022932.0575,70651855.6182,4361.47616115,4352.73549982,0.0
1.0559904485,0.953520101517,9.71747294364e-06,-44430190.5112,1.48529376559e-05,0.0,5804843.02647,679.414206123,647.874240306,66928369.8739,1700.39198978,35664358.2366,70404641.7624,4383.41635172,4374.442311,0.0
1.04499118244,1.10247696362,1.00715258036e-05,-48867714.3614,1.31564564892e-05,0.0,5833202.1696,678.560253234,647.191375116,67005330.2061,1686.18346517,37101906.4443,70993352.0398,4337.75839831,4329.14390812,0.0
1.06341464489,1.0824150954,9.92369041869e-06,-37687387.2962,1.3568959271e-05,0.0,5824781.57793,679.508715295,648.361820544,67000130.6205,1711.86236132,34691550.7589,70105431.6031,4414.23419094,4405.81933246,0.0
1.10085777409,1.10891122595,1.00329664006e-05,-22263803.0042,1.56477871172e-05,0.0,5731988.41416,681.691982696,650.880055553,66751264.4364,1761.50469646,37427280.1555,68582485.6229,4569.66062025,4560.85146263,0.0
1.11720385801,1.02024082345,1.0014898715e-05,-15473834.4572,1.79174468168e-05,0.0,5615865.67428,682.645733199,651.803465915,66395428.7765,1779.77817382,41291940.5201,69103479.6182,4637.5132146,4627.46107317,0.0
1.01244102735,1.05528843635,9.62244063608e-06,-87197833.5407,1.30839293801e-05,0.0,5892425.34899,678.314749072,645.119892071,67104595.9776,1641.10736253,63167939.386,70880435.8127,4202.64270453,4194.04889856,0.0
1.11732740048,1.14610674476,9.73238486353e-06,-15951420.4777,1.59619174656e-05,0.0,5640108.18253,682.768471112,651.818489028,66480069.9382,1779.8177473,40846819.5741,69478145.4231,4638.02603939,4627.9725904,0.0
1.05720679986,0.918195636013,9.67520607972e-06,-43989291.7544,1.52589944007e-05,0.0,5801040.17327,679.518934787,647.946505229,66918112.2865,1702.02780567,35554279.1355,70353781.3445,4388.46542622,4379.47120525,0.0
1.20933166855,0.828256969546,1.0110802315e-05,10831987.446,2.80427303201e-05,0.0,12110440.3951,688.395504012,657.619438045,65177818.2712,1892.6848536,56589465.377,66428885.9195,5019.93575615,5008.06627968,0.0
1.06765377977,1.02317218329,1.00584503975e-05,-33695039.0583,1.44036118521e-05,0.0,5787247.48045,679.644190903,648.627865584,66877948.2653,1716.06214933,34896835.2012,69791440.7045,4431.83083983,4422.9778678,0.0
1.07706617471,0.842725325021,1.01397017456e-05,-31349627.977,1.74710139129e-05,0.0,5779448.86685,680.327344499,649.328261527,66888516.8807,1731.07574634,35103883.1802,69221172.29,4470.90169122,4462.65568475,0.0
1.09884910096,0.98552641651,1.01233009588e-05,-22823962.8489,1.72627865821e-05,0.0,5721621.97156,681.566738265,650.748102691,66719520.9261,1758.84226523,37184870.5112,68706670.8397,4561.32261808,4552.5452169,0.0
1.18245169383,0.868202177078,1.00371212397e-05,4600166.77684,2.47808751957e-05,0.0,6280869.20974,686.687410538,655.977982801,65726980.3153,1862.06509416,52480128.5095,67013953.645,4908.35698109,4897.61730974,0.0
1.1155383891,1.04246111715,9.97987496506e-06,-16039583.3519,1.74763525165e-05,0.0,5675358.78199,682.499678456,651.721667294,66585828.2225,1779.66831208,40787343.5764,69403294.2722,4630.59985315,4621.36535673,0.0
1.19825509688,0.905439110453,9.96373409909e-06,8364181.6076,2.5087439179e-05,0.0,9806254.25089,687.762498715,657.008596625,65470548.0838,1880.18495728,54836521.9715,66656751.819,4973.95690715,4962.61652585,0.0
1.02168238126,0.997262982074,9.69691257497e-06,-72771061.7023,1.35170728704e-05,0.0,5943995.98188,678.06805419,645.731536021,67306857.6958,1657.54534206,51532389.0965,71072136.413,4241.00356461,4233.78766823,0.0
1.20581841591,0.796268748242,9.93493763148e-06,9934386.27769,2.84345917965e-05,0.0,11297768.0876,688.349424303,657.417404454,65190399.6426,1888.49797427,55934721.347,66822357.7223,5005.35224444,4993.41298816,0.0
1.13834847899,0.883404054505,1.00345739316e-05,-8522225.52649,2.19444599006e-05,0.0,5576102.24288,683.948547622,653.199935041,66298462.6479,1808.50505671,45524722.7659,68182445.045,4725.28453629,4715.65001675,0.0
1.06706358765,0.915242038934,9.91993348995e-06,-35972575.4944,1.55379060222e-05,0.0,5805111.80063,679.778019288,648.599965751,66946505.3892,1716.78376073,34666909.6609,70138142.7888,4429.38095234,4420.90829166,0.0
1.00235060446,1.1755154356,1.00056910101e-05,-95831037.2832,1.19770390897e-05,0.0,5913033.95188,678.186970586,644.476070536,67157414.1155,1627.88609382,70645610.3209,70743981.7055,4160.75735911,4152.41070313,0.0
1.09191375041,0.808278865766,9.92452499014e-06,-25624961.8379,1.86657321895e-05,0.0,5737690.03906,681.303452293,650.242580749,66767428.9487,1749.9630351,36387457.4371,69216505.656,4532.53397795,4523.8648472,0.0
1.12137811171,0.815608235491,9.65246801803e-06,-15346128.1187,2.10644538288e-05,0.0,5672749.03737,683.171310845,652.100225391,66598738.626,1788.48793354,41247938.4082,69228382.0051,4654.84054171,4645.81803576,0.0
1.12248029755,1.08421092228,1.02732278474e-05,-13889963.4142,1.75508730685e-05,0.0,5619399.403,682.758248896,652.167266574,66413266.3506,1787.68090314,41933408.123,68023815.019,4659.41571513,4649.76609005,0.0
1.06276108492,0.897359496037,1.02073603048e-05,-36790800.9763,1.56155688709e-05,0.0,5803582.92995,679.334174834,648.320410481,66927729.5455,1711.15946025,34626135.8409,70034686.5341,4411.5212635,4403.11586435,0.0
1.08138818586,0.854890221769,9.97473260527e-06,-29109998.1041,1.72634207971e-05,0.0,5768479.74126,680.706020332,649.620601721,66847583.6491,1736.13462432,35638355.7232,69300455.8944,4488.8423595,4480.33806812,0.0
1.15401208262,0.860569577022,9.96030041296e-06,-4195455.67232,2.23133937979e-05,0.0,5512949.94344,684.872526129,654.121851849,66100738.2547,1827.64230057,47716321.4795,68533472.5988,4790.30415496,4780.06430539,0.0
1.08015545946,1.0172049238,1.0167759355e-05,-29007357.5987,1.54253782363e-05,0.0,5774574.11305,680.433425689,649.543972945,66867860.7686,1734.3790517,35619840.8331,69276067.6584,4483.72531222,4475.24016838,0.0
1.14773925209,0.941179189783,9.6546734133e-06,-7017462.32587,2.13609970632e-05,0.0,5525834.84583,684.777573072,653.757211724,66150049.3413,1819.26560961,46388569.3,68671148.3882,4764.26563543,4753.85791166,0.0
1.12007177502,0.886702615921,9.93593774379e-06,-14717069.1568,1.98806143031e-05,0.0,5597488.38963,682.953316652,651.988644932,66341968.7682,1783.63608568,41434909.1679,68564917.9337,4649.41793811,4639.31602926,0.0
1.15975909282,1.04722889246,1.00452881705e-05,-2327575.70602,1.97166825288e-05,0.0,5464914.5435,685.287990078,654.599760279,65932232.533,1833.03102997,48486589.5493,67736460.1033,4814.1599943,4803.31540105,0.0
1.0930469047,0.965895848799,9.73211550934e-06,-25470274.3451,1.65116602103e-05,0.0,5751646.14528,681.446911595,650.320273724,66802910.2015,1751.11137538,36451423.7506,69304786.6333,4537.23770141,4528.4533045,0.0
1.12696590288,1.034698879,9.89903564792e-06,-13053148.7006,1.85031331903e-05,0.0,5637853.6,683.295583349,652.474660865,66487581.5818,1794.43444638,42398314.1144,68090975.4887,4678.03546285,4668.61598574,0.0
1.10121515058,0.697529955007,1.01812073069e-05,-21863706.6386,2.15413192846e-05,0.0,5688895.27378,681.805933059,650.901903877,66623477.0263,1762.20216946,37532344.1397,68451158.0316,4571.14409006,4562.32940986,0.0
1.16353631436,0.936654365895,1.00387430806e-05,-4157287.59138,2.36535087672e-05,0.0,5416404.8263,685.733848395,654.834625895,65806752.1703,1838.59529626,47224734.3761,67751066.3809,4829.83924091,4818.81696006,0.0
1.18112070688,1.15983344353,1.03742587469e-05,3991062.73549,1.98517011342e-05,0.0,5809647.17422,686.263092408,655.88866898,65699872.1724,1859.19496529,51921427.6046,66949367.9444,4902.83205426,4891.79069059,0.0
1.12598700622,0.810788016067,1.01159286705e-05,-13127413.0829,2.23097181531e-05,0.0,5636524.93597,683.169663967,652.420693236,66494959.7738,1794.38454099,42505805.8444,68094406.05,4673.97206282,4664.98114979,0.0
1.11965273724,0.80856227775,1.02869201721e-05,-14440113.5099,2.12268859224e-05,0.0,5604624.80919,682.715548005,651.981545481,66363235.7121,1784.4424803,41541073.9397,68402517.8614,4647.67851228,4638.07706735,0.0
1.07186098471,0.80334508599,1.00538149951e-05,-32490085.2175,1.72816739278e-05,0.0,5780030.01488,679.930191474,648.860399453,66870267.1301,1722.98046077,35036062.5539,69619905.8011,4449.29494753,4440.74879793,0.0
1.15820888767,0.995551500208,1.00135930908e-05,-3199637.33516,2.04585975714e-05,0.0,5465624.72635,685.264376075,654.506062888,65964391.2978,1831.32263144,47977896.5863,67749433.9406,4807.72509272,4796.89609268,0.0
1.10321794612,0.962863324082,9.9018100768e-06,-21841118.4773,1.76284862885e-05,0.0,5719848.42556,681.989044538,651.032667398,66730615.9568,1764.72320667,37633999.5957,68578399.5027,4579.45769434,4570.61129504,0.0
1.10729840668,0.926812439454,9.71422659588e-06,-19560466.649,1.81045531306e-05,0.0,5635746.6122,682.410233019,651.249573012,66451014.3396,1766.55886537,39104953.9143,68724489.3005,4596.39568613,4586.23089546,0.0
1.08553991983,1.02044960219,9.94561044511e-06,-27782502.2281,1.56199356271e-05,0.0,5769690.83715,680.898648647,649.88914029,66857982.5813,1741.44373669,35904971.1292,69343679.6288,4506.07620721,4497.5072981,0.0
1.12213333126,1.13830706375,9.86157802527e-06,-14388383.5027,1.65861151659e-05,0.0,5617129.4664,682.995384357,652.124957684,66404530.5577,1786.02893234,41655838.2007,68328651.4599,4657.97545806,4647.83771502,0.0
1.06538704295,0.86926766231,9.79385166546e-06,-36741528.8886,1.57880877534e-05,0.0,5773630.46094,679.819103245,648.475318261,66835749.0117,1712.42667498,34734870.6021,70103174.7222,4422.42161529,4413.2415148,0.0
1.02829183973,0.827078589241,1.0167630907e-05,-61314325.8645,1.50730243331e-05,0.0,5848635.88818,677.90111507,646.125299642,67024742.1772,1664.01181617,43478526.6392,70902414.2774,4268.43942672,4260.00576616,0.0
1.15807407768,0.928274263068,9.73471832181e-06,-4111332.89487,2.26115875576e-05,0.0,5519079.32825,685.397087907,654.475082396,66152896.8764,1833.72553269,47837321.1008,68445700.9598,4807.16549645,4797.08640094,0.0
1.16163650085,0.911787414902,9.92157027103e-06,-2455934.59361,2.20237077206e-05,0.0,5446329.80627,685.582750782,654.718110045,65905609.4472,1835.72259758,48397653.5038,67710467.0213,4821.95311503,4811.05008134,0.0
1.10096023777,0.640023886986,1.01705364789e-05,-21961779.3806,2.26032221492e-05,0.0,5684401.90353,681.837662202,650.88464681,66609609.7003,1761.93024892,37493873.4938,68415873.6996,4570.08594698,4561.27528624,0.0
1.03200734833,0.799706935534,9.66759186666e-06,-60572480.4303,1.54950484757e-05,0.0,5908919.03349,678.414828247,646.387860414,67221150.2556,1671.39220895,43054988.0145,71089144.6448,4283.86250292,4276.49896854,0.0
1.09336004917,1.00974956694,9.86936258915e-06,-25365355.2376,1.63083649021e-05,0.0,5750413.28897,681.337518298,650.330259224,66809047.75,1751.67470431,36462350.5025,69257375.0191,4538.5375641,4529.84639875,0.0
1.04439042195,1.06877975785,1.03224858177e-05,-47788523.7934,1.34172295436e-05,0.0,5821013.26139,678.329796996,647.14359092,66967420.4349,1685.23424124,36649342.4095,70407690.7823,4335.26464151,4326.57143403,0.0
1.02278436033,0.969751332844,9.66130945991e-06,-71725484.8215,1.37657246275e-05,0.0,5941098.82158,678.124593508,645.795215668,67301167.4917,1658.9970899,50753111.7525,71050332.1863,4245.57787973,4238.3475246,0.0
1.22377046108,0.931251285749,9.75700506477e-06,13350899.9858,2.65578104902e-05,0.0,14677938.2985,689.49590245,658.595370792,65075868.6699,1909.73035417,58724458.7092,66439201.0677,5079.87118394,5067.66341874,0.0
1.0828248815,0.959709570379,9.63809946988e-06,-29698347.4751,1.59313946039e-05,0.0,5789624.61929,680.787457783,649.577187359,66921530.135,1737.93393636,35650374.7411,69431748.5413,4494.80608311,4486.27945364,0.0
1.12645863691,0.99813501459,9.92152204566e-06,-13110123.9493,1.90490259837e-05,0.0,5635100.57819,683.269316483,652.441052366,66478762.3795,1793.81706598,42336636.2471,68124120.5444,4675.92980181,4666.51860883,0.0
1.19685836057,0.943487587661,1.01903419346e-05,8604934.07713,2.45479840991e-05,0.0,10002386.3118,687.482801688,656.923275062,65504700.7573,1878.65279035,54949656.9613,66688404.516,4968.15905473,4957.07122401,0.0
0.994257916254,0.880762151454,9.89192916947e-06,-95370060.9151,1.46275492035e-05,0.0,5919241.61765,679.361865526,643.960088787,67162047.3146,1617.2616405,70238181.3731,70504283.5026,4127.16461037,4118.94944191,0.0
1.13359735395,0.774462854927,1.04304233228e-05,-10870406.2904,2.41783339206e-05,0.0,5593145.84043,683.495082968,652.928690996,66362103.5931,1804.23367968,43725398.7276,67733712.7675,4705.56261625,4696.44985241,0.0
1.22738209969,1.08990522621,1.01463363681e-05,14661503.5459,2.42772644039e-05,0.0,16140586.424,689.361796641,658.831042385,65062642.1144,1913.25068412,59809002.8898,66654742.0935,5094.86309581,5082.75955478,0.0
1.16120013404,0.993056263858,9.62036089802e-06,-3451349.80022,2.16261978143e-05,0.0,5523281.39806,685.48895249,654.5804724,66166674.3272,1837.62681855,48237319.7982,68342978.8461,4820.1417564,4810.00982003,0.0
1.12893540913,1.09734390807,9.62770053436e-06,-12793919.8334,1.74700870274e-05,0.0,5643011.00615,683.566941071,652.600524123,66508195.3733,1796.65377155,42649531.6565,68142142.909,4686.2108833,4676.63151048,0.0
1.0567235241,0.88367807064,9.66345926561e-06,-44295160.6343,1.55982362806e-05,0.0,5800034.16799,679.524665241,647.919613258,66914211.1915,1701.40269295,35621772.3914,70398593.3374,4386.45934854,4377.47314767,0.0
1.09205068807,1.00610113673,9.9922773085e-06,-25429652.3452,1.63400367375e-05,0.0,5748897.41649,681.177986818,650.247570965,66803380.6987,1749.97099583,36405027.3647,69213205.8992,4533.10240618,4524.43100761,0.0
0.972214765824,0.953253095897,1.01887897871e-05,-94550978.9457,1.40921856528e-05,0.0,6030131.03001,681.896384559,642.561984607,67484964.6072,1611.46466252,69516957.7001,69750039.5483,4035.66349294,4029.13737896,0.0
1.1463365304,0.949669581132,1.02958500414e-05,-7535516.41939,2.23050906126e-05,0.0,5570989.46625,684.247506232,653.713005203,66309103.0007,1820.27177091,45619854.9687,68513137.2813,4758.44293769,4749.10246769,0.0
1.21095753915,0.930554721948,9.7929800466e-06,10874082.0611,2.54200718982e-05,0.0,12204987.1762,688.561171874,657.735692841,65329351.5837,1895.27961222,56738631.5558,66780346.4536,5026.68474501,5014.99358949,0.0
1.13239109324,0.778389316576,1.00637815073e-05,-11366705.919,2.28755378013e-05,0.0,5563778.47564,683.614158706,652.754163397,66247450.4949,1800.61097535,43482122.4188,67490041.1858,4700.55542804,4690.6393516,0.0
1.13915332804,0.825005979999,1.00778677627e-05,-9595433.82255,2.29043613729e-05,0.0,5531476.85785,684.107485413,653.244870419,66150168.948,1808.85501695,44604708.9017,67970307.8047,4728.62546469,4718.46643318,0.0
1.22005420494,1.02404005653,1.01446833559e-05,12977193.8739,2.5030467928e-05,0.0,14176529.2058,688.964450907,658.355123893,65110511.3269,1904.84884948,58340791.1572,66422674.7653,5064.44500471,5052.36908582,0.0
1.04781407217,0.953473988203,9.93000417538e-06,-46538571.444,1.45086209765e-05,0.0,5824059.17554,678.807261485,647.360766969,66973508.8465,1689.73907029,36226763.2799,70422389.35,4349.47621358,4340.78426875,0.0
1.16625793315,1.05734836519,1.02255329734e-05,800832.635215,2.02822382162e-05,0.0,5461805.91639,685.490976579,655.005364702,65925069.8764,1841.62490195,50297697.6094,67565255.3969,4841.13668051,4830.59202564,0.0
1.06717261616,1.06826694957,9.81426046179e-06,-36388025.4926,1.38420035518e-05,0.0,5818959.65895,679.801200543,648.606830535,66987197.9721,1716.80798943,34695060.6106,70265024.8162,4429.83352968,4421.35916171,0.0
1.17835753137,1.04215898414,1.0189387917e-05,3195392.49178,2.13233138583e-05,0.0,5390224.89031,686.292197247,655.72547426,65709148.5785,1855.861955,51501401.7602,66970156.6251,4891.36211272,4880.26420772,0.0
1.06714239261,0.656723204162,1.01143753055e-05,-35121515.0559,1.86770409711e-05,0.0,5780272.85532,679.745964703,648.605823893,66863170.9425,1717.08089574,34658138.7403,69913868.0564,4429.70807172,4421.23417704,0.0
0.990335035313,0.775000443791,9.83818236469e-06,-95424894.4801,1.49988362393e-05,0.0,5980902.93411,679.681695521,643.722125085,67338739.6603,1614.63928451,70286266.562,70530290.3131,4110.88073158,4103.68394879,0.0
1.17106804042,0.969646022649,9.46306962191e-06,265917.90685,2.12189136596e-05,0.0,5465515.64039,686.337090198,655.317990863,65965293.5904,1848.23638956,50328945.9739,67860164.5036,4861.10343578,4850.35883359,0.0
1.15689112633,0.78040572373,9.61643853099e-06,-2773669.53481,2.35387036302e-05,0.0,5502313.73361,685.295236069,654.303192536,66070636.2899,1830.90367034,48804222.4799,68444120.4226,4802.2550654,4791.85304774,0.0
1.01752820097,0.796946371658,9.91565665282e-06,-75617075.0967,1.5064875624e-05,0.0,5936512.70784,677.84900351,645.46000407,67276962.1646,1652.12504048,53706542.2018,70806205.8249,4223.75956223,4216.60270726,0.0
1.0018878767,0.733045979031,1.00210377311e-05,-95826533.0398,1.58035675624e-05,0.0,5886926.38292,678.374418838,644.442418376,67076551.3546,1627.57048798,70639816.2935,70639816.2935,4158.83657618,4150.49746112,0.0
1.1537148254,0.821279574514,9.68460480932e-06,-5164139.41343,2.40256431749e-05,0.0,5528061.30064,685.214182843,654.208244342,66177008.9311,1828.32360829,47430319.8748,68688877.5548,4789.07024024,4779.09312466,0.0
1.17382450858,0.820161352858,9.68421969458e-06,1660239.98275,2.45704951191e-05,0.0,5440329.53449,686.438867875,655.486098742,65890178.3343,1852.05869773,51062174.9889,67658547.6855,4872.54553512,4861.95328642,0.0
1.11198895421,1.15062289257,9.89946653417e-06,-17281944.9654,1.57266581611e-05,0.0,5698129.56593,682.339233831,651.541305473,66665103.0119,1775.00639703,40184476.1809,69179807.7913,4615.86614893,4606.69001858,0.0
1.11462135782,1.14653087121,1.01365430758e-05,-15891724.5916,1.60781723253e-05,0.0,5659911.76294,682.294021486,651.649707849,66539380.1941,1777.42401381,40746280.5859,69429474.1543,4626.79325631,4617.27565367,0.0
1.18942274574,0.890626750782,9.87160868503e-06,5943059.23781,2.45760192896e-05,0.0,7569546.15118,687.234636472,656.433276087,65669339.3116,1870.33982591,53436657.0671,66848237.9926,4937.29381757,4926.31690053,0.0
1.12835405673,0.809837836096,9.98543853216e-06,-12297050.7493,2.18227003369e-05,0.0,5584817.70275,683.371329578,652.47916531,66322259.1232,1795.25115151,42994028.2437,67251221.9134,4683.79768949,4673.95041139,0.0
1.1050257046,0.978552030177,1.03213435734e-05,-18142086.8392,1.75369606306e-05,0.0,5668839.69047,681.751139563,651.103153076,66554729.9051,1765.11730141,39503797.4178,68810490.2218,4586.96169979,4577.60393435,0.0
1.09342915122,1.12157249603,1.02081835448e-05,-24330906.2418,1.51323998624e-05,0.0,5743876.07023,681.076125157,650.349635748,66779636.9076,1751.6501725,36657583.4161,69004802.7687,4538.82440671,4530.1321579,0.0
1.08857499148,0.854980816943,9.96111648569e-06,-26657539.0845,1.77965554589e-05,0.0,5749049.51594,681.115981141,650.070009675,66799411.3657,1745.54974843,36088448.2788,69284050.9634,4518.67478963,4510.05851582,0.0
1.13084893315,1.07826428233,9.67680883164e-06,-13370583.0458,1.8195202254e-05,0.0,5576857.57167,683.760589099,652.707889454,66307507.9297,1797.28327872,42273685.3535,67751481.9462,4694.15392151,4683.72967027,0.0
1.08095436235,1.13987897265,1.04053207902e-05,-28150336.9202,1.43433679057e-05,0.0,5775055.69632,680.265211464,649.596668735,66865373.8607,1735.67495841,35712871.4526,69213531.2593,4487.04155811,4478.64075299,0.0
1.08306391269,1.09100632462,9.90857906003e-06,-28824427.3064,1.45778509049e-05,0.0,5782831.72421,680.757552085,649.735991654,66893582.008,1738.14541608,35740140.3034,69368290.0635,4495.79830158,4487.26795326,0.0
0.992307360164,1.07548618313,1.00473354569e-05,-95297605.017,1.28085018414e-05,0.0,5930565.68504,679.157200608,643.834868549,67194838.4241,1614.62166468,70174306.6381,70427486.6266,4119.06785204,4110.88424959,0.0
1.0902216014,1.03101751327,1.01256822156e-05,-25616757.2487,1.59574179374e-05,0.0,5750502.01732,680.980879685,650.140413526,66806820.2413,1747.54849789,36274355.6026,69196257.8951,4525.50986741,4516.86632061,0.0
1.15340425778,1.05644451761,1.00425789461e-05,-4256724.8611,1.91942571125e-05,0.0,5531057.35453,684.668114873,654.08227836,66157691.5227,1826.59717862,47658519.4344,68134302.7511,4787.78107404,4777.55160453,0.0
1.09865255139,0.911180716316,1.02890268599e-05,-19363843.2127,1.77204195026e-05,0.0,5700279.606,681.411633765,650.731001142,66640970.3799,1757.37304489,38949012.038,68582628.0483,4560.50674082,4551.46679807,0.0
1.18511432828,0.899831040258,9.90514829189e-06,4746985.1137,2.41659494396e-05,0.0,6454703.36042,686.928830532,656.152851247,65737945.5956,1865.4302158,52653645.4486,67029014.6249,4919.40957669,4908.58041645,0.0
1.01357238761,0.800288681665,1.01568460283e-05,-80419459.7082,1.54422512122e-05,0.0,5856513.95817,677.716778457,645.175006096,67003434.323,1643.16357431,57519366.9077,70793694.8128,4207.33898097,4198.80881628,0.0
1.24149351926,0.780781065167,1.0494834829e-05,18515826.7476,3.36345337884e-05,0.0,20217874.2542,690.304782734,659.676478421,64701622.803,1929.91951044,62867862.7503,65610813.9304,5153.43959845,5141.30551373,0.0
1.08945643193,0.733514608048,1.00701272466e-05,-25994416.8278,1.96805776163e-05,0.0,5732720.18895,681.122923266,650.104188548,66751222.0292,1746.80223031,36199355.5866,69184890.5935,4522.33364894,4513.70359952,0.0
1.24942139134,1.01831376179,1.0042286708e-05,19487492.8301,2.7919869919e-05,0.0,21219491.5273,690.843190145,660.166334653,64769793.0567,1939.03124951,63666094.5004,64769793.0567,5186.34819545,5173.95092305,0.0
1.25820350349,0.904420845663,9.74548475629e-06,20832194.4213,3.09962237343e-05,0.0,22654980.5504,691.693307566,660.709609182,64558024.9342,1949.39348579,64714252.1685,65570706.8641,5222.80274299,5210.00798348,0.0
1.19545661233,1.00714384214,9.63858687029e-06,6157348.87874,2.26505610612e-05,0.0,7729438.75728,687.754341115,656.812617432,65531178.7226,1876.42752828,53460565.6635,66788741.9103,4962.34039778,4950.61968049,0.0
0.96398647396,1.19272658126,1.01217985475e-05,-94011066.9274,1.20653897832e-05,0.0,6048650.47387,683.830311653,642.027429401,67530522.0924,1613.40884727,69041524.8793,69268038.3288,4001.50785341,3994.79478679,0.0
1.04977381306,0.990845094329,1.00612557909e-05,-43134835.5882,1.41332027201e-05,0.0,5835122.49238,678.731821802,647.491946638,67008531.2537,1693.00273985,35397426.1728,70587418.0082,4357.61109801,4349.22772114,0.0
0.955177481903,0.810126863781,9.70660060028e-06,-93760017.3494,1.52808429942e-05,0.0,6082440.84404,686.197706469,641.467324949,67618505.8803,1615.68989987,68820551.7015,69042417.7379,3964.94172738,3958.64046619,0.0
1.05190341921,0.876763904282,1.02772267419e-05,-42043168.988,1.5511386968e-05,0.0,5810842.46693,678.723931702,647.606189957,66946176.6532,1696.00737057,35146790.9905,70425825.1862,4366.45109314,4357.96220541,0.0
1.16129774045,0.907770567754,1.01023231413e-05,-616175.261278,2.2130487741e-05,0.0,5472644.54207,685.360640962,654.698922746,65958958.6507,1835.788504,49580720.9851,67790604.0241,4820.54692061,4810.09956485,0.0
1.06432227591,1.1694343253,1.00750856091e-05,-35903327.1809,1.29263125015e-05,0.0,5821790.33283,679.400035362,648.422990393,66994129.8208,1712.81688104,34676457.1245,70213465.9532,4418.0017673,4409.57228326,0.0
1.20494239609,0.923725203985,1.02444155104e-05,9414132.10795,2.57982957306e-05,0.0,10766112.2698,687.9922128,657.349954015,65232787.5074,1887.06623522,55478485.0544,66775568.5096,5001.71588617,4989.82043645,0.0
0.946012033713,1.12394132374,9.99614880457e-06,-93383712.5734,1.23161734847e-05,0.0,6107958.11576,686.379241184,640.875443952,67682903.6882,1609.3902951,68489141.0964,68706481.7911,3926.89595194,3920.7198278,0.0
1.18781049491,0.896368887237,9.65210534857e-06,4971172.78358,2.40732892667e-05,0.0,6676540.43338,687.25270126,656.325437547,65744188.3379,1868.77709749,52928479.5804,67061324.5597,4930.60136437,4919.66396346,0.0
1.11315150447,1.2077934597,9.72972517071e-06,-19260728.0491,1.5262484262e-05,0.0,5708584.49474,682.551243456,651.627476601,66705317.4087,1777.02205041,39056687.757,69083083.7448,4620.69189505,4611.58646487,0.0
1.04178123272,1.23966817522,1.03345759942e-05,-49093124.0385,1.18495487286e-05,0.0,5836590.36792,678.129425618,646.975792628,67009932.706,1681.65582689,37119361.3531,70960923.3675,4324.43389702,4315.78181772,0.0
1.05487093675,1.17967257563,1.03041257365e-05,-41335287.8073,1.2618348357e-05,0.0,5821109.441,678.741543064,647.785319433,66974977.5254,1699.88163644,34987054.8286,69785698.5871,4378.76925845,4370.23305743,0.0
1.09079384636,1.29296429557,1.01233038339e-05,-25515503.6959,1.3217731244e-05,0.0,5764774.52798,680.912159473,650.171950346,66852099.3829,1748.10590622,36352025.4759,69239281.9373,4527.88525624,4519.23428782,0.0
0.898940648796,0.793231293788,1.03709069747e-05,-90952498.7013,1.40712594306e-05,0.0,6133872.00448,691.729341014,637.825480573,67687875.8237,1591.32113176,66349536.7706,67687875.8237,3731.50263315,3725.14378817,0.0
1.13418138077,0.852707878328,9.9427102222e-06,-10544951.2926,2.21863158042e-05,0.0,5615601.48505,683.785698788,652.967208834,66434676.6933,1804.49484339,44191948.4922,67794196.1785,4707.98691158,4698.76276708,0.0
1.15010522952,0.910522718809,9.80601736583e-06,-7061464.61114,2.2299526413e-05,0.0,5535590.86467,684.867511707,653.946433919,66191022.3554,1823.52560034,45990155.3073,68672639.3386,4774.08680774,4764.048874,0.0
1.04328501722,1.03840561715,9.87218641382e-06,-52280611.0285,1.36597027059e-05,0.0,5885473.83606,678.568044365,647.080645401,67167892.575,1686.36294123,38632489.9346,70982474.7537,4330.67610648,4323.15131518,0.0
1.15267927947,1.05324737089,9.75456864136e-06,-5406218.03092,2.00076458921e-05,0.0,5552568.66602,684.964159221,654.142903987,66253545.9733,1826.68629578,47308295.9214,68779211.1565,4784.77168908,4774.81176509,0.0
1.11617029628,0.853875651947,1.0389989645e-05,-15157462.6737,2.02743468511e-05,0.0,5619161.72822,682.381509628,651.741742512,66403314.2066,1779.90905477,41115495.6291,68863323.544,4633.22289986,4623.67853748,0.0
1.28376942236,0.739435670205,1.03808706087e-05,26120870.0753,3.9808233484e-05,0.0,27675859.6077,693.149170294,662.291976393,63910804.663,1976.78987085,67858058.8892,68808914.1454,5328.92687222,5315.73824894,0.0
1.12626327905,0.985073090665,9.89636111707e-06,-13270766.657,1.91876900465e-05,0.0,5638514.51213,683.172963454,652.34902275,66488449.4866,1793.59153285,42314818.654,68202210.5518,4675.11887134,4665.71086795,0.0
1.11247694294,1.13391198819,1.02158594667e-05,-16634640.3648,1.62861556658e-05,0.0,5678576.27052,682.132317051,651.539240032,66597125.5868,1775.42303298,40472869.0988,69255893.4655,4617.89179014,4608.70696523,0.0
1.02445303216,0.900717426706,9.87007286896e-06,-67719135.4444,1.43575131771e-05,0.0,5925062.00596,677.974109455,645.905919187,67258210.5102,1661.30779354,47846981.3888,71035223.397,4252.5045365,4245.25038848,0.0
1.13259086476,1.05109886548,9.72163791536e-06,-11745257.0076,1.85201875546e-05,0.0,5621854.57356,683.772579287,652.847206106,66451274.9728,1801.35625137,43387389.8275,67550848.4079,4701.38467962,4691.74478397,0.0
1.02701275504,1.0438023383,9.94252849706e-06,-64169628.9234,1.31697261437e-05,0.0,5872262.14707,677.989910948,646.042250191,67093781.3537,1662.14420486,45357765.8445,70962802.5781,4263.12994617,4254.71687911,0.0
1.18675505967,0.654504185402,1.01373172088e-05,5651243.68236,3.07542608817e-05,0.0,7215703.40948,687.114701738,656.260073704,65544690.3838,1867.68589555,53043886.5558,66775391.6956,4926.22025269,4915.39860443,0.0
1.05550766201,1.12593362083,1.00333730793e-05,-40602007.6679,1.27710001501e-05,0.0,5807835.26465,678.974956713,647.818220369,66927284.8765,1699.19813031,34980720.659,69588309.0454,4381.412305,4372.39832409,0.0
1.01332316404,0.996000548683,9.66120693089e-06,-83140809.1208,1.34263480061e-05,0.0,5966441.10165,678.073581878,645.197790844,67340572.4255,1646.29517661,59770391.5449,71088661.9189,4206.30445393,4199.20715221,0.0
0.986241929616,0.738883088092,9.9132318417e-06,-95231001.4849,1.51532292995e-05,0.0,5985866.25743,680.120266679,643.460480593,67348673.6481,1612.63404439,70115478.7798,70358150.1816,4093.89024984,4086.75319611,0.0
1.21663467613,0.908190075708,9.91200869368e-06,12030751.2761,2.64562165701e-05,0.0,13294794.8284,688.920187699,658.12863795,65223470.2172,1902.01184956,57653192.8766,66077419.4744,5050.25054062,5038.4588189,0.0
1.03773263979,1.0402792407,1.00361248085e-05,-52966283.9279,1.33717520667e-05,0.0,5842188.68324,678.253746402,646.700009576,67019717.2804,1676.11821389,38785420.4067,71110030.393,4307.62818777,4298.95487269,0.0
1.15455498144,0.965608019719,9.68005837618e-06,-4994084.00981,2.15610035869e-05,0.0,5540307.43838,685.180382723,654.260755643,66215484.4712,1829.21312364,47507590.2881,68710542.4907,4792.55772796,4782.56649545,0.0
1.18161472318,1.17351718545,9.82333474547e-06,3277349.02835,1.90369893017e-05,0.0,5412842.94679,686.630679716,655.938304439,65797283.5098,1860.04375923,51772823.8637,67079216.6492,4904.88271592,4893.73957894,0.0
1.05971038713,1.11565553936,1.04850339525e-05,-36948484.4292,1.34395583728e-05,0.0,5826563.92623,678.864132063,648.126282327,66999675.0552,1707.72940669,34619988.8149,69972271.3526,4398.85781698,4390.78132128,0.0
1.04728761495,1.07726363037,1.03121242034e-05,-44191014.873,1.33250352249e-05,0.0,5832606.27574,678.411212169,647.333805601,67004100.0998,1689.71695595,35617934.784,70479271.718,4347.29088966,4338.87524601,0.0
1.18188967221,1.18501284169,9.49695133615e-06,3215308.72489,1.85662428561e-05,0.0,5459654.81379,686.806574591,655.974075082,65927486.6438,1861.31789545,51998945.6291,67214309.6887,4906.02402934,4895.17726865,0.0
0.984465199518,0.963677033854,1.00402594045e-05,-94984405.4414,1.39352589646e-05,0.0,5993722.15547,680.638330432,643.345587221,67387749.1512,1615.26223214,69898480.6465,70137960.1649,4086.5150432,4079.47982797,0.0
1.1695956679,0.877639860566,1.01378160865e-05,1111209.23495,2.36409803743e-05,0.0,5431185.7345,685.892344141,655.219999339,65840707.9728,1846.25460837,50407427.1201,67451108.7116,4854.99161745,4844.36519449,0.0
1.08009128526,1.06204950478,9.79542928593e-06,-30292720.263,1.4652343491e-05,0.0,5797487.97535,680.467327541,649.393039792,66943881.3245,1734.26328795,35493442.1012,69409897.865,4483.45892511,4474.97477759,0.0
1.14971804546,1.00152496797,1.02260729355e-05,-6770851.42896,2.16845252318e-05,0.0,5567130.10551,684.508914382,653.959332451,66300558.4859,1824.54386038,46067907.0645,68678810.7505,4772.4796067,4763.08496013,0.0
1.03272161495,0.843535605032,1.00175070258e-05,-59297223.4751,1.51781538794e-05,0.0,5846867.47276,678.194448689,646.404413315,67027726.6223,1670.07701687,42259914.5254,71040978.0994,4286.82742366,4278.40914576,0.0
1.1295382951,1.08861085441,9.87257875773e-06,-12340967.0283,1.78278576569e-05,0.0,5629916.55142,683.45081154,652.642253282,66460481.5102,1797.39269767,42968628.3648,67608080.4804,4688.71346296,4679.1496289,0.0
1.10936696283,1.14721838249,9.69580063168e-06,-20408749.5513,1.56203490233e-05,0.0,5717730.54152,682.398729111,651.408392775,66726475.4796,1772.20758696,38412200.4542,68900709.9853,4604.98226271,4595.93750218,0.0
1.19962238501,1.00407954628,1.01283558109e-05,8134557.85644,2.34982264685e-05,0.0,9597335.92943,687.688952016,657.088452721,65461672.8891,1881.77785739,54702458.8577,66658078.668,4979.63252018,4968.25398434,0.0
0.984649491601,0.901170101865,9.73629216187e-06,-95045251.853,1.45950303596e-05,0.0,6001195.29481,681.480438412,643.359876867,67408363.048,1618.4030752,69952159.2539,70192228.4513,4087.28003964,4080.24217569,0.0
0.977093106702,0.921841513755,9.87091717867e-06,-94841847.9971,1.4290223405e-05,0.0,6029145.46635,681.933980312,642.876925103,67478551.5617,1614.52598237,69772811.3209,70009952.5671,4055.91348592,4049.2390037,0.0
1.05455710043,1.15619220603,1.0191125013e-05,-40838777.2557,1.26190572467e-05,0.0,5839114.94626,678.790402406,647.772140904,67032703.3332,1700.06155947,34976478.5093,70117966.1084,4377.46652388,4369.19020834,0.0
1.11978915707,0.851437902157,9.68780899344e-06,-15216358.8784,1.99595980457e-05,0.0,5629356.35185,683.082959961,651.977699032,66446788.3577,1784.24410488,41270281.2459,69233884.5783,4648.244791,4638.44251299,0.0
1.22463592433,0.913015312275,1.00104661841e-05,14087298.7324,2.73283593711e-05,0.0,15428714.4034,689.36821751,658.663830918,65137217.5813,1911.48475823,59324889.3215,66593585.4328,5083.46372189,5071.72417748,0.0
1.2150840939,0.890176656142,1.0011568864e-05,11867802.6119,2.68533435639e-05,0.0,13129980.4505,688.780476586,658.030365514,65195594.1267,1900.07110439,57464775.8867,66254265.6552,5043.81407378,5032.05082033,0.0
0.95541663175,0.875454383378,9.5576411475e-06,-93809696.5341,1.49136910686e-05,0.0,6090030.55338,686.582468828,641.483636939,67640371.5525,1617.34633218,68864280.4211,69086418.7474,3965.93443839,3959.62996259,0.0
1.07472447883,0.93360406238,9.62424344608e-06,-33149674.3148,1.56682917863e-05,0.0,5806530.68312,680.483357921,649.150657148,66959255.2767,1727.31741175,34928068.7675,69966764.1597,4461.18131162,4452.78031437,0.0
1.11634405424,0.890677047519,1.0319157977e-05,-15252582.9744,1.97170117339e-05,0.0,5625312.06528,682.420659034,651.753879788,66421821.4461,1780.11748133,41033489.4964,68962187.3015,4633.94416915,4624.39691603,0.0
1.07102903779,0.804568520736,1.0170383599e-05,-32401470.0632,1.72673403555e-05,0.0,5777721.89905,679.794339651,648.804175557,66863719.6896,1721.8885365,35030595.1704,69564636.9039,4445.84153587,4437.30698065,0.0
0.949869656688,1.04017874224,1.03115071402e-05,-93419884.7063,1.29630720648e-05,0.0,6064477.53501,685.086941483,641.11664248,67550137.6244,1606.74523947,68521122.8313,68739498.384,3942.90894491,3936.36397385,0.0
0.90207038391,0.687159581482,1.02377794095e-05,-91184329.2504,1.5136869902e-05,0.0,6140970.91303,691.807011099,638.031633721,67710545.2483,1594.58741988,66553493.2099,67710545.2483,3744.49416361,3738.34205799,0.0
1.02189991437,0.647666980947,1.01350677806e-05,-68657752.2425,1.68398291535e-05,0.0,5847906.30168,677.860315343,645.717318912,67011298.3686,1655.41519161,48462740.6631,70676967.3828,4241.90654455,4233.57589982,0.0
1.13362552714,0.897174100355,1.00784351481e-05,-11062432.3701,2.11472113295e-05,0.0,5570228.20459,683.618037549,652.83191248,66269251.4765,1802.03694152,43638691.0134,67618478.1107,4705.67956316,4695.74173232,0.0
1.10652150332,1.07431368786,9.98522870964e-06,-20757410.7854,1.64911627516e-05,0.0,5715070.60043,682.059024208,651.228251517,66708143.4857,1768.9110852,38195965.476,68781194.5793,4593.17076028,4584.2721259,0.0
1.12177531493,1.01721564714,9.63037551597e-06,-14815817.9851,1.78764872238e-05,0.0,5639538.04346,683.155550684,652.106454666,66481066.4243,1786.64726711,41542503.7662,69069105.1352,4656.48933227,4646.6533548,0.0
1.04562835475,1.00014173727,1.06280232119e-05,-45955425.6689,1.42937584477e-05,0.0,5800791.98684,678.279222673,647.298171546,66907434.4689,1687.17583683,36012916.8224,70204273.8159,4340.40330057,4331.77711112,0.0
1.07386264359,0.922270069565,1.00276479874e-05,-31699046.6963,1.59946310526e-05,0.0,5783835.03521,679.994384301,648.972817057,66885751.3058,1725.52392762,35165720.604,69555131.7351,4457.60383354,4449.02620685,0.0
1.12242219374,1.02095565652,1.00977463582e-05,-13675695.9656,1.83489963212e-05,0.0,5616719.16534,682.899102016,652.161867016,66412427.2876,1787.38260074,42132870.1225,68141979.595,4659.17452621,4649.4273914,0.0
1.03215864337,0.904070656561,9.7958119084e-06,-59813435.2731,1.45292486825e-05,0.0,5908596.93818,678.263156101,646.394111036,67223543.4459,1671.57756935,42663753.3064,71059964.9658,4284.49052863,4277.12482142,0.0
1.20170396778,0.923832575331,1.0036731253e-05,9702953.91675,2.49321012152e-05,0.0,11070916.1648,687.852278186,657.214976449,65479952.7928,1884.50793684,55806029.8357,66905085.8045,4988.27317025,4977.09783598,0.0
0.957932910048,1.02944426854,9.70705392337e-06,-93949382.2236,1.32689689228e-05,0.0,6061746.619,685.36255095,641.637490569,67535953.0213,1612.23225213,68987134.2622,69211959.9405,3976.37950961,3969.48462354,0.0
1.18847836848,0.868638447663,1.02792766818e-05,5910891.58859,2.55716624614e-05,0.0,7400760.69478,687.048767256,656.375253291,65409910.3869,1867.67399098,52953918.7789,66564914.4995,4933.37370756,4921.88278873,0.0
1.25595489881,0.71084153598,9.87609591467e-06,20956214.7775,3.6371044689e-05,0.0,22779601.9302,691.614428828,660.58234456,64593537.9226,1948.00631596,64815541.7493,65683952.2241,5213.46878496,5201.18659245,0.0
1.1687346929,0.827131401079,9.86174917025e-06,-604901.502639,2.61614410525e-05,0.0,5489550.92113,686.054880271,655.18857076,66065287.2188,1848.025127,49699895.1098,67815885.6477,4851.41771023,4841.59347025,0.0
0.902113999068,0.796067623343,9.78302890024e-06,-91383977.207,1.45675737788e-05,0.0,6181377.26401,693.041913912,638.041418157,67826602.1521,1600.0514776,66729040.2251,67826602.1521,3744.67521013,3738.78005557,0.0
1.10952805763,0.951989201917,9.57034444625e-06,-18787843.623,1.75220518608e-05,0.0,5689992.56052,682.558949554,651.408684809,66624986.4365,1771.49932472,39451534.7901,68883522.0349,4605.65096722,4596.21764051,0.0
1.03142814608,0.949006391936,1.02428046547e-05,-59266283.7188,1.4362140758e-05,0.0,5841069.03365,677.902952747,646.316690792,67007608.4293,1667.93386394,42220942.2853,70938324.1166,4281.45823438,4272.9743115,0.0
1.13510073461,0.850902369266,1.00666129048e-05,-12041678.8707,2.23086455389e-05,0.0,5519732.34218,683.942714424,652.995574376,66130351.46,1803.0875024,43178460.3928,67455700.4166,4711.80314937,4701.32768017,0.0
1.12311022642,0.993800694104,9.25873948898e-06,-15226132.486,1.79283796433e-05,0.0,5655978.42479,683.489639023,652.199390835,66542207.8063,1788.78751052,41314797.367,69379800.7699,4662.03054987,4652.24628686,0.0
1.05686008107,0.770539469094,1.02243547346e-05,-39840025.8027,1.66829839033e-05,0.0,5813262.79753,679.039658583,647.929147747,66951863.7173,1703.66266846,34817791.6591,69597501.4578,4387.02619652,4378.80660026,0.0
1.17743137772,0.868140133683,9.76577778549e-06,2355757.29806,2.38928279203e-05,0.0,5395480.21029,686.621837218,655.686172231,65736742.3061,1855.42963745,51265090.5644,66980484.7103,4887.51764892,4876.44953539,0.0
0.926178061882,0.670987255368,9.8155730887e-06,-92383104.146,1.64034253486e-05,0.0,6133465.49054,690.179753575,639.597265908,67733083.5445,1608.7348414,67608459.991,67814129.7261,3844.56513487,3838.67825525,0.0
1.09396210165,1.10177117168,9.93813114306e-06,-24746343.6041,1.51302921558e-05,0.0,5755434.88153,681.280834712,650.368333645,66824523.7746,1752.52416911,36616501.1968,69188201.0411,4541.03668395,4532.33521245,0.0
1.05360905475,0.75897915693,9.83026635856e-06,-45080725.5511,1.68385137057e-05,0.0,5792967.80717,679.301613101,647.730022105,66888918.5108,1697.41886733,35815616.1454,70427799.6291,4373.53118627,4364.59660231,0.0
0.942462520834,1.06504240732,1.02471197399e-05,-93093107.3184,1.26194135614e-05,0.0,6087610.22782,686.314691626,640.640379554,67613995.0223,1605.68243349,68233387.6301,68448642.0209,3912.16192398,3905.74880117,0.0
1.1396158711,1.19904070412,1.00981407569e-05,-9550597.06986,1.73359586744e-05,0.0,5565867.76044,683.899627333,653.271052162,66257278.706,1808.98811163,44664476.3372,68115225.7554,4730.54548094,4720.37848516,0.0
1.09600288711,1.06773356325,9.42818153424e-06,-25390817.2213,1.53218267448e-05,0.0,5763402.83346,681.76989003,650.501153605,66850502.4223,1754.90366849,36578019.6874,69432338.5584,4549.50798439,4540.67677364,0.0
1.11701247485,0.910399342997,9.97255825836e-06,-15535253.553,1.9361368843e-05,0.0,5660478.74175,682.655405132,651.809943645,66543977.6629,1781.69644988,40942445.7508,69345236.9778,4636.7187831,4627.46038774,0.0
1.1809130699,1.1935008332,1.02873876185e-05,4486266.90609,1.92606910106e-05,0.0,6182961.72648,686.232597819,655.877812078,65799122.8448,1859.49479626,52318466.6508,67078237.8973,4901.97015315,4891.2572631,0.0
1.03674697895,1.129030785,9.520123638e-06,-57918009.286,1.2467372368e-05,0.0,5869286.11146,678.646986945,646.656085774,67095678.307,1674.68077793,41524514.3646,71252413.2047,4303.53670962,4294.88086925,0.0
1.01679456638,0.939250491775,1.04826914093e-05,-69279822.0121,1.39007674194e-05,0.0,5883730.64676,677.268582176,645.396817268,67110683.2812,1649.30968258,48916805.1782,70656437.313,4220.71424504,4212.86074822,0.0
1.13875905457,1.04674681356,9.79515303854e-06,-9318075.18486,1.90970831588e-05,0.0,5603879.70212,684.080357456,653.252652506,66397477.4486,1809.27285383,45012216.1886,68077870.8301,4726.98883552,4717.35375417,0.0
1.04528129077,0.819078360949,9.84356850553e-06,-50339928.6722,1.59544867274e-05,0.0,5806311.54083,678.872936638,647.204178687,66918145.1548,1685.698846,37819784.3115,70862042.0091,4338.96263799,4329.99221388,0.0
1.00289454072,0.717891322056,1.02400697251e-05,-93464661.0023,1.6017169094e-05,0.0,5876978.14011,677.99217207,644.507923473,67053470.261,1629.14518739,68571604.2262,70577442.4195,4163.01523853,4154.74373261,0.0
1.16233566373,0.996219617762,9.93315298964e-06,-2333602.68242,2.24438976306e-05,0.0,5526981.95105,685.519911639,654.789838471,66174857.2975,1839.78387294,48713849.3033,68309454.5718,4824.85534014,4815.13594068,0.0
1.00271804023,1.20656960728,9.73640230984e-06,-95588098.3297,1.15659327085e-05,0.0,5999392.79667,678.290330892,644.51557293,67426862.8043,1631.90638841,70432128.9658,71035632.5726,4162.28258499,4155.33453087,0.0
0.965989065024,0.798831104423,9.82892021731e-06,-94193120.3838,1.52409178217e-05,0.0,6020107.15332,684.045867142,642.153986358,67425531.9934,1613.1739943,69201803.3795,69429996.8636,4009.82060891,4002.73224874,0.0
1.07460329427,0.985033214062,9.74244728447e-06,-32805192.5422,1.51908201131e-05,0.0,5808480.37122,680.23136481,649.04268352,66966100.6972,1727.12345,34975398.3618,69882107.3877,4460.67827451,4452.27915094,0.0
1.01065844931,1.07699555251,9.9059906015e-06,-84077986.172,1.26082049961e-05,0.0,5967483.93383,677.75070471,645.030116746,67344017.218,1642.71850413,60547862.9839,71460167.0135,4195.24322309,4188.18354992,0.0
1.16735784449,1.18395217224,9.65211932242e-06,-422892.243596,1.78068631816e-05,0.0,5491706.53997,685.870452599,655.084341506,66045436.4414,1843.18590207,49891030.1945,67884051.9429,4845.70241248,4835.00975097,0.0
1.11054668489,0.831993205369,1.01280677694e-05,-17289771.9496,1.98996445566e-05,0.0,5664954.87521,682.247562585,651.44550661,66550618.0675,1773.22402486,40099985.3983,69047168.8408,4609.87928898,4600.72565228,0.0
1.12456251003,0.78149944879,9.8062662112e-06,-13584661.5217,2.17513298636e-05,0.0,5626200.90061,683.320970805,652.301796917,66455396.2529,1791.3755448,42055218.8394,68484300.7201,4668.05897913,4658.57713875,0.0
1.24153506147,0.875283435585,1.00084691879e-05,17668244.4338,3.01164699488e-05,0.0,19225713.932,690.532513115,659.691245841,64751907.7267,1930.08193367,62160049.7595,66905959.3028,5153.61204016,5141.12787239,0.0
1.22045473749,0.89406057275,1.03497691358e-05,13370632.2954,2.79587485531e-05,0.0,14595645.4403,688.975710508,658.382399597,65015228.1149,1905.50728687,58640127.6925,66386617.7392,5066.10761532,5054.11401097,0.0
1.06009707954,0.892335438444,9.70611145468e-06,-42371945.4347,1.56916745307e-05,0.0,5790538.39226,679.635465841,648.113611434,66891856.0121,1705.90638114,35207393.229,69635723.9192,4400.46297717,4391.42073154,0.0
1.10651336199,0.981210731137,9.85982891258e-06,-18336900.6014,1.7544638995e-05,0.0,5731277.71813,682.098013148,651.228021163,66755240.3438,1769.19699046,39625108.0048,69007624.8076,4593.13696562,4584.46790686,0.0
1.0425370918,1.27525624916,9.65575448814e-06,-51850294.3653,1.15008237172e-05,0.0,5859106.4168,678.71500433,647.029883945,67075806.6085,1682.29469646,38402915.5652,71036368.4068,4327.57146806,4318.82078633,0.0
1.1266580575,1.11189347209,1.0087795372e-05,-12604380.6307,1.74055898583e-05,0.0,5611037.28453,683.136072767,652.442975746,66402005.8047,1792.72122755,42793232.9671,67263172.4825,4676.75759668,4666.93899246,0.0
1.14536436868,1.04175462489,1.02788251982e-05,-7403796.1139,2.01359248609e-05,0.0,5531897.05957,684.078376662,653.534631851,66171766.0361,1816.65760254,45572258.6726,68516699.0552,4754.40749439,4744.24535284,0.0
1.2569083122,0.871567795628,9.77271422544e-06,20661336.7518,3.17172685751e-05,0.0,22404591.5469,691.626034825,660.624997207,64554932.4436,1947.9248193,64573318.17,65381572.4574,5217.42640394,5204.65638715,0.0
1.06742591924,0.961553907635,1.00909898323e-05,-34377595.2238,1.52160020647e-05,0.0,5800557.08887,679.641556588,648.6249726,66925107.0684,1717.0277498,34766079.493,69946282.7193,4430.88499077,4422.4069498,0.0
1.00813190326,0.985109683679,9.93841065584e-06,-86827983.5699,1.3400412929e-05,0.0,5967594.79066,677.776446198,644.863841214,67339974.6717,1639.37217541,62849293.4602,70895153.1553,4184.75553043,4177.73145572,0.0
1.06596668972,1.17967265079,1.01801861582e-05,-35496149.4416,1.29123791199e-05,0.0,5813838.85145,679.425350105,648.529619959,66965303.8586,1715.16148655,34674135.8009,70040972.4174,4424.82772903,4416.37223711,0.0
1.11472117923,0.719759829351,9.75400014503e-06,-18396287.8511,2.18561717326e-05,0.0,5665611.05326,682.855257674,651.716751117,66575276.317,1779.62472007,39478337.4013,69043003.9264,4627.20761498,4618.07686099,0.0
1.14049639358,0.980521109336,1.01278819625e-05,-9362087.00235,2.07050943968e-05,0.0,5567875.02352,684.020239861,653.325656403,66289168.1984,1811.50275351,44736606.0341,68105808.39,4734.20052975,4724.42804825,0.0
1.14768000184,0.730053830701,1.0203930335e-05,-7297414.78485,2.64675412322e-05,0.0,5549773.15999,684.519897096,653.806812879,66243757.372,1822.27434229,45792207.3122,68521235.128,4764.01968764,4754.65603359,0.0
1.01326531501,0.995864440818,9.9393490346e-06,-80519820.5371,1.33791858781e-05,0.0,5955443.29789,677.715837793,645.178426449,67310830.597,1646.28032559,57615806.0111,70783652.6274,4206.06432261,4198.96783868,0.0
0.921627077771,1.09895852741,1.00475301285e-05,-92125304.302,1.24897535632e-05,0.0,6110602.02418,689.813922623,639.289532307,67637238.7562,1601.4811135,67381579.6552,67637238.7562,3825.67399983,3818.95938231,0.0
0.939778379056,1.0942865667,9.49430581834e-06,-93205849.8662,1.27905439661e-05,0.0,6123947.29836,688.728356906,640.471495246,67703242.4297,1612.38385732,68332541.399,68545770.2418,3901.02005146,3894.61489982,0.0
1.11783484482,0.958836168638,1.00713788419e-05,-15209563.0291,1.89216514009e-05,0.0,5656685.57295,682.617186155,651.859927567,66533591.1603,1782.69219527,41243611.8017,69181467.619,4640.13244085,4630.86070179,0.0
1.16441988103,1.00471224905,9.52472147408e-06,-2529296.08698,2.02609617719e-05,0.0,5459976.42923,685.942236575,654.89706884,65937254.5654,1839.05592558,48722565.1547,68070524.4139,4833.50692616,4822.45113681,0.0
1.12968219493,0.932361091873,9.77495206878e-06,-13448463.5094,2.0344888427e-05,0.0,5561063.0006,683.713828114,652.630859626,66258107.0818,1795.93639577,42183970.4738,67687741.4762,4689.31079115,4678.90716295,0.0
1.01605534087,0.830519988996,9.83304308568e-06,-78152350.2509,1.47871458999e-05,0.0,5945219.13307,677.910360556,645.371437801,67296043.3866,1650.12282483,55710545.4945,70919954.1193,4217.64571995,4210.50974833,0.0
0.9482965452,0.836276452557,9.89798744226e-06,-93451168.8301,1.47216149293e-05,0.0,6093728.19207,686.492202926,641.023032854,67641345.3361,1611.40502081,68548541.9564,68767248.1143,3936.37895913,3930.16988585,0.0
1.13362142277,1.10056616499,9.93283911963e-06,-10770637.123,1.83338851281e-05,0.0,5638403.45887,683.637227805,652.932561785,66502960.2529,1803.53033107,44070511.1283,67818149.123,4705.66252592,4696.44732591,0.0
1.06802483195,1.170346031,9.8842682564e-06,-35732532.0038,1.29603475692e-05,0.0,5819920.81583,679.757985797,648.662328634,66993261.1432,1717.85962418,34701526.5545,70179365.3508,4433.37107742,4424.88335957,0.0
1.00204343995,0.67743550156,9.89210885297e-06,-95870293.8977,1.6081549335e-05,0.0,5964843.72704,678.371801177,644.477778956,67324965.0108,1631.14331863,70678829.4446,70803855.7997,4159.48231923,4152.54376022,0.0
0.990865762397,0.901589487261,1.02111302625e-05,-95132150.2871,1.44518780215e-05,0.0,5919437.57236,679.160407653,643.738583091,67161627.1199,1613.09901584,70028690.1316,70279074.0932,4113.08377971,4105.0035888,0.0
1.10261454813,0.784155517918,9.91179476691e-06,-21915095.5791,1.99211919273e-05,0.0,5706878.84349,682.033102337,650.994333875,66689507.1886,1764.12051021,37557058.4655,68500159.8779,4576.95298929,4568.11547772,0.0
1.19774116451,0.872598837457,1.02827847312e-05,7993830.97101,2.61374149106e-05,0.0,9430891.97867,687.583408078,656.970199988,65408645.1089,1879.60589439,54512322.066,66533854.9624,4971.82357388,4960.49936196,0.0
0.95790534158,0.996087283115,1.06027449417e-05,-93668352.7371,1.3364998482e-05,0.0,6030958.99831,683.231427994,641.631971303,67465725.8396,1606.0461079,68739886.5924,68961677.5527,3976.2650729,3969.60772389,0.0
1.09934065473,1.08116972937,9.77433612931e-06,-23064779.383,1.54194936028e-05,0.0,5720529.93158,681.783764682,650.750843169,66710008.3321,1758.31137867,37277377.3826,69288372.9233,4563.36305778,4554.08734289,0.0
0.943770107158,0.918106410405,9.86941385893e-06,-93286273.9959,1.40663195499e-05,0.0,6108363.49053,687.130479413,640.731690619,67678603.8906,1610.26961114,68403340.7716,68619834.7308,3917.58971481,3911.44342569,0.0
1.0446123169,0.889837424646,9.8839829817e-06,-47892841.733,1.49685971354e-05,0.0,5829508.13292,678.705728787,647.165264611,66981298.279,1685.34060531,36769519.6629,70818346.3363,4336.18572745,4327.54597789,0.0
1.15953837363,0.81616650414,1.00963874224e-05,-2227949.2156,2.38925771936e-05,0.0,5474213.44473,685.349126547,654.595649019,65987619.6979,1834.41994494,48605006.1031,67913762.5886,4813.24378894,4802.90913971,0.0
1.02849722503,1.08950866621,9.71974416942e-06,-64107604.911,1.27651028117e-05,0.0,5930400.27882,678.14566151,646.151554357,67281760.389,1666.56384723,45369740.2653,71011329.4765,4269.2919811,4261.97878119,0.0
1.093522083,0.970590864629,9.93634062099e-06,-25124999.4887,1.68345551411e-05,0.0,5744149.48645,681.339674116,650.343140396,66793207.5327,1751.91486824,36518131.6753,69191003.2015,4539.21016653,4530.51646053,0.0
1.13102110186,1.13899972428,9.80510341372e-06,-12144059.8844,1.7007323178e-05,0.0,5581883.49527,683.618586009,652.720775829,66300354.4076,1797.21983149,43058757.7201,67394035.6297,4694.86859382,4684.47053236,0.0
1.12597354676,0.954439005228,9.896522292e-06,-13237090.3851,1.95189824569e-05,0.0,5581355.19248,683.340365447,652.390614891,66302023.4395,1791.17550312,42255233.4542,67769410.8408,4673.9161926,4663.71247209,0.0
1.15263519098,0.899789696646,9.74916945922e-06,-5369303.91128,2.25747298247e-05,0.0,5537202.97395,685.05781835,654.139866687,66205320.0055,1826.82183027,47302839.3954,68733905.0609,4784.58867776,4774.6296913,0.0
1.05395287216,0.896699053818,1.00648042037e-05,-43829917.4646,1.57114660813e-05,0.0,5780271.52896,679.036360263,647.72558278,66858692.9375,1697.03055086,35480395.3004,70229454.4214,4374.95837234,4365.84261082,0.0
1.21564612294,1.22617767812,9.76670711836e-06,11872379.7963,2.05365326873e-05,0.0,13165603.3386,688.661552611,658.069735394,65477062.3239,1901.34890623,57581557.102,66531180.7369,5046.14705632,5034.73840041,0.0
1.05803644305,1.08944299783,1.03037422472e-05,-39029094.649,1.35008534629e-05,0.0,5826400.86977,678.933845475,648.013448518,66995341.0282,1705.02082887,34744652.2729,69763558.3512,4391.9092751,4383.67156228,0.0
1.26392454625,0.808377631584,1.0271727708e-05,22290417.9973,3.46336797248e-05,0.0,24266080.2716,691.918646241,661.095702287,64277111.7238,1954.63369805,65634316.5661,66529215.1302,5246.55079148,5233.5644176,0.0
1.20430659553,1.0973596495,1.01071918736e-05,8999822.31027,2.22520285632e-05,0.0,10377683.4679,687.920166947,657.333986137,65339109.1501,1886.18765543,55213987.2662,66813501.9173,4999.07667805,4987.19308036,0.0
1.11337019394,0.837276310227,9.60913980897e-06,-17492860.651,1.93446391251e-05,0.0,5666529.49355,682.797740575,651.631337341,66559693.1939,1776.59626685,40034757.1773,69112224.9602,4621.59967504,4612.10264657,0.0
1.03787363936,0.953500495647,9.97166134191e-06,-53414057.7802,1.42251418334e-05,0.0,5838340.91975,678.356269494,646.711978174,67007489.6394,1676.36137189,39058093.9366,71206733.4307,4308.21347698,4299.53921461,0.0
1.21127477847,0.906355533654,9.70308720576e-06,10751575.9634,2.57953834718e-05,0.0,12134787.5736,688.656127538,657.758828685,65340741.6663,1895.8656795,56648589.264,66885456.9561,5028.00160543,5016.30811029,0.0
1.04296943969,0.96050702515,9.77366603885e-06,-51468317.5014,1.41475743813e-05,0.0,5881767.66206,678.640483725,647.057982214,67151055.2323,1685.53608456,38222166.4226,71050149.3072,4329.36614415,4321.66077532,0.0
0.984325499251,0.88434479132,9.66281596596e-06,-95044037.6613,1.47669636341e-05,0.0,6004790.2403,681.739185805,643.339419541,67415049.7421,1619.09132444,69950961.3551,70191180.8537,4085.93514739,4078.90193971,0.0
1.19737435237,0.816799050672,1.01374276787e-05,8405509.45236,2.72591519636e-05,0.0,9824012.41315,687.686387298,656.947395636,65396764.2328,1879.12958948,54798064.7765,66560459.5438,4970.30093669,4958.96265046,0.0
1.04823640727,0.934086749304,1.00884030632e-05,-45739142.0706,1.47395758156e-05,0.0,5815840.84239,678.70939185,647.388842293,66951990.7001,1690.34464021,36150126.5527,70494083.1272,4351.22932658,4342.53051649,0.0
1.05766148008,0.891760517595,1.02521099601e-05,-39377952.1194,1.54883964346e-05,0.0,5817417.95971,679.026700449,647.990322988,66965517.3555,1704.65222786,34771006.1232,69693272.9092,4390.35280381,4382.12086739,0.0
1.04231604685,1.13738972736,9.65469140455e-06,-53202350.1484,1.23817000809e-05,0.0,5905317.31853,678.670695644,647.030030903,67226290.3519,1685.07572401,39049959.2952,71164367.4978,4326.65391047,4319.14293439,0.0
1.09715702013,0.783521130981,9.93946670242e-06,-23632338.1493,1.94468864781e-05,0.0,5721840.66222,681.651806895,650.607597769,66725867.4372,1756.97153842,36923146.2691,69063403.1688,4554.29879056,4545.54789887,0.0
1.14783348295,1.08101401504,1.0069059731e-05,-7676969.38223,2.00050764949e-05,0.0,5588730.05156,684.407928633,653.803595919,66359814.4908,1822.14530291,45676844.1853,68588358.9033,4764.65678773,4755.29235017,0.0
1.24841110479,0.986666470667,9.64594005926e-06,19115231.3612,2.74386793508e-05,0.0,20694174.941,690.999268699,660.112776322,64833268.603,1938.2368168,63291085.5332,65638120.2023,5182.15449598,5169.71138506,0.0
1.11491030461,0.961039992128,1.02136683726e-05,-15689973.8411,1.85150627632e-05,0.0,5639531.75822,682.331518637,651.661503015,66481700.5329,1777.87932313,40882570.8422,69286256.0923,4627.99267444,4618.46958973,0.0
1.19290643099,1.09094253615,1.05214233484e-05,7518775.73943,2.1868100211e-05,0.0,8900200.85628,686.971103205,656.671794939,65525372.1034,1873.30653175,53950301.8756,66492275.2275,4951.75459504,4940.61452814,0.0
1.116653187,0.866957508706,1.03154916748e-05,-15175121.5351,2.00678661693e-05,0.0,5622377.76448,682.455683552,651.774940785,66412924.1237,1780.5466003,41090715.8495,68894519.9497,4635.22737924,4625.6758985,0.0
1.00927643504,1.03898945231,9.79149370289e-06,-86874092.8777,1.29547454184e-05,0.0,5973619.72765,677.942905011,644.939545577,67357357.1029,1640.8467916,62890814.4333,70970096.2014,4189.50648185,4182.46629048,0.0
1.08118034238,0.893455650472,9.96274121386e-06,-29237272.2693,1.67694129469e-05,0.0,5772108.7337,680.684078464,649.60510668,66858673.4782,1735.83379067,35629647.7054,69314168.8848,4487.97960122,4479.47853944,0.0
1.09017502196,0.930737468947,9.87880424399e-06,-25608810.5222,1.66239951529e-05,0.0,5713770.12994,681.259360158,650.145330811,66676520.2441,1745.58655816,36345982.8925,69207076.6345,4525.31651616,4515.90714624,0.0
1.06512902719,1.03249104785,1.01476243206e-05,-35991371.5039,1.42667225089e-05,0.0,5808625.58988,679.456256061,648.474912832,66946913.0396,1714.16157419,34659939.0185,70081773.5982,4421.35059187,4412.90820153,0.0
1.11435809001,1.15492266894,1.03637451274e-05,-15761905.3997,1.6146400987e-05,0.0,5651709.02312,682.137011446,651.627857426,66500231.4024,1777.31287145,40798924.4059,69268777.1917,4625.70043163,4616.18619727,0.0
1.16484571415,1.28591894886,1.0024093413e-05,-254105.487059,1.68184871177e-05,0.0,5467633.65324,685.451394911,654.9111433,65941395.45,1838.72500155,49807585.3537,67793731.6965,4835.27455944,4824.31627911,0.0
1.10647374491,0.781535271494,1.03474522343e-05,-17953867.3776,2.02881327539e-05,0.0,5596366.60282,681.982213905,651.169173463,66326265.3386,1765.35859001,39591472.4947,68713083.4961,4592.97251512,4582.83868833,0.0
1.05766213976,0.944194754044,1.0146815098e-05,-39459197.2864,1.48269634374e-05,0.0,5820963.49917,679.083574808,647.986164491,66981911.874,1704.33830777,34769776.646,69727376.1674,4390.35554214,4382.03101665,0.0
1.09507009061,0.866260329148,1.01621031004e-05,-23884521.2396,1.83532876483e-05,0.0,5722411.08999,681.33383379,650.470815136,66715622.8567,1754.00959125,36787146.8183,68949208.6514,4545.63594612,4536.91795244,0.0
1.07268911944,0.938698153206,1.01311261024e-05,-31826909.7494,1.57992651293e-05,0.0,5783880.73762,679.843124577,648.894296301,66885226.7895,1723.97027984,35147038.1287,69527934.9603,4452.7325348,4444.1718899,0.0
1.08873139085,0.915692216349,9.8457492488e-06,-26977948.5245,1.69959731326e-05,0.0,5757708.69194,681.187250646,650.085603428,66823960.8769,1745.7070416,36066289.3882,69343168.261,4519.32400342,4510.70528597,0.0
1.12801129406,1.1290700628,1.02380378267e-05,-12231749.6295,1.74273488656e-05,0.0,5603993.75486,683.034594194,652.457638566,66369138.2501,1794.56294526,42935286.5648,67317176.821,4682.37488164,4672.53298514,0.0
1.04049987419,0.847585692414,1.01050074387e-05,-52697580.2768,1.53886676338e-05,0.0,5873770.12184,678.294843653,646.889134133,67130228.95,1682.80664942,38774677.2328,70754500.5667,4319.11497776,4311.63050352,0.0
1.2131835753,1.08044650918,1.00601701354e-05,11740933.3247,2.30862231086e-05,0.0,13031711.864,688.446700549,657.906202409,65358506.4548,1897.7619383,57401094.4869,66410179.1592,5035.92502107,5024.40003731,0.0
1.15363399636,0.892719127627,1.00499850001e-05,-4320079.29905,2.34655766398e-05,0.0,5536665.98204,684.91377047,654.200903517,66196198.7928,1828.64366656,47738964.5822,68565093.9922,4788.73471889,4779.06002045,0.0
1.01410357854,0.9915091734,9.84257781932e-06,-80428977.6178,1.34428850309e-05,0.0,5957054.43163,677.835053979,645.230126557,67315698.1629,1647.38867305,57544690.8268,70819733.1562,4209.54395452,4202.43561635,0.0
1.28298749913,0.888994721189,1.01036012657e-05,25507078.7987,3.42127749544e-05,0.0,27132911.9985,692.991270184,662.193764614,64048653.8204,1975.63760072,67595655.5253,68473853.6753,5325.68110889,5312.34334479,0.0
1.11268269518,1.02448577678,9.90664472503e-06,-17027942.8619,1.74170062143e-05,0.0,5686281.6647,682.410797366,651.567311373,66627937.1467,1776.01022606,40314760.4685,69819789.2039,4618.74586769,4609.55759871,0.0
1.01350683805,0.879784723994,1.01653072855e-05,-80434223.2009,1.47870727374e-05,0.0,5860863.69348,677.675806828,645.17086059,67016735.0069,1643.02714124,57532040.1968,70805524.6075,4207.06688475,4198.53779782,0.0
1.01563417849,0.826075032508,9.80586364369e-06,-78919749.3206,1.48248048386e-05,0.0,5947270.28327,677.937269748,645.346197023,67298152.4072,1649.54459044,56324225.0207,70954325.0919,4215.89747491,4208.76747007,0.0
1.09290301044,0.963773057003,9.89359678401e-06,-25436393.5688,1.68285346322e-05,0.0,5747094.25324,681.315827472,650.302006853,66799125.7851,1751.11751319,36422343.9985,69247624.8401,4536.64039634,4527.9563956,0.0
1.10362144425,0.828381053987,1.0072308706e-05,-21486032.1033,1.95688816427e-05,0.0,5697701.87692,681.958177441,651.052544928,66653686.7668,1765.20346118,37758302.7134,68594286.8379,4581.13261508,4572.27995573,0.0
0.956584210961,0.998028074237,9.79008092503e-06,-93858523.547,1.35989869638e-05,0.0,6053659.678,685.336051667,641.548997055,67512366.073,1610.94736805,68907154.5896,69130500.519,3970.7810597,3963.8277863,0.0
1.10688367634,0.910366848123,1.01681491901e-05,-18307235.7575,1.85436367101e-05,0.0,5668267.83272,681.991998374,651.222497556,66558916.9714,1767.79946765,39626171.6202,68863554.3796,4594.67414049,4585.38382868,0.0
1.08563230658,0.878332048574,9.7075138082e-06,-28075723.6961,1.69196067647e-05,0.0,5767180.20552,681.135975312,649.901223824,66852033.322,1741.47075859,35867344.5708,69391597.6929,4506.45970461,4497.79228596,0.0
1.09144489169,1.1480276964,9.55892387603e-06,-26572681.9582,1.42137701143e-05,0.0,5775792.22199,681.43598494,650.254176977,66884469.2574,1748.875854,36252739.0955,69486598.3183,4530.58774541,4521.82867719,0.0
1.17647805251,0.914233593455,1.01434594134e-05,2730543.2221,2.34304511164e-05,0.0,5383916.39745,686.30100243,655.614335634,65686714.1272,1853.81107016,51272312.4495,66912562.8105,4883.56039597,4872.49618548,0.0
1.23281600223,0.958617926413,1.0092013541e-05,15941849.2426,2.75270793417e-05,0.0,17443442.2602,689.779324387,659.186477991,65104663.5978,1921.39833104,60869668.5714,66765007.3425,5117.41922526,5105.75947114,0.0
1.11490528207,0.878902679283,1.01751517851e-05,-15644850.2487,1.95091114192e-05,0.0,5634332.94645,682.411736067,651.663920321,66463470.6287,1777.96038281,40739469.85,69291022.6915,4627.97182587,4618.44882465,0.0
1.06496644265,1.00487134749,1.00105267219e-05,-35909136.8804,1.43045124799e-05,0.0,5776815.05944,679.707481929,648.531549828,66844804.2921,1712.13591656,34586173.3156,70128072.0251,4420.67570344,4411.52023989,0.0
1.13880672892,1.07857947232,9.66918128251e-06,-10369206.0611,1.8512290975e-05,0.0,5613187.12736,684.113998831,653.219663341,66429995.5795,1809.60421886,44244421.8767,70298031.0612,4727.18673175,4717.54768927,0.0
0.988319525959,1.23923244434,1.00985663303e-05,-95340425.4455,1.13826044733e-05,0.0,5998895.67399,679.310078996,643.592965253,67401289.817,1612.42976854,70211787.8372,70453728.2528,4102.51435226,4095.43052393,0.0
1.08573846967,0.945402786493,1.0314242467e-05,-26719727.9743,1.6871175013e-05,0.0,5753143.84235,680.668874959,649.890069834,66804131.7317,1742.10117794,36017766.4921,69188693.9034,4506.9003876,4498.42582318,0.0
1.16255362137,1.19422864868,1.05128793236e-05,-1200362.19291,1.9430512322e-05,0.0,5473828.02742,685.095116734,654.774854337,65958674.9089,1837.70624668,48929020.7986,67557753.7152,4825.76008231,4815.40648201,0.0
1.04658665302,1.01384262246,1.02214640674e-05,-47063480.8357,1.40501791242e-05,0.0,5816017.19666,678.539608744,647.281548605,66954708.205,1688.19601481,36385903.6877,70189162.4114,4344.38119669,4335.65214902,0.0
1.13109649912,0.793541896417,9.58393267841e-06,-12192315.7823,2.2097452985e-05,0.0,5610747.55877,683.896523166,652.745788474,66411849.5213,1799.75950175,42920763.2058,67740589.9621,4695.18156785,4685.56643265,0.0
1.0304087325,0.979372302547,1.01172533155e-05,-59762937.5403,1.38559541643e-05,0.0,5854424.83491,677.960815934,646.258773988,67046431.0352,1666.72723259,42526494.1562,71041879.113,4277.22664861,4268.75886094,0.0
1.03534619973,1.05773346472,1.01749359165e-05,-54865782.4195,1.32221532905e-05,0.0,5846713.10862,678.062748236,646.574371188,67028730.7016,1673.22417161,39784954.1466,71059481.7073,4297.72207508,4289.17447246,0.0
1.12478378318,0.751589139573,1.00165243218e-05,-13121699.9178,2.23987577704e-05,0.0,5586962.84689,683.258006029,652.317994192,66323940.7843,1790.74647807,42496967.3855,67689778.15,4668.97748398,4659.19052899,0.0
1.13988605851,0.931661187119,9.75945551413e-06,-9065189.43351,2.09463973652e-05,0.0,5590894.68577,684.230023517,653.321194538,66358315.0418,1810.85037321,45179568.02,68119025.5827,4731.66702888,4722.01334447,0.0
1.09402006532,1.08396649419,9.95295350858e-06,-24692324.3575,1.53519797314e-05,0.0,5753484.8522,681.282204968,650.371898564,66818325.8928,1752.60308249,36629998.5668,69213935.2791,4541.27729114,4532.57566503,0.0
0.982186837116,1.02694201852,9.61792163052e-06,-94992424.9822,1.35542476552e-05,0.0,6019667.10336,682.113431524,643.202420752,67454766.1306,1618.99859042,69905369.7206,70144097.2213,4077.05756087,4070.05505623,0.0
1.0528468487,0.680800061573,9.58806578502e-06,-44582383.5905,1.71578386533e-05,0.0,5811627.62758,679.432825564,647.689815831,66938581.042,1696.70985586,35730377.4765,70620479.6423,4370.36726895,4361.59168453,0.0
1.19467381274,0.812045598411,9.98714269968e-06,7239054.00052,2.6834966703e-05,0.0,8688183.63703,687.635308366,656.801386825,65478061.0447,1876.16808391,53984275.8968,66545572.5388,4959.09099668,4947.80412381,0.0
1.11884410322,0.806134291695,1.01423766882e-05,-14453495.1209,2.09787620237e-05,0.0,5610896.12645,682.73928521,651.916144198,66389788.9842,1782.97911307,41550961.678,68663450.8257,4644.32187247,4634.63494674,0.0
1.109049982,0.936169325703,1.03873374421e-05,-17424613.7477,1.87554415501e-05,0.0,5598381.51848,682.021704505,651.315943266,66322830.3538,1768.72041698,39869934.8166,68865173.8916,4603.66647528,4593.47141759,0.0
1.07318436085,0.976025142472,1.02704359359e-05,-31458989.9395,1.5644629831e-05,0.0,5779176.17775,679.946276966,649.057279617,66878542.0014,1724.92601757,35153314.8019,69371017.8276,4454.78828189,4446.31457781,0.0
1.1599216446,1.01295230598,1.01143995249e-05,-1723587.92125,2.03867101093e-05,0.0,5462790.15342,685.261897247,654.608575333,65930710.0862,1833.5132361,48897584.216,67666388.6316,4814.83474673,4804.07888019,0.0
1.20194750962,0.974200212719,1.04099671489e-05,9299387.28787,2.46484642927e-05,0.0,10615114.9563,687.612853579,657.198241082,65431115.5768,1884.75632038,55325354.2697,66817868.8114,4989.28411243,4978.10629002,0.0
1.00705562398,0.913985553882,1.04195110784e-05,-84857613.4585,1.45060964483e-05,0.0,5870528.58408,677.439015136,644.769699036,67042318.134,1634.61168353,61193939.9459,70556544.3871,4180.28789514,4171.94790065,0.0
1.07666901518,0.981651670956,9.56138555065e-06,-31585810.7635,1.48896617954e-05,0.0,5776513.01039,680.493602075,649.151528218,66853744.3031,1727.9159387,35102198.0489,69631665.2003,4469.25308201,4460.08705718,0.0
1.0484012069,0.833677334746,1.01093790207e-05,-46906547.53,1.58957231199e-05,0.0,5806742.98119,678.79229699,647.398468726,66932535.8303,1690.9067554,36374363.4316,70236426.3128,4351.91340984,4343.24368011,0.0
1.1708754544,0.934578870511,9.78507037702e-06,980771.624286,2.21568854044e-05,0.0,5428201.83835,686.161567816,655.294137212,65845631.4729,1847.07824101,50574487.7748,67654373.9904,4860.30401121,4849.34154812,0.0
1.11507938399,1.20784356902,1.01778985533e-05,-15790731.1713,1.53953199122e-05,0.0,5660262.6673,682.264958194,651.676163511,66542662.0824,1777.87439937,40843185.7137,69367833.4681,4628.69452294,4619.16862763,0.0
1.13649288803,1.14067868772,9.88822810248e-06,-10875700.1183,1.77194011912e-05,0.0,5608881.45252,683.891026441,653.106628116,66405468.1396,1806.36978998,43969485.5324,67784590.9797,4717.58197821,4707.87620541,0.0
1.13197110602,0.769890109428,9.79278935028e-06,-11667601.8301,2.28190526956e-05,0.0,5594977.88013,683.840628018,652.80646385,66353218.9321,1800.84028489,43365005.1745,67453238.3815,4698.81206109,4689.18243745,0.0
1.06144291587,0.976211962371,9.77603179365e-06,-39182252.4718,1.45371833271e-05,0.0,5828181.30624,679.560073885,648.23669662,67003874.5825,1709.28254491,34810364.0924,69947262.4721,4406.04954378,4397.66470781,0.0
1.05119610638,0.908222429545,1.0060013928e-05,-42989662.1043,1.49176557071e-05,0.0,5827301.84471,678.847723334,647.578524339,66988507.4798,1695.12947514,35347637.5588,70547573.3325,4363.51503758,4355.10888617,0.0
1.05462692313,0.819399388213,1.0098302282e-05,-40425656.9431,1.6020971351e-05,0.0,5812310.0992,678.975752157,647.7713484,66948666.1043,1699.58362653,34887001.2254,69877514.6138,4377.75635791,4369.29507437,0.0
1.06132695969,0.866944713859,1.04474145746e-05,-36100400.8216,1.61340538268e-05,0.0,5799659.83016,679.076755604,648.230035887,66921182.5191,1709.40919948,34592256.0162,70027017.8847,4405.56820967,4397.27998431,0.0
1.0745998572,0.810157205311,1.01652960533e-05,-32308415.1039,1.77150671915e-05,0.0,5786727.31994,679.984158714,649.028327453,66907506.1658,1727.87824053,34954075.4023,69516981.4414,4460.66400724,4452.45714722,0.0
1.04392056851,0.972064533301,9.75695089958e-06,-50658044.397,1.420394019e-05,0.0,5833939.69404,678.782282602,647.091252681,67003030.9258,1684.35000615,37867309.9736,71065247.5701,4333.31427989,4324.54087556,0.0
1.24526239801,1.01605448232,1.03610505662e-05,18874987.3431,2.83400977285e-05,0.0,20587036.9734,690.448794694,659.899372012,64695203.977,1933.17582209,63125927.6478,64910909.4556,5169.08421414,5156.53621569,0.0
0.982422662684,0.979868240327,9.77379143875e-06,-94990628.4853,1.37215695036e-05,0.0,6009769.89037,681.46439389,643.215726164,67420658.2529,1616.02404883,69903814.2188,70143602.1496,4078.0364728,4070.94806876,0.0
1.01115932842,0.64110528219,1.04317916041e-05,-80403909.3091,1.70354645345e-05,0.0,5842708.11942,677.484790762,645.030565987,66963071.8617,1640.28483478,57500342.0169,70476053.7474,4197.32237227,4188.91438197,0.0
0.989883291187,1.05851543272,1.02819232096e-05,-95109498.1011,1.30817358228e-05,0.0,5927493.72841,679.044902095,643.678188823,67188183.2215,1611.81756082,70008795.1339,70254180.8715,4109.00554172,4100.94108652,0.0
1.04472701543,0.754170572204,1.01171477724e-05,-48696068.3417,1.65114073165e-05,0.0,5810318.63103,678.647453036,647.173244358,66935694.9266,1686.09278861,37069685.0412,70870973.7779,4336.66184105,4328.05162419,0.0
1.02877994257,0.763157285866,9.69682644347e-06,-63896644.2634,1.57294150562e-05,0.0,5914368.64771,678.285607327,646.167853366,67233519.3984,1667.1201482,45222731.907,70960032.8922,4270.46554161,4263.14829303,0.0
1.25824436477,0.921303397511,1.00457052912e-05,21090897.1696,3.13863143189e-05,0.0,23012097.6328,691.548787316,660.721573877,64506322.1888,1948.84038544,64888363.3227,65720337.963,5222.97235816,5210.17681776,0.0
1.10281353552,1.08319522339,1.02347373551e-05,-21352420.2334,1.63639280528e-05,0.0,5712784.87697,681.676166419,650.996696321,66702072.0483,1763.90461656,37779735.0594,68631593.7613,4577.77898594,4568.93908545,0.0
1.15501131412,0.938349379506,9.9560896344e-06,-4140136.01557,2.11414744082e-05,0.0,5467696.16705,685.083290821,654.257810839,65962347.6591,1827.14941487,47540817.0578,67864473.6535,4794.45196491,4783.57832767,0.0
1.06621602154,0.982034090687,1.04079960328e-05,-34866679.7867,1.51406506467e-05,0.0,5795490.95305,679.346773836,648.546509818,66918206.949,1715.93823167,34670857.7961,69795433.5733,4425.86270541,4417.49709879,0.0
1.21123298608,1.00097905533,9.86354057174e-06,10809178.948,2.43240476872e-05,0.0,12129276.3361,688.511317602,657.742657472,65272773.113,1894.94025188,56690606.8144,66601187.4502,5027.82812522,5015.91652152,0.0
1.00475033676,1.10468755207,9.84697889053e-06,-91900370.0829,1.23303209895e-05,0.0,5985519.84459,677.991186832,644.651469068,67388324.5084,1634.72075936,67194617.2909,71194419.686,4170.71864789,4163.74209811,0.0
1.22451454406,0.938277967297,9.86217360521e-06,13565750.7616,2.6716042755e-05,0.0,14893648.3118,689.483695406,658.643598906,65048724.1987,1910.56551078,58886416.8566,66462408.3801,5082.95987239,5070.77276582,0.0
1.0906685245,0.911022998445,1.01216318165e-05,-25469947.7253,1.7405280936e-05,0.0,5740118.29381,681.056986338,650.164230578,66777341.1982,1748.23108957,36334125.4175,69164917.7682,4527.3650452,4518.71603786,0.0
1.05875481678,0.963308329741,9.67433447499e-06,-40969892.433,1.46871153951e-05,0.0,5819413.03183,679.496938989,648.034708101,66972952.4473,1704.71839084,35000067.397,69764164.6027,4394.89124445,4386.20051029,0.0
1.20515610086,0.913411523958,1.00512877004e-05,9193974.41979,2.57381416122e-05,0.0,10581772.1842,688.142383861,657.381567199,65256406.7897,1887.58345625,55361744.3651,66780271.7593,5002.60297467,4990.70354022,0.0
1.05433194522,0.792872045251,1.01263038014e-05,-40476213.6074,1.62822082286e-05,0.0,5810382.61508,678.950134517,647.752864413,66934188.0219,1699.20929159,34893495.5736,69895278.845,4376.53190461,4368.07670297,0.0
1.11565165477,0.846325712109,9.91305009065e-06,-16096012.8289,2.00029966343e-05,0.0,5662419.73416,682.652101602,651.734130355,66544967.2131,1780.01788589,40750284.2385,69350105.6554,4631.07001895,4621.83368707,0.0
1.13783137853,1.20207865023,9.44636964206e-06,-11013118.0743,1.65827495173e-05,0.0,5637012.93853,684.196825855,653.198244697,66506791.7318,1808.33782369,43885636.6109,67853870.3641,4723.13805228,4713.51517306,0.0
1.13590949677,1.09718264066,1.04075220764e-05,-10369898.682,1.91974350416e-05,0.0,5614076.24218,683.402445701,653.007263118,66430542.7799,1806.86885832,44008465.6827,70396849.0949,4715.16032109,4706.01093826,0.0
1.04732631843,0.894856178708,1.02880423702e-05,-44241504.6935,1.51014265593e-05,0.0,5822266.65318,678.50284738,647.335954667,66971923.4242,1689.89600973,35635692.9287,70453786.2319,4347.4515478,4339.03529109,0.0
1.06744480472,0.725518070873,1.01704132762e-05,-34009129.6897,1.79328850106e-05,0.0,5782142.67207,679.675511922,648.622680088,66870117.5997,1717.22769112,34769236.2883,69804087.8294,4430.96338439,4422.48504761,0.0
1.01611356481,1.07438613089,9.5736316534e-06,-79637087.4403,1.27760095988e-05,0.0,5957109.30818,678.09515483,645.356384417,67323070.6389,1649.39570293,56913220.2629,71770577.442,4217.88740753,4210.57373211,0.0
1.1139262661,0.953635462486,9.66178159221e-06,-18933063.9416,1.83277249661e-05,0.0,5693114.68629,682.752666247,651.676974352,66656988.118,1778.35743264,39245359.6549,69064899.7466,4623.90793058,4614.78994797,0.0
0.930992541428,0.989418275651,9.46243702574e-06,-92850010.8553,1.35815100405e-05,0.0,6140681.73021,689.985772715,639.905955966,67732876.87,1609.84987278,68019298.7506,68228270.8832,3864.55003947,3858.26568929,0.0
1.23975538948,0.887945354333,9.81621405097e-06,17199345.8131,2.92184984874e-05,0.0,18772403.1247,690.433131906,659.532573704,64796483.2595,1927.67003251,61803205.684,66839651.1048,5146.22462173,5133.66048493,0.0
1.23470470327,1.24576652445,9.92860404237e-06,16344839.3543,2.19438789777e-05,0.0,17842050.4493,689.757840922,659.295426166,65220318.8933,1923.09350331,61276294.935,66973392.994,5125.25922327,5113.58677204,0.0
1.04908973046,0.833526725417,9.78930149835e-06,-47178637.0417,1.55982896279e-05,0.0,5821447.56499,679.071117293,647.447204046,66971963.199,1691.8823602,36518618.8823,70489175.4748,4354.77147114,4346.09028633,0.0
1.1742194104,0.783463860903,9.89749363892e-06,2385654.02421,2.55090429956e-05,0.0,5388520.04062,686.399880504,655.485595768,65711595.3395,1851.22413268,51269316.5243,66974751.2222,4874.18477257,4863.16500712,0.0
1.06191340186,1.17452279926,9.91598414385e-06,-38420961.8694,1.26756224098e-05,0.0,5833610.35108,679.404325436,648.265888914,67024497.1935,1709.80719942,34730424.7396,70041086.7469,4408.00253112,4399.61035803,0.0
1.1647714598,0.961950501647,1.00724744748e-05,-1417160.03878,2.16214818272e-05,0.0,5431595.73759,685.642777656,654.907144689,65832849.7374,1839.40395817,48960140.3078,67617532.7111,4834.96632963,4824.00717385,0.0
1.00311122267,1.05350463849,1.01938816946e-05,-91984419.9774,1.28529859671e-05,0.0,5969225.66628,677.61119875,644.541844449,67344677.4128,1632.45013057,67266964.4596,70841626.1564,4163.9146853,4156.96389382,0.0
1.25019321293,0.781290119317,1.02341867397e-05,20035863.6493,3.4235126381e-05,0.0,21764024.0301,691.029405846,660.206064195,64550982.1751,1939.67092391,63995999.1179,64862181.9049,5189.55202687,5177.02880576,0.0
1.09345319287,0.764332289299,9.92315339903e-06,-25103578.4369,1.94454642671e-05,0.0,5729638.14215,681.417666687,650.336200778,66745143.01,1752.01192438,36482296.2424,69155208.1318,4538.9242036,4530.23157782,0.0
0.978726375405,0.962214727601,1.01382617687e-05,-94725730.8714,1.38093639078e-05,0.0,6003866.2778,681.200407163,642.976258122,67410665.6108,1613.08842685,69670650.5471,69907022.0446,4062.69318431,4055.74281393,0.0
1.04711403848,0.854571715762,9.65488112761e-06,-49270493.9122,1.5446821678e-05,0.0,5822643.04978,679.097495819,647.328673757,66969002.3204,1688.66359627,37257944.5294,71018374.2473,4346.57037373,4337.74442875,0.0
1.18024895581,1.03143460859,9.88379943978e-06,3125080.80823,2.12880439683e-05,0.0,5398798.8186,686.606519094,655.853851871,65753946.1179,1858.51325172,51651366.4073,67012717.1242,4899.21341557,4888.09479374,0.0
1.0638346014,1.0532063918,1.00121293401e-05,-37127719.9869,1.39219613553e-05,0.0,5818471.35053,679.47609104,648.389750263,66982870.0954,1712.44553816,34657837.8713,70121951.5951,4415.97743041,4407.55526939,0.0
1.12605644115,1.20847015686,9.80584334457e-06,-13382105.8452,1.60357311166e-05,0.0,5603504.00424,683.267013905,652.392755179,66378774.8218,1790.77682388,42240882.7138,68080542.1305,4674.26028721,4663.9570837,0.0
1.25097335074,0.929937234181,1.01996513876e-05,20011790.4704,3.04897738468e-05,0.0,21832969.5243,690.92888916,660.263610114,64700586.807,1941.03420693,64114111.2164,64958520.7204,5192.79037892,5180.47996195,0.0
1.04309212259,0.954625085974,9.92233227221e-06,-51103832.5361,1.44905748594e-05,0.0,5833695.79053,678.624382531,647.039721285,67000694.3331,1683.74468409,38024662.5692,70950737.4448,4329.87540087,4321.291612,0.0
1.21414452325,0.83381127748,9.67748316968e-06,11732577.2339,2.75718912132e-05,0.0,13082399.5944,688.895332698,657.958489987,65321690.1403,1899.73268012,57399380.2943,66454505.3833,5039.91391601,5028.36505788,0.0
1.0082153034,1.31315744322,9.96039816329e-06,-88237138.7555,1.10442926212e-05,0.0,5907521.91078,677.888380639,644.849200312,67148693.7649,1635.61007474,64058897.0218,70892301.2915,4185.10172441,4176.65946097,0.0
1.25896896984,0.979027059833,1.05742179191e-05,21777600.7892,3.16601749529e-05,0.0,23791805.8528,691.250263604,660.784323545,64540295.353,1949.60877473,65438302.3316,66329527.4336,5225.98019381,5213.58676166,0.0
1.25177570768,1.16493492077,1.01287115179e-05,19945709.465,2.53915976352e-05,0.0,21752386.8808,690.822662411,660.313017107,64812499.85,1941.64803196,64073978.0849,64989123.9831,5196.12096258,5183.79561551,0.0
1.20557242487,0.914948964944,9.54709734982e-06,9665698.60188,2.50394843915e-05,0.0,11054217.9791,688.385367578,657.46522314,65566080.9592,1890.19052772,55957284.4686,67037186.7171,5004.33113564,4993.18571945,0.0
1.12660141806,0.769979902937,1.00743604294e-05,-13056564.8162,2.30033404418e-05,0.0,5632545.9545,683.262123346,652.460581246,66484713.5328,1795.22870258,42565341.8326,68061306.2572,4676.52248637,4667.52190198,0.0
1.20649744627,0.951178601251,9.84867147713e-06,10380963.3803,2.48256479107e-05,0.0,11753682.6587,688.193535565,657.476377686,65496815.2003,1890.70429416,56408852.0895,67141715.2991,5008.17089947,4996.98889347,0.0
1.06107586696,0.823292713297,9.9500430944e-06,-38628413.9503,1.62056084764e-05,0.0,5812868.44423,679.468543256,648.212098382,66960180.1645,1708.93750693,34732945.3528,69926939.4991,4404.52592375,4396.14808875,0.0
1.07584720373,0.805694301677,9.92038293919e-06,-31604266.4458,1.74348548523e-05,0.0,5786444.79351,680.232717897,649.110137495,66904374.4141,1728.89350553,35156751.6055,69602903.5861,4465.84174268,4457.4233784,0.0
1.0336683921,0.926599396569,9.61001041919e-06,-59920781.4917,1.43663137362e-05,0.0,5913123.17257,678.480975667,646.492160465,67237157.5359,1673.51986415,42753251.6767,71162253.7735,4290.75749561,4283.37009105,0.0
1.00854354444,1.14483670559,1.00869773758e-05,-86589509.2201,1.22639518959e-05,0.0,5893105.26889,677.73814324,644.866080389,67106837.4475,1636.18071951,62649348.0474,70745806.566,4186.46425297,4178.01661413,0.0
1.11893805144,0.805376170669,1.02999611768e-05,-14609554.7524,2.12133872961e-05,0.0,5606088.15986,682.662597512,651.934625997,66366297.8979,1783.52483474,41441113.7312,68515565.6286,4644.71185153,4635.12140161,0.0
1.06671472788,0.713930243643,9.91330376039e-06,-36118284.4146,1.78531412609e-05,0.0,5793086.36923,679.846354998,648.577015191,66908518.0824,1716.47894404,34647206.9523,70124273.82,4427.93283543,4419.46563669,0.0
1.15045522072,0.933894045999,1.01502881605e-05,-6700880.79568,2.27910402588e-05,0.0,5562372.49781,684.639376746,654.007223831,66285464.1182,1825.5886758,46119254.0102,68675669.5053,4775.53962121,4766.13314717,0.0
1.0818792756,0.908140122815,1.00732040398e-05,-28664558.5224,1.67247795756e-05,0.0,5766581.10065,680.65321185,649.661802747,66844505.4489,1736.73235314,35682347.069,69273866.1887,4490.88087302,4482.36894875,0.0
1.08839850367,0.836614256158,1.00083948036e-05,-26567687.8573,1.8056996509e-05,0.0,5746207.55296,681.078682087,650.056229554,66790840.451,1745.33209931,36089697.8373,69259311.7116,4517.94218873,4509.32867208,0.0
1.15291666168,0.969406894178,9.9731573655e-06,-6488902.98087,2.22149247261e-05,0.0,5565270.0097,684.883520309,654.16393776,66294083.6987,1828.75719876,46440823.9453,68692859.0435,4785.75706263,4776.30936546,0.0
1.12868937773,1.20992652955,9.86402329352e-06,-12530899.8492,1.62159903641e-05,0.0,5642692.59496,683.346242091,652.585781846,66497832.0276,1796.18405843,42766230.8198,67822955.3341,4685.18960696,4675.63978188,0.0
1.02872006824,0.877467216207,1.03001113056e-05,-61201436.2201,1.48779015655e-05,0.0,5840985.93574,677.788670027,646.150212963,67003045.1978,1664.39990379,43401703.7303,70730070.049,4270.21700326,4261.77675959,0.0
1.12488878458,1.08594975472,9.9394898277e-06,-13515106.2028,1.75708039839e-05,0.0,5596246.37377,683.163967627,652.318163081,66347126.3806,1789.6152581,42128838.7758,67879763.9073,4669.41334479,4659.2285334,0.0
1.12938951814,0.965321674851,9.99353124871e-06,-12031125.5891,1.96798902173e-05,0.0,5594811.03153,683.352130199,652.549469859,66354638.2318,1796.40308864,43176634.8939,67370268.8238,4688.0958898,4678.23108905,0.0
1.12606023449,1.04815789134,1.0280414692e-05,-12933907.8734,1.83610994306e-05,0.0,5603697.02249,683.002839172,652.404905828,66370127.0376,1792.29385401,42519894.0596,67179408.5077,4674.27603337,4664.56744657,0.0
1.04725580458,0.935862616478,9.93727986139e-06,-45614342.8109,1.44643912827e-05,0.0,5842574.35883,678.746213415,647.33094811,67024888.1092,1689.84251023,36047633.3282,70501505.2187,4347.15884481,4338.81464717,0.0
1.07965942868,0.705723606478,1.01916834621e-05,-30017707.1731,1.95857613846e-05,0.0,5760981.52872,680.516739352,649.512869962,66837632.2033,1734.56797421,35295533.1288,69188507.9208,4481.66628845,4473.38252807,0.0
0.985191587111,1.04276523475,9.66269859725e-06,-95109911.9945,1.34102170221e-05,0.0,6010584.2134,681.548225076,643.395198448,67435577.037,1619.16976655,70009029.596,70249475.1471,4089.5302781,4082.4846205,0.0
1.19613096636,0.858242371474,9.81110959677e-06,6651816.02584,2.58588417352e-05,0.0,8186359.86042,687.847185394,656.876517628,65399840.9816,1877.29287514,53635401.4667,66568323.9494,4965.13964136,4953.40642024,0.0
1.1480806606,1.04220914735,9.87287301982e-06,-7899150.82983,2.03415347522e-05,0.0,5591573.21352,684.546865851,653.7998414,66362312.346,1822.44381209,45660479.884,68577629.5839,4765.68282215,4756.25911192,0.0
1.03206254845,0.828948442358,1.01196820603e-05,-58219177.1395,1.51856168806e-05,0.0,5842364.0631,678.065272131,646.356915964,67010739.1856,1669.01651357,41601957.5832,70940409.2824,4284.09163862,4275.59715046,0.0
0.962226723151,0.771276307705,9.78713239325e-06,-94046686.8979,1.53910404785e-05,0.0,6029788.07416,684.686265996,641.91211817,67448256.7875,1612.67507068,69072850.8387,69299111.3848,3994.2031278,3987.16992005,0.0
1.03564538394,0.917209678855,1.03287882781e-05,-54174047.9802,1.43833007895e-05,0.0,5840266.39212,677.969633217,646.574349166,67013777.3353,1674.26816633,39397506.0551,71021520.4979,4298.96398873,4290.58607206,0.0
1.13237208985,0.746345499731,9.8612800959e-06,-11450474.0762,2.33464792764e-05,0.0,5587535.78244,683.840228912,652.834450513,66331932.6732,1801.36442893,43493709.8129,67481322.6589,4700.47654497,4690.84027584,0.0
0.939242518482,0.900467862774,9.92873113078e-06,-93093980.6777,1.39910594784e-05,0.0,6116228.39111,687.526902752,640.439586549,67694727.3912,1608.06943571,68234098.6963,68448318.0562,3898.79569422,3892.70702307,0.0
1.223155189,0.778643004378,9.60083153464e-06,13334156.6527,2.96810392916e-05,0.0,14702336.0973,689.657688896,658.562627435,65085354.0574,1909.77715405,58700875.2307,66396875.0743,5077.31718954,5065.28994891,0.0
1.06468302691,1.05904606331,9.8792972811e-06,-37282279.0878,1.38393481182e-05,0.0,5821869.50728,679.622124127,648.445436782,66992956.7519,1713.54658237,34679909.4682,70166194.5055,4419.4992447,4411.06511249,0.0
0.975810696683,1.12381823723,1.03006995138e-05,-94706769.472,1.25191933258e-05,0.0,6026225.79449,681.013600735,642.792442791,67480721.0113,1611.0785917,69654149.7445,69888838.0503,4050.59020193,4044.0149787,0.0
1.10154853415,0.988518219901,9.76326958328e-06,-19631008.0006,1.62861200274e-05,0.0,5714223.63703,681.921910483,650.919004131,66679836.0446,1760.91992069,38946604.087,68603684.2101,4572.52796526,4563.24631477,0.0
1.00454466133,0.888519814639,1.02733829631e-05,-89109683.6205,1.47255589617e-05,0.0,5880619.78506,677.767633523,644.612384091,67067206.2641,1631.24613345,64770749.6971,70697388.9487,4169.86488918,4161.56560271,0.0
1.1367792256,0.780266766071,9.56115557253e-06,-10809575.4189,2.29525240906e-05,0.0,5596911.53303,684.273867077,653.127169313,66376054.8487,1807.14732047,43988842.6388,67744969.8572,4718.77056547,4709.1604372,0.0
0.968983590875,0.900009128285,1.01954637935e-05,-94143573.1572,1.46003895772e-05,0.0,6017978.62837,683.052869475,642.3483698,67448104.265,1614.11352134,69158162.8866,69387194.1791,4022.25088572,4015.46734532,0.0
1.07048198996,0.896530040455,1.02551078187e-05,-32708970.2274,1.63344083713e-05,0.0,5786025.21689,679.669774493,648.772084301,66894041.6584,1721.43107538,34921427.5868,69587967.1489,4443.57074032,4435.13912104,0.0
1.19005010549,0.915427145042,9.80153849827e-06,5897178.01028,2.39905304781e-05,0.0,7484480.32757,687.338132318,656.459297352,65572056.1086,1870.0449609,53359792.1291,66840577.8353,4939.89798789,4928.4800937,0.0
1.1515496205,1.21584369175,1.01724243769e-05,-6495430.72448,1.84749757035e-05,0.0,5581922.81806,684.547756872,654.074764243,66347187.8176,1826.66351661,46335672.7782,68703789.2783,4780.0824747,4770.65843063,0.0
1.0743869773,0.894122972053,1.02696700915e-05,-30869928.9705,1.66346828844e-05,0.0,5770864.74511,680.055822757,649.143628736,66842657.7485,1726.56871218,35215366.2034,69274449.1077,4459.78034277,4451.2878824,0.0
1.03892470946,0.8466970597,9.8593098247e-06,-55241927.5496,1.53552653105e-05,0.0,5838767.1176,678.573419103,646.799234258,67010735.656,1678.27901909,39987890.2535,71148112.8046,4312.57646897,4304.0598975,0.0
1.10696749312,0.864198779734,1.02657843984e-05,-17717277.9565,1.90913118056e-05,0.0,5655686.80689,681.954066318,651.220015365,66515895.889,1767.75997056,39761505.3233,68890144.3734,4595.02206394,4585.63222818,0.0
1.00447470582,0.837750827527,9.86739401366e-06,-89687624.0857,1.40912577193e-05,0.0,5941205.15209,677.959186806,644.617400155,67230939.6905,1632.61720504,65297646.4581,71100950.5272,4169.57450386,4161.91607576,0.0
1.11163361525,0.964652944117,9.99743964271e-06,-16940020.5229,1.81309641982e-05,0.0,5631028.62366,682.394007882,651.495790216,66432537.9883,1772.65787884,40305280.1298,69092171.2753,4614.3911369,4604.43538013,0.0
1.16394044808,1.21206289117,1.02256800572e-05,-1444149.60867,1.78528811124e-05,0.0,5455090.60319,685.3372201,654.853388219,65908827.6762,1837.95868366,48869168.3798,67623562.7504,4831.51679998,4820.58543198,0.0
1.11442928324,0.775718256157,9.91786546106e-06,-17667420.1608,2.05635825078e-05,0.0,5623430.86433,682.729227857,651.67504014,66424042.7108,1777.25950308,39743338.1682,69004055.3026,4625.99595473,4616.191271,0.0
1.01521952027,0.937412292765,1.02069002959e-05,-76873327.8154,1.38745320565e-05,0.0,5863935.14184,677.568104828,645.287139092,67037847.1429,1645.41208705,54672794.1529,70521900.4353,4214.17622864,4205.6186522,0.0
1.14947811427,0.922997019882,9.69646337906e-06,-7460935.46428,2.19049585576e-05,0.0,5544809.76062,684.868672232,653.88817434,66216177.9479,1822.77822902,45834969.761,68633227.0175,4771.48365233,4761.45632753,0.0
1.08674757103,0.850987195142,1.00952979131e-05,-26856343.8135,1.78069826954e-05,0.0,5748200.68085,680.921009766,649.95582503,66795773.0169,1743.15432743,35988919.5998,69241159.8963,4511.08916735,4502.50142469,0.0
1.04072966734,0.987687140355,9.85464413593e-06,-51910316.5035,1.39778967231e-05,0.0,5838593.603,678.583780363,646.914337897,67012427.005,1680.11632038,38354278.4808,70905362.1546,4320.06884913,4311.34781737,0.0
1.07954834386,1.03223817591,1.03556521658e-05,-28784313.024,1.54327818891e-05,0.0,5773766.65398,680.267491885,649.513271962,66872227.2121,1733.91721142,35585017.3769,69212218.0377,4481.20517536,4472.82599713,0.0
1.01683415569,1.02062377786,1.01425739407e-05,-74203970.7768,1.32617036343e-05,0.0,5932891.24411,677.531599506,645.414017609,67263047.625,1650.7249751,52612903.8066,70817244.8909,4220.87858027,4213.64292651,0.0
1.05304090815,0.948766296054,9.50394832691e-06,-45974867.617,1.47442237197e-05,0.0,5820490.18768,679.430136637,647.695809902,66970539.2099,1696.28907659,36143751.7464,70740946.7232,4371.17280973,4362.24760792,0.0
1.14385625995,0.677840616042,9.34420366478e-06,-9291226.91366,2.55183193166e-05,0.0,5502890.82172,685.028232101,653.552084292,66085124.5852,1814.42575274,44922291.8749,68018325.9387,4748.14733505,4737.5160127,0.0
1.0677926447,1.06276950726,1.01515716532e-05,-34005974.9121,1.41433595298e-05,0.0,5803897.07803,679.571818905,648.6447821,66937326.6874,1717.43208291,34810908.2662,69872909.1392,4432.40726815,4423.92348218,0.0
1.03866837535,1.05193361424,1.01112204757e-05,-51934678.1016,1.32905942012e-05,0.0,5837812.116,678.244768854,646.778407161,67009734.5983,1677.3528741,38336404.794,70846139.0424,4311.51242608,4302.82379853,0.0
1.07918035897,1.17200365148,1.04711892966e-05,-28488018.847,1.39200343286e-05,0.0,5768177.04673,680.105110081,649.480937666,66845838.1968,1732.63617629,35561770.9447,69178709.2659,4479.67767008,4471.11104724,0.0
1.07920411154,1.05632179669,1.01808296723e-05,-30353010.7685,1.51196605897e-05,0.0,5785841.86792,680.352460571,649.480013118,66913108.8113,1733.70199927,35278707.0916,69269674.6304,4479.776267,4471.49943913,0.0
0.988506242952,0.815133190923,9.90236075097e-06,-95341923.004,1.46455876234e-05,0.0,5983271.21056,679.771917768,643.605744383,67348166.5959,1613.03436386,70213312.9894,70457010.5095,4103.28941449,4096.11925167,0.0
1.08076904691,1.13337133697,9.63576793677e-06,-29976316.721,1.36440596851e-05,0.0,5788682.48919,680.589845704,649.433271164,66908185.2013,1733.84671744,35447402.3702,69487774.7883,4486.27231372,4477.3953326,0.0
1.02413188096,1.22017952437,9.88180196915e-06,-67964828.6864,1.16509761603e-05,0.0,5941110.03493,677.854096202,645.887556998,67307659.5264,1660.71023232,48013542.2146,71058358.7374,4251.17143787,4243.92063102,0.0
1.12102702032,0.97674422842,1.01881616014e-05,-13868235.3772,1.89425283743e-05,0.0,5613091.58297,682.776387183,652.070281657,66400699.3727,1785.60903695,41989206.9787,68233932.9672,4653.38316135,4643.65952101,0.0
1.32562060113,0.981263796647,1.02888069271e-05,31134470.9466,3.85824035799e-05,0.0,32301077.1284,695.717473603,664.946454522,63341655.5567,2023.73641341,70306057.3341,71792949.583,5502.65111529,5488.56667499,0.0
1.12267157212,0.738020153372,9.59196674388e-06,-14551441.4816,2.19063008678e-05,0.0,5612047.59508,683.404051081,652.166486858,66397969.5486,1788.12356236,41661254.3625,68882648.4573,4660.20969587,4650.35849643,0.0
1.20228898624,0.834489500919,1.03819824768e-05,9178019.81164,2.77436867067e-05,0.0,10519389.0192,687.840971422,657.195569461,65199960.6937,1883.87872897,55227013.1136,66631695.2193,4990.70158188,4978.86212772,0.0
0.92659352953,1.13638763842,1.01581471122e-05,-92302011.6003,1.22198555772e-05,0.0,6096265.66328,688.907661278,639.608639353,67602282.5456,1602.02132251,67537134.8635,67742872.184,3846.28974108,3839.50018958,0.0
1.21910121972,0.761252651725,1.05460781041e-05,13450408.0932,3.15697439355e-05,0.0,14655964.8768,688.9122457,658.294965241,64929739.4314,1904.02668141,58641016.801,66278585.2967,5060.48916306,5048.54836549,0.0
0.982721589969,1.19418267632,9.96003547146e-06,-95159467.9116,1.14546743378e-05,0.0,6015206.31985,680.351932365,643.234228691,67433884.4877,1611.33634157,70052450.2207,70293341.6789,4079.27731996,4072.19108417,0.0
1.09171276394,0.737906841508,1.03653786995e-05,-24507648.7831,2.02000712539e-05,0.0,5719233.47011,681.030966161,650.235788727,66710199.0101,1750.07707405,36532929.2355,68945799.0529,4531.69968311,4523.13263766,0.0
1.06554696805,1.04891071566,1.03629296083e-05,-34539245.4651,1.44089846604e-05,0.0,5803833.44764,679.308365612,648.50592383,66940731.5234,1714.82310725,34700711.7099,69879436.2389,4423.08546438,4414.7304777,0.0
1.13737824482,0.729037853346,9.84850735604e-06,-9375576.78878,2.42604291551e-05,0.0,5567493.99849,684.15681307,653.161278924,66277255.0115,1807.56592955,44887074.6119,67923068.7165,4721.25709425,4711.54011513,0.0
1.14194208712,0.840110926473,1.01796541226e-05,-8825901.30363,2.35254205468e-05,0.0,5575288.54968,684.092588576,653.405036743,66306125.8304,1814.50384008,44975383.7642,68189652.0992,4740.20160364,4730.82371488,0.0
1.14472367488,1.04241814267,9.99656669326e-06,-8548195.54133,2.02662908089e-05,0.0,5592377.2493,684.25123626,653.570168621,66358272.2718,1817.9324041,45241679.4674,68387052.2417,4751.74797443,4742.32677959,0.0
1.03693098315,0.846197427758,9.93228659368e-06,-56294186.2828,1.52927338445e-05,0.0,5840822.16381,678.433941052,646.678443312,67014200.7366,1675.65308145,40539735.0608,71035243.0719,4304.30051106,4295.81465121,0.0
1.17304783343,0.992789966548,9.85315624983e-06,1701418.1414,2.130653779e-05,0.0,5440298.51662,686.1841927,655.426854433,65879254.1884,1850.16234037,50878782.5963,67425014.2197,4869.32155657,4858.53591669,0.0
1.00788552037,0.939384617247,1.00743225251e-05,-87389600.4496,1.4225379249e-05,0.0,5881477.20628,677.870339551,644.825179718,67070030.2961,1635.45373208,63331644.5815,70760007.1599,4183.73279506,4175.29593088,0.0
1.13813916877,0.866845050179,9.7148893411e-06,-11407094.8179,2.19202969868e-05,0.0,5533963.70661,684.329151921,653.194250396,66175087.675,1807.15219526,43528616.6795,67655373.6612,4724.41568956,4713.9623806,0.0
1.0514005462,0.70452511354,1.00052613027e-05,-43082788.6275,1.69746255595e-05,0.0,5816622.94754,678.980253062,647.593002312,66955198.2026,1695.53268187,35363055.9804,70527406.6766,4364.36366728,4355.95429633,0.0
0.965704189135,0.805620398436,1.06332992216e-05,-93945107.9046,1.48340489249e-05,0.0,6002605.44771,682.208748732,642.133381693,67393098.6305,1608.16361123,68983522.4264,69208838.2892,4008.6380891,4001.87089436,0.0
1.01881111078,0.991585998766,1.025968801e-05,-70561660.3329,1.37108213428e-05,0.0,5870731.6044,677.552502932,645.523066547,67074904.0039,1651.0801402,49851786.0583,70869370.9143,4229.08492085,4220.80372152,0.0
1.13392917833,0.977600512373,1.00525283487e-05,-10611875.8047,2.03707051876e-05,0.0,5621160.46103,683.638347433,652.948710676,66453074.0236,1804.00934892,44363656.5948,67839599.5787,4706.94001925,4697.71990375,0.0
1.16914029354,1.11232849794,1.01103846158e-05,859039.937024,1.95262595097e-05,0.0,5461253.0248,685.728034123,655.19156907,65931812.755,1845.39785745,50285967.9336,67566938.8431,4853.10135848,4842.48286598,0.0
1.1499498481,0.868170615565,9.77102087847e-06,-7157277.71727,2.29743857844e-05,0.0,5533521.12373,684.901640446,653.932197965,66183669.6747,1823.39997829,45927257.6202,68647833.4739,4773.44181946,4763.40651473,0.0
1.08725835796,0.783218266104,9.96900962705e-06,-27045535.473,1.86762717113e-05,0.0,5747116.44784,681.073091311,649.99131851,66791380.1633,1743.88781956,35974857.32,69273668.2533,4513.20944389,4504.61373032,0.0
1.23546279484,0.774141549057,1.00724427508e-05,16536488.9416,3.19509185811e-05,0.0,18126687.8972,690.109581356,659.309337159,64898507.0658,1924.26388945,61317097.8043,66726904.663,5128.40606138,5116.4687634,0.0
1.12486958853,1.011071719,1.04719140129e-05,-12555447.7111,1.90694321531e-05,0.0,5592594.7884,682.737818058,652.247390889,66332337.4669,1790.59648732,42686702.5592,67146404.4935,4669.33366199,4659.54483968,0.0
1.24075684961,0.829959399356,1.00901352389e-05,17929878.53,3.12554036082e-05,0.0,19557648.6753,690.412700597,659.65229976,64849084.9405,1929.91006767,62405040.6088,66989197.8202,5150.38168273,5138.34697975,0.0
1.12701082641,0.918247567901,9.79554059366e-06,-13013957.3129,1.99664517114e-05,0.0,5627570.10615,683.426348718,652.473703259,66463571.1008,1794.36085883,42471682.9912,68142512.2316,4678.22194043,4668.69979081,0.0
1.09662628616,1.09787317245,1.00032138031e-05,-23823908.3102,1.55450890363e-05,0.0,5741899.79158,681.432977349,650.574674141,66787965.7116,1755.85447545,36880629.6743,69090927.9544,4552.09571385,4543.34015378,0.0
0.966906423079,1.11116129271,1.01848470407e-05,-94100451.0546,1.27436689962e-05,0.0,6034269.19821,683.269723342,642.214837292,67495344.3182,1613.50093633,69120233.1262,69348190.9049,4013.6285622,4006.87435399,0.0
1.01774104147,0.975031912708,9.7525189448e-06,-76913174.751,1.36364824725e-05,0.0,5950445.60826,677.97063694,645.472717768,67315453.8604,1652.29547982,54730150.7902,70920992.5145,4224.64306314,4217.4831882,0.0
1.2490861582,0.842122705448,9.65889063782e-06,19236165.7053,3.0926676339e-05,0.0,20834740.9886,691.17471664,660.153479394,64733888.1037,1939.42416979,63404865.9833,65267848.9771,5184.95664269,5172.49706562,0.0
1.02630126216,1.08764340311,1.00441235541e-05,-65426172.5131,1.29927891029e-05,0.0,5867769.62953,677.875145235,645.990958895,67081667.2137,1660.97593357,46212978.433,70962699.1028,4260.17653923,4251.77523184,0.0
0.875214536768,0.905295064808,9.80521897718e-06,-90222360.2116,1.27318444924e-05,0.0,6210872.47096,695.597478274,636.302183008,67904345.9136,1586.31525114,65706864.9734,67904345.9136,3633.01554212,3626.99293262,0.0
1.17618668978,0.958028643558,1.01798037099e-05,2881272.97136,2.26901982631e-05,0.0,5396233.95597,686.214086908,655.599482354,65733114.4131,1853.49602366,51467873.2277,66953339.3812,4882.35094928,4871.39894158,0.0
1.14043685004,0.896222405969,9.94176238738e-06,-8873444.74544,2.21681586982e-05,0.0,5596381.48668,684.129657361,653.34159166,66383178.954,1812.39331464,45235326.821,68168597.234,4733.95336452,4724.60273926,0.0
1.15572706903,1.02699269439,9.9558474616e-06,-4002829.97781,1.97818243905e-05,0.0,5478128.74836,684.938010589,654.211170514,65995823.2348,1827.91917528,47630433.5577,67891682.7971,4797.42306354,4786.53659105,0.0
1.06889159729,0.887968094657,1.01696633194e-05,-33398767.7555,1.61512323818e-05,0.0,5788863.37645,679.675639133,648.699850308,66893339.0273,1719.01104022,34871469.1164,69727956.0853,4436.96902035,4428.46800901,0.0
1.13768885132,0.956576009595,1.00707761197e-05,-10010934.9645,2.0535047553e-05,0.0,5563412.41454,683.838842877,653.091111169,66254192.3009,1807.22668924,44296431.4615,67901732.9279,4722.54642183,4712.53939383,0.0
1.04604072878,1.06301224334,9.73890976696e-06,-50408038.038,1.35646743454e-05,0.0,5824910.64673,678.890337269,647.254006797,66975378.4908,1686.49376856,37739697.2708,70970729.2821,4342.11506517,4333.13194557,0.0
1.24597138724,1.04675284642,1.00382482673e-05,18870819.8894,2.68780940054e-05,0.0,20460512.2615,690.58129501,659.962948142,64883872.7398,1935.60458209,63194586.0731,65871938.6761,5172.02722843,5159.89651331,0.0
1.10175405578,0.873969717395,1.01808356271e-05,-21759341.343,1.88790323028e-05,0.0,5702287.48255,681.753454752,650.93625512,66665556.3998,1762.71673167,37587673.0082,68525694.5515,4573.38108554,4564.55790545,0.0
1.13647736829,1.06775140852,1.01250223728e-05,-10562180.9949,1.92664424864e-05,0.0,5617915.50054,683.726509122,653.110375098,66429242.8868,1807.43735568,43984883.8284,67906764.0907,4717.51755577,4708.25376912,0.0
1.04657183353,0.793216524306,9.9076483994e-06,-47371409.5687,1.59937900545e-05,0.0,5817893.3234,678.835033023,647.285395051,66951513.9673,1688.19733397,36554058.6015,70489479.1343,4344.31968098,4335.64791665,0.0
1.02935069634,1.00759781496,9.65545333169e-06,-63698907.8843,1.35493973921e-05,0.0,5926456.61761,678.261837185,646.20156515,67271085.8645,1667.74387062,45110643.7762,71022762.0211,4272.83474051,4265.50931551,0.0
1.03012609051,1.18129244274,9.88771678358e-06,-60677592.0985,1.20429134504e-05,0.0,5924159.33944,678.020766693,646.265012202,67267523.0675,1668.72404585,43115026.5263,71058606.0047,4276.05340171,4268.71686245,0.0
1.14205708355,0.769501521014,1.00822633231e-05,-8804329.59082,2.41510211e-05,0.0,5525309.72416,684.15443914,653.313901289,66142294.0936,1812.94749658,45009999.4871,68174164.7863,4740.67895382,4730.57185493,0.0
1.13908185756,0.894563344418,9.65599280655e-06,-10259854.9589,2.13606249192e-05,0.0,5598671.94765,684.187477009,653.191315439,66379280.1372,1810.17565157,44308248.8812,67909584.4639,4728.32879073,4718.6852786,0.0
1.07631718017,0.882157531648,1.01054921291e-05,-30541163.1617,1.66731968296e-05,0.0,5767187.24032,680.290463521,649.269602801,66840578.4072,1728.78234168,35338771.5177,69281512.3317,4467.79261489,4459.17632493,0.0
1.05630114511,0.957715649137,1.00277770992e-05,-40602061.1167,1.45834159695e-05,0.0,5829611.15061,679.081156828,647.883225224,67003326.2903,1702.50362155,34933028.7796,70002396.1789,4384.70605335,4376.40123073,0.0
1.23077554292,0.961254008443,9.51834396244e-06,14841623.77,2.61888535278e-05,0.0,16136148.2078,690.010244381,659.063839777,65145393.0007,1919.06144015,59978383.5166,66713355.7185,5108.94927866,5097.00197027,0.0
1.17620185201,0.671116295261,1.0141479523e-05,2988813.26607,2.89055475417e-05,0.0,5355870.78926,686.478360275,655.599873661,65607245.758,1854.06117858,51526432.5608,66827712.8763,4882.41388769,4871.46161053,0.0
1.10671406582,1.16793061865,1.03449426484e-05,-17715281.8486,1.5359126403e-05,0.0,5677209.58936,681.737320277,651.202530084,66583141.1093,1767.13183826,39780678.0143,68956622.8767,4593.97008722,4584.58443953,0.0
1.01710734213,0.917497072867,9.79757266386e-06,-77188850.9706,1.40844140935e-05,0.0,5947733.82395,677.931419329,645.433650659,67306759.3329,1651.46260188,54948138.8916,70890717.3973,4222.01257718,4214.86169213,0.0
1.07733648502,1.03765174817,1.00687969658e-05,-30451013.5921,1.49272094721e-05,0.0,5787606.03193,680.308639294,649.340594294,66901829.3068,1730.67571046,35386779.1783,69320032.2277,4472.02374932,4463.58232513,0.0
0.992510994519,0.989965097252,9.54666298605e-06,-95414663.803,1.36581920982e-05,0.0,5940675.12313,680.303355971,643.850384278,67218070.2192,1615.61581863,70277390.029,70523598.1481,4119.91313825,4111.64904664,0.0
1.19200024428,0.857931200495,1.05777657326e-05,7534281.57912,2.64540003235e-05,0.0,8908882.00738,687.055442746,656.61417385,65404928.1157,1872.53081361,53898118.0206,66373607.7216,4947.99301401,4936.86908698,0.0
1.19145468555,1.02707916443,9.79453043419e-06,5926329.69509,2.19909376165e-05,0.0,7522982.31966,687.317342956,656.565537088,65717031.059,1872.90173858,53429282.9944,66974793.3766,4945.72839972,4934.72702437,0.0
1.00977013067,0.994291990707,1.00299816661e-05,-81357884.2815,1.35432510067e-05,0.0,5900148.0619,677.784710929,644.949203752,67121279.5643,1638.62509391,58235430.6252,70941755.685,4191.55581241,4183.38896407,0.0
1.15072602631,0.997159268822,9.89770382233e-06,-7250852.7445,2.14741315186e-05,0.0,5579475.08942,684.75937304,654.00685012,66333270.804,1825.99684555,45987626.4446,68721193.4314,4776.66373521,4767.25123263,0.0
1.04680168462,1.17052987673,1.02130272147e-05,-47035317.2477,1.25443720956e-05,0.0,5826132.96434,678.492280571,647.295182608,66985888.5196,1688.36570379,36403023.9042,70241494.1097,4345.27379286,4336.54123291,0.0
1.09222826986,0.826768597862,9.96699990656e-06,-25623180.9229,1.85006162322e-05,0.0,5747806.04369,681.280975904,650.266207571,66798206.5399,1750.99515452,36436562.2931,69285080.1175,4533.83954819,4525.36230973,0.0
0.936274159233,0.989159595772,9.61747101444e-06,-93021216.5169,1.36106390326e-05,0.0,6121366.25774,688.88017702,640.244904309,67689350.6634,1609.97107351,68170025.9354,68381259.3397,3886.47403498,3880.11718328,0.0
1.04170051054,0.881883854415,1.03415049398e-05,-49011717.3206,1.50963907171e-05,0.0,5814714.10895,678.258810323,646.97121357,66942684.6432,1681.79581996,37067393.1133,70889134.2421,4324.09881925,4315.44805369,0.0
1.02627433781,1.11985510322,1.00354215436e-05,-65521980.5678,1.2714886337e-05,0.0,5870008.00859,677.870176044,645.988862462,67088377.3326,1660.91748701,46281287.6688,70981855.0488,4260.06477625,4251.66390187,0.0
1.18670403257,0.947978332039,1.00197416311e-05,5200881.59733,2.35654074634e-05,0.0,6819990.42946,686.925052323,656.254278843,65716634.8391,1867.29091702,52866435.9814,66980907.7456,4926.0084392,4915.20576848,0.0
1.25262515622,1.09918830868,1.04030080869e-05,20168763.2589,2.76914586604e-05,0.0,22110316.2252,690.851449016,660.354462379,64583147.5113,1941.13763657,64207358.9548,65057918.8165,5199.64702347,5186.85132472,0.0
1.03373839124,0.879168155837,1.02144156664e-05,-56003682.1814,1.48068794317e-05,0.0,5837921.82478,678.029932328,646.467639175,67001977.6608,1671.21650866,40400579.0489,70837448.9906,4291.04806204,4282.52648312,0.0
1.22768999857,0.898414884158,1.01979704674e-05,14753510.2354,2.82474518845e-05,0.0,16226206.5622,689.500397031,658.853694321,64989159.3964,1914.31201417,59859563.1441,66565319.6545,5096.14118406,5084.14845537,0.0
1.08768257628,0.961878962796,1.03611112365e-05,-25922197.3597,1.68762316274e-05,0.0,5746820.37481,680.714282645,649.989524598,66788264.718,1744.62538205,36162724.6167,69136939.5352,4514.97037414,4506.46576056,0.0
1.20750185373,1.01725774518,1.00221960627e-05,10316286.163,2.39724227749e-05,0.0,11668644.2767,688.192353238,657.509935633,65265275.4532,1889.91129976,56261840.8021,66993818.6417,5012.34019483,5000.36920461,0.0
1.09113461327,0.746517432538,9.97269747019e-06,-25724657.2226,1.95564659735e-05,0.0,5732855.71951,681.271746818,650.201152377,66753198.9124,1748.99385383,36298217.9937,69203929.5099,4529.29977968,4520.64347789,0.0
1.17005485515,1.32230185836,1.00089913149e-05,811735.248792,1.6739071015e-05,0.0,5481418.63729,685.740859633,655.250398143,65992472.1213,1846.39372151,50361894.9842,67671767.2604,4856.89770373,4846.26328155,0.0
1.05544193066,1.10426578336,1.01477705424e-05,-40387854.9943,1.32746310408e-05,0.0,5825380.59399,678.86438642,647.832539228,66984295.7196,1700.30702807,34933791.7332,69793532.4261,4381.13945417,4372.69387387,0.0
1.05869143768,0.935593783147,9.44096329949e-06,-42148370.0404,1.4722211395e-05,0.0,5820000.03757,679.699461997,648.035954852,66973596.3419,1704.26796304,35221271.2535,70325088.2474,4394.62815781,4385.75699463,0.0
1.13526475119,0.859095506443,1.02274301596e-05,-10891626.5725,2.26956698241e-05,0.0,5605161.63446,683.683100494,653.035391293,66398066.5969,1806.3473311,43797802.0783,67811384.6717,4712.48398219,4703.34481667,0.0
1.20753307993,0.986262017283,1.04845262955e-05,11224894.6332,2.5115029015e-05,0.0,12460613.8017,687.892967477,657.538431662,65340860.7777,1891.02523178,56859569.1205,66469382.8613,5012.46981479,5001.17138022,0.0
0.978651705497,0.779667167257,9.84571247799e-06,-94891212.4543,1.54255454562e-05,0.0,6020115.59865,681.810263291,642.977330726,67453688.6112,1615.09053513,69816456.312,70054376.163,4062.38322952,4055.68565767,0.0
1.22346174296,0.938364818631,9.86261810952e-06,13601716.8411,2.64569279144e-05,0.0,14975003.0431,689.378616792,658.583669448,65138569.5783,1909.69497175,58910028.9344,66524819.0222,5078.58969503,5066.64728482,0.0
1.08869994958,0.844277822747,9.86746598201e-06,-26896988.8344,1.78715132349e-05,0.0,5751775.47634,681.199961244,650.082668064,66806135.599,1745.72432759,36065135.1612,69317649.217,4519.19349071,4510.57526453,0.0
1.02654428591,0.993315611082,1.03866413088e-05,-64095510.0566,1.3829892143e-05,0.0,5828083.4785,677.600668061,646.002928262,66964181.6034,1660.15892526,45293690.217,70569812.5423,4261.18533081,4252.35676207,0.0
1.11707700833,1.03689114379,1.04047043801e-05,-14929662.4786,1.79275329163e-05,0.0,5628064.73766,682.352147201,651.8114583,66433215.0501,1780.87142366,41243253.6299,68736986.8111,4636.98666158,4627.42721077,0.0
1.03574336683,0.94001292705,9.92392994557e-06,-57446432.776,1.43982928704e-05,0.0,5849383.28741,678.354079126,646.597548984,67038025.1613,1674.01447344,41181420.5803,71036147.1679,4299.37071571,4290.90394538,0.0
1.02940380461,0.93426907388,1.00225307199e-05,-62179632.3064,1.42846226705e-05,0.0,5859145.60938,678.051556159,646.199095329,67060334.0545,1665.60223474,44052409.9185,71017068.3779,4273.05519294,4264.69002834,0.0
1.20688064073,1.23557749878,1.03845300072e-05,10831003.6033,2.05482890207e-05,0.0,12109320.5705,687.726308979,657.477992726,65458846.2607,1890.01662383,56603211.2852,66821198.3608,5009.76153967,4998.47474669,0.0
1.24012179529,1.04138518611,9.93523286547e-06,17510949.9568,2.59900339208e-05,0.0,19088083.1502,690.281584316,659.623667644,64988981.6852,1928.873669,62115716.4451,67050988.8245,5147.74557225,5135.68650263,0.0
1.0150123171,0.888417845219,1.00828153048e-05,-77106883.738,1.432189811e-05,0.0,5934238.60991,677.610782135,645.296710231,67255905.9118,1648.36568636,54874386.3482,70815651.9032,4213.31612828,4206.10638516,0.0
1.06991605402,0.804209401662,9.92500911698e-06,-33831319.5695,1.70667715819e-05,0.0,5790520.40715,679.958369343,648.778079936,66896117.679,1720.42117938,34841522.4281,69882035.1991,4441.22154024,4432.70445834,0.0
1.07013814172,0.715189307307,1.03114945718e-05,-32605513.4707,1.84670559025e-05,0.0,5773144.96434,679.678610225,648.747234631,66854818.3216,1721.10801914,34904540.5962,69510782.5261,4442.14342628,4433.71715568,0.0
1.24102670682,0.932788957771,1.02532660542e-05,17874191.7321,2.94121848318e-05,0.0,19542305.6676,690.315445502,659.640735038,64701562.004,1928.39884453,62298450.9942,66744630.6189,5151.50186001,5138.91840785,0.0
1.14018370361,0.900015255778,9.81239371206e-06,-8926805.22302,2.15334235698e-05,0.0,5584311.15054,684.222501132,653.331084391,66339616.9208,1811.24717339,45301780.0448,68154128.1212,4732.90255369,4723.24375882,0.0
1.10545851903,1.0350952763,9.97149956425e-06,-20991441.6505,1.69163632449e-05,0.0,5715736.43943,682.03370013,651.167143492,66709076.6526,1767.57262312,37979079.1461,68727011.203,4588.75831249,4579.87649944,0.0
1.07040067063,0.873469982533,9.37478902062e-06,-35000165.6741,1.56926634749e-05,0.0,5819626.80025,680.358822775,648.816661672,66987242.3911,1721.02749991,34765996.8661,70383301.3879,4443.23318379,4434.70973072,0.0
1.03600225334,0.90629487506,9.72441509042e-06,-57750774.8388,1.46262670614e-05,0.0,5901771.96728,678.462877499,646.63552888,67207615.9874,1676.68077921,41460660.9904,71159728.3034,4300.44535361,4293.02579174,0.0
1.12018479181,1.02195307995,1.01326218826e-05,-14220978.4406,1.81714092538e-05,0.0,5625554.7047,682.720367326,652.004197579,66436885.8618,1784.47898112,41789039.1091,68529027.1711,4649.8870708,4640.17668658,0.0
1.27948940995,1.31052830538,9.62176224785e-06,24308523.7521,2.38101222773e-05,0.0,25999700.3205,692.722391249,662.073060458,64524946.1355,1973.19979034,67158589.4823,68103480.674,5311.1605407,5298.23487078,0.0
1.24615926521,1.07413700865,9.53482276073e-06,18624846.3314,2.53803279949e-05,0.0,20188767.9658,690.811854683,659.99377318,65035126.1912,1936.87084511,63002587.8585,67336222.1716,5172.80710989,5160.81112154,0.0
1.07038873648,1.12545512575,9.46396231614e-06,-34771586.8963,1.31564100993e-05,0.0,5831680.36282,680.191702319,648.815106359,67025827.5041,1720.83309543,34799675.2779,70373338.2631,4443.18364513,4434.66037939,0.0
1.0239798249,1.06438613109,9.85814654147e-06,-68334455.5037,1.29075875169e-05,0.0,5935077.61822,677.920042643,645.875593589,67287977.0591,1660.59131941,48279298.7194,71015732.6573,4250.54025316,4243.29161552,0.0
1.19642526531,0.934507345395,9.72548051415e-06,6788770.56154,2.38863408436e-05,0.0,8332867.02078,687.79193599,656.909723603,65581653.1006,1878.57207298,53847525.1659,66693386.6711,4966.3612763,4955.05414207,0.0
1.16682752104,1.09407053367,1.00014133653e-05,-962957.884742,2.11060103131e-05,0.0,5517900.7785,685.687027257,655.065868253,66132944.2885,1845.19322247,49429499.7684,67917792.5905,4843.50103984,4833.70809408,0.0
1.05524021674,0.8682485607,1.00542343162e-05,-41942243.3996,1.56926876017e-05,0.0,5840273.80803,679.013039698,647.824083702,67045633.3311,1701.92966228,35197954.6678,70103857.7595,4380.30213969,4372.41466402,0.0
1.1434408012,1.19874999833,1.01327761852e-05,-8364100.55094,1.75959068043e-05,0.0,5561124.4566,683.936910689,653.385083387,66256189.4348,1814.14256688,45203992.8765,68414637.7909,4746.42276578,4736.29198107,0.0
1.2315531408,0.821376698142,1.03904843698e-05,16015733.6137,3.10855484079e-05,0.0,17606968.9925,689.623570204,659.08098171,64991059.9171,1919.77623975,60907490.4604,66663879.334,5112.17708746,5100.56883868,0.0
1.16563622789,0.915377931457,1.0236925923e-05,784148.948048,2.26881008013e-05,0.0,5447409.5584,685.539526889,654.969255746,65874470.8133,1841.03408001,50275232.5151,67528750.986,4838.55598197,4828.02107961,0.0
0.972103034773,0.946034623325,9.74120088287e-06,-94537197.9665,1.4064583322e-05,0.0,6035401.59146,683.244073061,642.553335843,67487423.7546,1615.59410275,69504645.27,69737895.4725,4035.19969734,4028.34139258,0.0
1.15016345478,0.805814956996,9.62633923565e-06,-6715216.16301,2.42849332937e-05,0.0,5571692.37353,684.963325665,653.959728425,66315615.7762,1825.080447,46599171.4168,68725678.9492,4774.32850079,4764.83416288,0.0
0.982554707885,0.714478045281,9.71966003271e-06,-94931091.1275,1.60579867446e-05,0.0,5999501.68658,681.898831689,643.22514055,67395743.533,1618.24777581,69851474.4364,70090728.0077,4078.58459243,4071.57681062,0.0
1.07724694536,0.822311280391,1.00307327721e-05,-30614948.8063,1.74016996316e-05,0.0,5775186.23104,680.415241282,649.331600447,66862606.4279,1730.71340422,35365893.7758,69281536.6136,4471.65207019,4463.21203316,0.0
1.1649201976,1.05526208854,1.02373878521e-05,-2147393.10876,2.20620401552e-05,0.0,5400639.53289,685.598782774,654.90777286,65752895.2126,1839.26009938,48354318.4234,67663361.0991,4835.58374024,4824.3451687,0.0
1.15874977723,0.727132419883,9.85143184657e-06,-3249620.09911,2.51483281072e-05,0.0,5437275.91033,685.594256823,654.542381535,65873521.4323,1832.48633715,48024385.3381,68035349.2724,4809.97032528,4799.11887052,0.0
1.09918179775,0.761592887138,1.00327242851e-05,-22888304.888,2.01057059614e-05,0.0,5707429.67825,681.751122024,650.767403104,66673678.3613,1759.48638107,37141098.3057,68788195.3731,4562.70364246,4553.92100327,0.0
1.11177788866,0.828553737086,9.96938072362e-06,-18770214.7588,2.02066807105e-05,0.0,5680216.37812,682.466844961,651.534794452,66610476.7499,1775.75647182,39155230.4187,68991569.0959,4614.99001583,4606.00184109,0.0
1.05097199551,1.13388134131,1.02865042843e-05,-44599556.3773,1.30401320273e-05,0.0,5811045.79305,678.645771493,647.558378198,66949809.7629,1693.94170479,35654198.823,70426541.9006,4362.58475336,4353.78396415,0.0
0.994495023104,0.75414002856,9.99182834548e-06,-95333412.3213,1.55307161084e-05,0.0,5908378.86228,679.144737683,643.973664703,67130293.0239,1617.66504157,70205882.9352,70460066.6516,4128.1488409,4119.92983198,0.0
1.05008104408,1.13651091071,9.69817130557e-06,-45775267.9596,1.24818778951e-05,0.0,5843906.49754,679.006829825,647.502758342,67034286.6371,1692.69661259,36104250.0031,70678456.1343,4358.88641398,4350.15730775,0.0
1.14184380932,0.884464805442,1.04845531317e-05,-5077134.94877,2.12365123058e-05,0.0,5516184.77753,683.855239698,653.416027984,66079119.633,1811.06809869,47217056.1109,68237719.6897,4739.79365249,4729.56864366,0.0
1.11979120287,0.87933122043,1.02819761841e-05,-14453788.0656,2.01986348474e-05,0.0,5611162.55331,682.687161196,651.99047116,66383091.1127,1784.52830776,41537578.2407,68429753.6753,4648.25328311,4638.64860898,0.0
1.07419999379,1.07717955934,1.02216854982e-05,-31340211.6963,1.44335376464e-05,0.0,5800255.86307,679.9558811,649.141390753,66942627.1226,1726.68341722,35150252.0202,69324381.7983,4459.00417422,4450.81152769,0.0
1.1953940516,0.921024830927,1.03509991638e-05,7868634.60109,2.50512016969e-05,0.0,9254064.1476,687.343458398,656.827290442,65459092.2565,1876.78497066,54243769.5541,66522994.321,4962.08070819,4950.90990923,0.0
0.904928055193,0.92082361706,9.58074250444e-06,-91462967.5432,1.41996703951e-05,0.0,6170643.24987,693.544278843,638.21935113,67797395.6011,1603.87453232,66798677.518,67797395.6011,3756.35635711,3750.16486061,0.0
1.11872011722,1.12790319923,1.04650570971e-05,-14423568.7174,1.6906662688e-05,0.0,5627288.79372,682.372798263,651.919434889,66435226.5442,1782.8403984,41552770.5109,68378217.2882,4643.80720658,4634.22188391,0.0
1.15857313606,0.8131438622,1.02817817498e-05,-2090178.41609,2.40727488231e-05,0.0,5467776.53339,685.180773076,654.531245256,65934949.3186,1833.08750842,48579797.6616,67836024.4226,4809.23708779,4798.91898118,0.0
1.09103610885,1.00723778001,9.84527293761e-06,-26227754.3275,1.61433950528e-05,0.0,5757737.69377,681.254074785,650.211095107,66828261.4805,1748.65576966,36256456.8048,69342714.1794,4528.89088784,4520.23612788,0.0
1.1288092887,1.05542340727,1.01182292959e-05,-12276409.5091,1.8406933955e-05,0.0,5600474.47607,683.192620934,652.509535459,66356752.767,1795.70233538,42963756.7271,67312981.3994,4685.68735739,4675.83196187,0.0
1.2539990344,0.972842227611,9.87453353393e-06,20158192.4475,2.92051950976e-05,0.0,21881798.8856,691.291176219,660.443948377,64638128.8327,1944.17215497,64190367.2018,65042869.838,5205.34999179,5192.63548532,0.0
1.16184824801,1.15558525256,9.85005786236e-06,-2664086.59972,1.80995132515e-05,0.0,5476803.12325,685.482681147,654.73428961,65998510.554,1835.71382492,48385172.2715,67833496.2406,4822.83207749,4811.92525663,0.0
1.09409644439,0.956383992388,1.01416781375e-05,-24244431.3991,1.71848851646e-05,0.0,5732739.66288,681.236466044,650.394580579,66746325.8644,1752.6625747,36649231.7064,69006429.9375,4541.59434066,4532.89162637,0.0
1.0447568531,1.05936774348,1.05260702475e-05,-45315889.3146,1.32990569777e-05,0.0,5825322.49566,678.124969188,647.163211748,66977066.4408,1686.25832337,35911620.7464,70263012.1541,4336.78569722,4328.31925988,0.0
1.21904777345,0.854230336456,9.84907796628e-06,12406623.8723,2.77791307207e-05,0.0,13660095.401,689.202484898,658.294332908,65110763.2241,1904.50035508,57934680.7653,66250917.7074,5060.26730759,5048.21383475,0.0
1.13495339365,0.936028753254,9.77954763739e-06,-10972253.7688,2.05097794563e-05,0.0,5600331.96908,683.958772709,653.011316066,66373836.5873,1804.48767758,43853314.9642,67674683.2742,4711.19153704,4701.51162517,0.0
1.17086360102,1.06592461234,1.04065112932e-05,2257379.38977,2.05639451722e-05,0.0,5420556.24712,685.664419713,655.270522826,65785509.8395,1846.57418581,50890226.9169,67054283.1482,4860.25480783,4849.42594278,0.0
1.06882387297,0.863115720058,1.01083074427e-05,-34425135.9316,1.63158394818e-05,0.0,5789819.44813,679.755675894,648.710844582,66895716.1469,1719.12947081,34743810.0928,69826481.229,4436.6878967,4428.18765414,0.0
1.22155202321,0.920156015611,1.03724953875e-05,13587643.4165,2.75665154377e-05,0.0,14879899.9804,689.013430647,658.452747106,65008177.4915,1906.70437418,58840375.1607,66409922.1638,5070.66244834,5058.64845164,0.0
1.25723764117,0.936383119334,9.98462617239e-06,20998875.8092,3.0616126326e-05,0.0,22820985.3782,691.457863615,660.662153072,64613224.647,1948.18847587,64823862.3186,65635940.7748,5218.7934485,5206.24833201,0.0
1.12095194916,1.06747016307,1.00912349125e-05,-14140556.6047,1.75447538336e-05,0.0,5629186.12827,682.77398265,652.057301236,66449204.0731,1785.43449957,41926605.9912,68454535.6826,4653.07154096,4643.34824725,0.0
1.02585998567,0.900264702924,9.89242900462e-06,-65634493.9496,1.43912633648e-05,0.0,5920763.33087,677.973511044,645.98511776,67249333.2844,1663.1907606,46386820.3847,70981017.2418,4258.34480052,4251.06932141,0.0
1.01311349196,1.12845233446,9.6455559274e-06,-83620155.9357,1.22459861718e-05,0.0,5974634.46981,678.049998122,645.186306944,67365374.6164,1645.92918152,60172872.1941,71307982.3437,4205.43410513,4198.33976729,0.0
0.997587366945,0.882617877618,9.85123819147e-06,-95478553.2774,1.48868777009e-05,0.0,5913724.71967,679.244530949,644.174467347,67152229.0583,1621.81184863,70333753.922,70555838.5459,4140.98516019,4132.79930896,0.0
0.930544724775,1.08947244699,9.85416036177e-06,-92797633.1435,1.23238572184e-05,0.0,6148258.83492,688.753202538,639.879939587,67771584.0853,1605.71359944,67973163.1749,68183403.9098,3862.69115254,3856.71717881,0.0
0.946287787139,1.00636208745,1.0098306087e-05,-93351133.873,1.33188911078e-05,0.0,6096920.40694,686.10220631,640.892523178,67650455.4994,1608.45523755,68460530.4468,68678226.7699,3928.04060441,3921.85848082,0.0
1.29078781314,1.11178503455,9.56952352915e-06,26255205.8029,2.82368462183e-05,0.0,27937727.764,693.4576437,662.683263017,64272649.8541,1985.89265649,68215071.2617,69120596.3501,5358.06021234,5344.92145496,0.0
1.17745599122,0.890729228396,9.49674167874e-06,2340024.99774,2.32349824549e-05,0.0,5386808.53022,686.786988348,655.689104163,65725200.3438,1854.62854231,51440273.9747,67015511.4274,4887.61981955,4876.23292209,0.0
1.1041028798,0.761735058125,9.57871776752e-06,-22214995.3884,2.0018432259e-05,0.0,5709054.34225,682.367060942,651.089117961,66687619.5565,1765.76282989,37562976.6131,68629826.8304,4583.13105405,4574.16949016,0.0
1.0414712218,1.27190792362,9.71145359942e-06,-52150240.619,1.1511650546e-05,0.0,5859379.78998,678.625712659,646.963523416,67075065.0374,1680.90000554,38470384.2147,71087416.1912,4323.14704169,4314.41248315,0.0
0.962911685574,0.893644959855,1.01475931014e-05,-93906543.2247,1.45601214853e-05,0.0,6034826.74374,684.034031759,641.957983428,67486015.8334,1613.09323545,68949596.5798,69175353.2346,3997.04640682,3990.34845676,0.0
1.1445750461,0.950548167114,9.9123352905e-06,-8562096.16989,2.11265634823e-05,0.0,5543751.27086,684.290308621,653.463843977,66198680.9811,1815.97195787,45211559.4284,68360212.1091,4751.13101636,4740.98233295,0.0
1.02000673226,0.860703398929,1.0156585996e-05,-70297252.9219,1.48192364477e-05,0.0,5864972.3372,677.715786872,645.59807224,67058916.5688,1652.73196775,49662727.4022,70888256.4733,4234.04794561,4225.74762101,0.0
1.0654157061,1.00830977843,9.57516502013e-06,-37513427.5289,1.41034106681e-05,0.0,5831564.37935,679.906472084,648.494354948,67018874.962,1714.58333541,34704607.5694,70227933.7212,4422.54059602,4414.09495254,0.0
1.05263577956,1.0232077109,1.03144561053e-05,-42342715.8549,1.40446912438e-05,0.0,5816272.00677,678.690813516,647.652621572,66966206.338,1697.01764063,35195077.2975,70404127.3219,4369.49112095,4360.99049772,0.0
1.08284193175,1.08629795329,9.64613392166e-06,-29698964.9584,1.44589818507e-05,0.0,5798033.91652,680.728047492,649.578401794,66947581.7541,1737.85491714,35659690.9576,69458060.2347,4494.87685869,4486.34996398,0.0
1.05982190425,0.877285226429,1.00257758826e-05,-39766615.4379,1.57290501128e-05,0.0,5797034.75521,679.357715827,648.123261936,66912215.1103,1706.39388456,34792367.3748,69730973.0501,4399.32072454,4390.61265847,0.0
1.09440027282,0.806825651467,1.03905007578e-05,-23042034.075,1.91649326911e-05,0.0,5693336.59736,681.19595973,650.441949076,66627596.4476,1752.31084642,36983482.1383,68933815.6622,4542.85553248,4533.85481359,0.0
1.0508346077,0.90411395729,9.97885214042e-06,-44813697.6671,1.51127987303e-05,0.0,5811954.27067,678.940705133,647.558502489,66943334.6158,1693.80318705,35796212.8377,70493008.381,4362.01445656,4353.27336338,0.0
1.17573483063,0.872959843502,1.04189133319e-05,2922265.48744,2.45437334995e-05,0.0,5374326.25525,686.106107455,655.561637629,65645053.6415,1853.00467926,51327581.6023,66837348.3305,4880.47528195,4869.52977997,0.0
0.994912906809,1.17062235401,9.92034215756e-06,-95453301.5453,1.2006425542e-05,0.0,5934728.08749,679.087740134,644.001369479,67211120.83,1617.92079368,70311341.1992,70559446.0007,4129.88347616,4121.65769694,0.0
1.18256181656,1.10259948517,9.95450362163e-06,4126654.17842,2.04208478404e-05,0.0,5972574.34263,686.599396799,655.993020784,65847698.1154,1862.13036753,52237850.5224,67092709.444,4908.81410054,4898.08360291,0.0
1.11379917286,1.02430965009,1.00056742432e-05,-16332559.9035,1.75461397662e-05,0.0,5628574.0304,682.460278937,651.607273332,66428642.365,1775.3888287,40637382.1685,69256328.7308,4623.38036654,4613.38718152,0.0
1.15723798668,0.679954338355,9.71061443553e-06,-4283343.41989,2.75815997839e-05,0.0,5493560.47398,685.536918874,654.424792325,66072719.4742,1833.05699014,47758782.4915,68417966.0991,4803.69488271,4793.6299013,0.0
0.974029040342,0.923780849105,9.37319640042e-06,-94612689.1666,1.45416405011e-05,0.0,6001634.80013,683.950943926,642.6684444,67375381.0724,1617.0523344,69571202.3797,69807068.6832,4043.19454646,4035.53808642,0.0
1.15853122733,0.761841686937,1.01016716185e-05,-2652126.2852,2.47907970137e-05,0.0,5471790.58812,685.321434651,654.534681574,65980234.5356,1833.36707226,48393764.6815,67981664.4452,4809.06312465,4798.74596966,0.0
1.2041735079,0.9810541546,1.00064795068e-05,9490581.87364,2.43367792994e-05,0.0,10830795.1493,688.050963255,657.328312826,65300967.4599,1886.10206088,55604168.0038,66828633.7212,4998.52423129,4986.6426056,0.0
1.00744454231,0.758014159011,9.56792303607e-06,-91420054.2375,1.55078151132e-05,0.0,5906986.66388,678.64124363,644.806473974,67130901.9968,1635.34768206,66787842.9549,70952697.5162,4181.90229513,4173.68958927,0.0
1.03716930452,0.800172574677,9.86686310937e-06,-56645587.8199,1.57468175033e-05,0.0,5839677.22977,678.520095344,646.692688027,67009853.1555,1675.97740493,40752455.2629,71009043.4052,4305.28978306,4296.80146097,0.0
1.02421499682,1.18532697948,1.01624739068e-05,-64747242.9094,1.19962114141e-05,0.0,5921678.89287,677.577098301,645.878055888,67249457.024,1660.47580596,45772602.1039,70912458.3694,4251.5164518,4244.17474447,0.0
1.06645015386,0.983065613873,1.02793168553e-05,-35263406.3498,1.50811677164e-05,0.0,5800090.88119,679.460142892,648.563641632,66930048.6733,1716.25988886,34658667.5342,69885332.235,4426.83458867,4418.46535117,0.0
1.04992652599,0.945259683414,1.01213526616e-05,-44636603.7744,1.47258325193e-05,0.0,5811118.4577,678.764696644,647.497944304,66941432.543,1692.59388667,35707291.2756,70442985.2999,4358.24500938,4349.51870372,0.0
1.01569432131,0.797227350945,1.04018678098e-05,-72791683.6191,1.51998986234e-05,0.0,5865014.10788,677.439434503,645.322281737,67050485.3204,1647.21022791,51551040.7938,70492942.2591,4216.14712776,4208.0002949,0.0
1.02496464577,0.95863264781,9.89450551223e-06,-66743079.3848,1.38856819946e-05,0.0,5925511.03741,677.930666789,645.925127757,67262163.0208,1661.96780205,47147172.0612,70966396.936,4254.62824459,4247.36555276,0.0
1.16459314816,1.16970678276,9.76595562225e-06,-2272801.10032,1.95041062485e-05,0.0,5544640.08459,685.662797623,654.93505993,66228366.4471,1842.54464293,48978104.5308,68330755.3973,4834.22615801,4824.46982417,0.0
1.12279060657,1.08712840048,9.7522770777e-06,-14370230.6497,1.69189355944e-05,0.0,5613324.15097,683.128123146,652.164223976,66399999.2775,1786.82794391,41687645.2962,68554152.3561,4660.70380787,4650.47475914,0.0
1.10957359184,1.02181173139,9.99605242896e-06,-17513571.868,1.71970889791e-05,0.0,5643271.01229,682.253872634,651.37520208,66481182.0033,1769.93737242,39904367.071,68995845.7786,4605.83997973,4595.91977583,0.0
1.0544497457,0.929646251502,9.8802547309e-06,-44469054.3816,1.50855766754e-05,0.0,5800848.91443,679.220517033,647.77604455,66916027.2601,1698.40689362,35643451.5916,70349302.779,4377.0208944,4368.07238917,0.0
1.20041416807,0.943457319981,9.66336005244e-06,8665737.47176,2.41380852378e-05,0.0,10125825.1186,688.019901232,657.158598562,65579027.6909,1883.47190724,55203048.9695,66847680.1469,4982.91921166,4971.73395718,0.0
1.00565412537,1.05556621521,9.89808338985e-06,-90293648.0037,1.27461779017e-05,0.0,5978898.28803,677.893616293,644.708743473,67370319.5872,1635.97707727,65815804.6797,70933261.7124,4174.47027441,4167.48103621,0.0
1.14886505387,0.981518299788,1.015506571e-05,-6159224.3616,2.18744256882e-05,0.0,5571240.37433,684.489659981,653.90455654,66291279.8566,1823.23965575,46625170.8034,68756395.6731,4768.93883861,4759.56077688,0.0
1.10315756184,1.12741175956,9.76729279233e-06,-20584694.5486,1.52190405512e-05,0.0,5666938.7751,682.034830702,651.004790506,66541177.7721,1761.05532507,38422794.5816,68551319.9543,4579.2070392,4569.11557943,0.0
1.1714594011,0.809803323774,1.01061523237e-05,1536922.89659,2.51145941725e-05,0.0,5416952.13762,686.063321089,655.323532745,65798329.0755,1848.68149495,50655561.7368,67284456.2546,4862.72797397,4852.06906939,0.0
1.00399819419,1.0118047083,9.86123509979e-06,-90484343.1675,1.27774922574e-05,0.0,5950715.24954,677.9372664,644.591718461,67259657.7363,1631.88535806,65977709.6567,71138150.3491,4167.59650408,4159.9452977,0.0
1.02575737663,1.01904278423,9.84912424262e-06,-66218591.1686,1.33672275544e-05,0.0,5928340.84512,677.975501097,645.974857043,67272174.6804,1662.9805354,46789008.7761,70999912.0812,4257.91887039,4250.64485723,0.0
1.09291427951,1.14911131656,1.00985084986e-05,-24883644.231,1.47105984243e-05,0.0,5751830.35608,681.092432797,650.300693697,66816914.0754,1750.96330361,36561700.2634,69085374.3566,4536.68717425,4528.00299689,0.0
1.2063494154,0.964361639815,9.83192416354e-06,10330085.1292,2.45466553163e-05,0.0,11683748.8852,688.188447834,657.470752597,65506442.2323,1890.52097873,56363167.9179,67139244.4912,5007.55642333,4996.37703877,0.0
1.16102139776,0.833079681461,1.01466313481e-05,-3471056.53965,2.58047482834e-05,0.0,5511890.96009,685.41702876,654.708068651,66141156.6045,1838.86752658,47799549.9397,68208001.9313,4819.3998221,4809.8212662,0.0
1.18105363264,1.03220154501,9.72850699031e-06,3424528.80076,2.11429387475e-05,0.0,5597126.73372,686.699883923,655.910781157,65860461.8192,1860.27738985,51973838.9125,67127886.5508,4902.55362909,4891.74169018,0.0
1.03861213269,0.943757708181,1.0305379596e-05,-51896956.8913,1.42584653448e-05,0.0,5836171.53366,678.125914194,646.781120419,67007070.1346,1678.19221137,38305946.5806,70783166.3041,4311.2789628,4302.85510759,0.0
1.0534508226,0.971566465211,9.84725295411e-06,-45147532.7506,1.46026289124e-05,0.0,5807561.55757,679.185362314,647.720519256,66933835.2071,1697.03862466,35857118.627,70469941.2009,4372.87436461,4363.9423999,0.0
1.05599508014,1.14871275811,1.03912622268e-05,-39635322.8815,1.28759701337e-05,0.0,5830834.61959,678.728974022,647.875855635,67007123.3208,1702.27583454,34798606.8335,69641167.1328,4383.43557766,4375.22929237,0.0
1.11023380683,0.971036304398,1.00464371904e-05,-17414421.9359,1.80300487207e-05,0.0,5683337.8339,682.224533845,651.430289621,66602470.8,1772.85852421,40048441.9733,69057061.0228,4608.58053215,4599.43183052,0.0
1.13551997359,0.94487921981,9.72820417667e-06,-10185556.1229,2.03050290732e-05,0.0,5608839.72275,683.980405023,653.046817277,66405465.9519,1805.26280672,44388410.7735,67801886.0977,4713.54341037,4703.96010112,0.0
1.0853016154,0.854640531247,9.89426048273e-06,-27973145.3742,1.7497787822e-05,0.0,5761200.50893,680.991198318,649.876179906,66830413.3843,1741.27450255,35876285.1312,69319351.2779,4505.08700553,4496.52106578,0.0
1.08809729891,0.880474901068,1.0017196585e-05,-26661052.4642,1.74841582061e-05,0.0,5749800.3689,681.039292434,650.039540644,66801585.4952,1744.89972361,36068365.1121,69266970.8084,4516.69188778,4508.08307582,0.0
1.04812653054,0.925219645129,9.94351851682e-06,-45106015.5965,1.45975504674e-05,0.0,5839724.62257,678.783834008,647.384223102,67018121.8839,1691.01189877,35901041.0197,70447555.2408,4350.77322827,4342.41535621,0.0
1.04827129825,0.622183625241,1.01019382825e-05,-46951932.2057,1.81743611222e-05,0.0,5792350.11018,678.884367823,647.389091712,66887623.4915,1690.90188418,36467076.6968,70179926.5538,4351.37415904,4342.70653632,0.0
1.03656346543,1.1508917135,9.60461442148e-06,-58095803.3763,1.23988594429e-05,0.0,5914892.8798,678.618103829,646.74767381,67246605.2864,1677.25587594,41675434.4835,71249642.8114,4302.774945,4295.34729649,0.0
1.242084467,0.985210600481,1.04349560014e-05,18456418.3619,2.8702762121e-05,0.0,20143933.131,690.191592345,659.715386183,64810516.658,1930.28701403,62846427.8063,65775374.4031,5155.89262252,5143.74760354,0.0
1.18740393227,0.944420235669,1.0043721878e-05,5403438.83289,2.37167113602e-05,0.0,6989185.07718,686.961118217,656.301214658,65704116.1262,1868.11591263,52950256.1306,66950447.5294,4928.91372285,4918.09883846,0.0
1.1203249561,0.808935938717,9.62545781344e-06,-15139700.8222,2.05569419361e-05,0.0,5626346.04246,683.182238327,652.011730031,66437643.6399,1785.00142984,41266707.0381,69216061.5148,4650.46889277,4640.65752829,0.0
1.16220436125,0.86246985011,1.03046655707e-05,-1779029.37961,2.48285449359e-05,0.0,5441836.86892,685.426711067,654.755312685,65873196.1557,1837.70951624,48718556.0828,67571153.4912,4824.31030355,4813.87095647,0.0
1.02145091353,0.905889367706,1.01724206964e-05,-68123405.6686,1.43021067828e-05,0.0,5914698.27632,677.592891581,645.705406636,67221412.5894,1656.95154687,48106019.8921,70807294.3639,4240.04274206,4232.74154073,0.0
1.06842377744,0.935758724185,9.55834410386e-06,-35294986.0194,1.51490194682e-05,0.0,5815451.86086,680.093422459,648.6847849,66967615.2664,1718.10632397,34741862.2042,70365212.1635,4435.02710015,4426.44116726,0.0
1.04803294269,0.803300566368,9.71311460095e-06,-48584240.9101,1.60365834688e-05,0.0,5814303.52745,679.112763096,647.381798033,66946205.3108,1689.92816564,37013281.2005,70724157.5869,4350.38474511,4341.54365853,0.0
1.1741525735,1.11562796146,1.01695307345e-05,2379927.90612,1.98059600026e-05,0.0,5423851.83616,685.991670843,655.478583545,65814179.9636,1850.80698654,51171279.8937,67065403.2786,4873.9073326,4862.99145298,0.0
0.991401807127,0.949143271592,9.86890148404e-06,-95490460.3621,1.37108428107e-05,0.0,5984751.92987,679.407102212,643.791045053,67352741.7964,1615.69384817,70343998.1309,70585541.1624,4115.30890138,4108.0965714,0.0
1.20974732651,0.875032311978,1.03458107444e-05,11533831.0232,2.73475201107e-05,0.0,12785186.1871,688.206213527,657.687744321,65290839.0152,1894.05510308,57126756.7481,66315123.9529,5021.66115234,5010.33710653,0.0
1.11579213924,1.11281550755,9.81384828441e-06,-18075241.3062,1.65256489452e-05,0.0,5692366.96342,682.666634652,651.775549201,66645005.6818,1780.59268898,39780167.9055,69211802.4661,4631.65316999,4622.50426476,0.0
1.16448824421,0.96796050627,9.58420289171e-06,-1321136.07311,2.09558262594e-05,0.0,5451690.45115,685.912103625,654.8968797,65913408.0806,1838.87614226,49477746.1986,68001875.4931,4833.79070172,4822.73440279,0.0
1.11275850082,1.07328765333,9.98325772525e-06,-16832343.0874,1.68168050387e-05,0.0,5686530.78135,682.354327928,651.579716729,66615549.0248,1776.0468556,40388565.6646,69224317.1261,4619.0605369,4609.87254497,0.0
1.22461405168,1.11799928651,1.01723744591e-05,14150331.0227,2.35420123935e-05,0.0,15498399.2579,689.120481807,658.662529946,65206796.2966,1910.94234345,59402421.4184,66682219.79,5083.37292852,5071.66203267,0.0
1.18256094642,1.08720835659,1.00072905021e-05,4501815.56515,2.06860612529e-05,0.0,6186489.89905,686.560613647,655.985986913,65811177.9125,1861.91638227,52439228.4698,67101329.5101,4908.81048859,4898.06891459,0.0
1.08546349759,1.24007356119,1.02214699094e-05,-27001841.2171,1.34030877651e-05,0.0,5771986.80401,680.601776377,649.874033901,66869106.6738,1741.16592247,35957800.7175,69278220.5012,4505.7589785,4497.19126064,0.0
1.18874892346,0.959510625144,9.93059556778e-06,5760889.75698,2.31890105054e-05,0.0,7336613.43215,687.144433953,656.376445075,65592649.1147,1868.30183153,53188971.6498,66821485.5418,4934.49678128,4923.12254961,0.0
1.13167727727,1.10226555977,1.0442086033e-05,-11011070.6653,1.82870849273e-05,0.0,5578875.16287,683.144177566,652.703625117,66300897.3201,1799.19825843,43650572.4271,67647203.8025,4697.59237795,4687.68840637,0.0
1.25128185067,0.719619975987,9.9156577973e-06,20076040.7811,3.54028579719e-05,0.0,21747643.3037,691.313684673,660.283212846,64594198.4332,1941.92029212,64038519.2588,64944975.5728,5194.07096213,5181.64261406,0.0
1.10055504741,1.02982934237,1.06549064982e-05,-19482774.7114,1.6966710109e-05,0.0,5628178.12537,681.303989429,650.80986574,66410206.668,1757.73123087,38823228.1646,68501779.1027,4568.4040018,4558.45210985,0.0
1.12720175731,1.07071832568,9.74434327856e-06,-13318186.7164,1.7750200018e-05,0.0,5595458.95804,683.444816511,652.472012776,66345152.9047,1792.58844776,42304739.9166,67874659.0266,4679.01449459,4668.78928504,0.0
1.04118262875,1.0615321317,9.86591829992e-06,-51493675.3779,1.30490933549e-05,0.0,5858488.27426,678.504448276,646.935386388,67070153.9052,1681.41817828,38203280.2467,71030992.9828,4321.94909194,4313.54096295,0.0
1.07090306797,0.888808451689,9.64337893045e-06,-33474805.2422,1.57716563185e-05,0.0,5797796.3419,680.179848055,648.839284207,66917176.7667,1721.05636036,34954377.2695,69986950.7848,4445.31863514,4436.59992823,0.0
1.13410528076,0.999993389908,9.72734982089e-06,-11295056.7094,1.94594801191e-05,0.0,5611471.97104,683.89937837,652.950981638,66421526.1569,1803.35356308,43652826.2846,67626489.8763,4707.67102043,4698.00518811,0.0
1.13462748767,0.909686670887,1.02026927266e-05,-11079507.6922,2.17884079815e-05,0.0,5612573.5414,683.634703391,652.995140695,66419651.9281,1805.49000806,43689853.205,67775437.8504,4709.83870132,4700.71087316,0.0
1.12235582318,1.00191217628,1.03874006744e-05,-13616082.8764,1.89101607869e-05,0.0,5607453.15354,682.725707981,652.159437278,66378151.612,1787.65309747,42078674.2983,67763733.3242,4658.89902202,4649.252462,0.0
1.03883298369,0.908329356719,1.01702462523e-05,-52639876.3167,1.45635290527e-05,0.0,5838867.34387,678.261521732,646.793279859,67013087.0089,1678.51081266,38675014.7793,70932355.9541,4312.1957153,4303.76695346,0.0
1.01799944386,1.16698247616,1.03431396762e-05,-72725021.7676,1.20739163249e-05,0.0,5931495.02623,677.312921017,645.484905055,67271039.0182,1652.43020034,51476520.9028,70791577.2325,4225.71569146,4218.55242982,0.0
1.04463262145,0.781583255247,1.0113239962e-05,-48800405.7389,1.62308377268e-05,0.0,5812396.79177,678.633767506,647.16671973,66941746.3911,1685.936431,37098413.6654,70908506.5103,4336.27001164,4327.66132155,0.0
1.11361970153,1.17604663017,9.9155153876e-06,-16632654.589,1.55194887179e-05,0.0,5646757.83449,682.43913372,651.60805305,66497888.2714,1775.01806175,40536482.7286,69261109.0352,4622.63538105,4612.64530001,0.0
1.25369987359,1.21968621467,9.77932867745e-06,19887049.2968,2.380178069e-05,0.0,21586127.1896,691.112189773,660.425455003,64770347.2891,1943.27815412,63997313.2731,64899182.6417,5204.10817527,5191.33462156,0.0
1.05375004048,0.625992219147,1.00995882981e-05,-43700896.1218,1.8739414771e-05,0.0,5758610.15262,679.130324736,647.711500943,66792210.5602,1697.01020599,35436872.3513,70139225.6713,4374.11641803,4365.00406812,0.0
1.20682336727,1.09637718558,1.03500096183e-05,10846491.4575,2.2708017091e-05,0.0,12081207.5839,687.82648571,657.476211778,65418965.0887,1890.16864873,56579615.8948,66824811.7017,5009.52379754,4998.23802627,0.0
1.05617552011,1.00033414307,9.94479397173e-06,-42000186.4963,1.42459606335e-05,0.0,5814295.79918,679.282226617,647.957782894,66957432.112,1701.45033665,35144675.313,70226670.6465,4384.18458398,4375.53525538,0.0
0.948139268916,0.931153624465,1.04558515509e-05,-93301524.6433,1.36610557476e-05,0.0,6057782.46025,684.919071094,641.004224174,67528698.9778,1604.66507212,68416951.2417,68634501.5601,3935.72610527,3929.20522634,0.0
1.05612450429,1.15525523419,1.02879002089e-05,-40804101.7664,1.28807363439e-05,0.0,5817360.46715,678.82913294,647.867505347,66965725.6657,1701.5603178,34943871.1635,69618959.6905,4383.97281731,4375.41663633,0.0
1.17092695153,0.921214022079,1.00052229954e-05,1047144.8356,2.26519457914e-05,0.0,5406995.92142,686.064046431,655.291954071,65758898.4739,1846.89482832,50382346.5493,67409029.7764,4860.5177758,4849.4492776,0.0
1.2531537306,1.1459509895,1.00756012984e-05,20190282.0616,2.57686222154e-05,0.0,21998769.9442,690.952996272,660.401191913,64793572.8472,1943.36402342,64302760.1836,65137566.5883,5201.84113572,5189.49013036,0.0
1.147007177,1.05928745032,1.0375642168e-05,-5474855.04037,1.90191551097e-05,0.0,5500257.30065,684.116168243,653.666125063,66034761.5469,1817.04551778,46638248.9971,68646744.9909,4761.22679173,4750.59839427,0.0
1.04743329302,0.705001334376,1.0165671517e-05,-47071787.5615,1.71744829907e-05,0.0,5798541.50689,678.754388233,647.337041036,66906469.5659,1689.72890263,36388897.8222,70143643.531,4347.89559933,4339.24156348,0.0
1.11198987015,0.948678996131,9.94554145842e-06,-17113599.8065,1.83725330734e-05,0.0,5680800.6397,682.400082992,651.53854042,66610561.2954,1775.17387919,40257736.6409,69140629.4756,4615.86995099,4606.69288318,0.0
1.17007136742,0.896039299626,1.01424348655e-05,1231100.41775,2.33457752946e-05,0.0,5431337.88621,685.902273529,655.245868322,65841775.0534,1846.811608,50458817.4423,67458716.4461,4856.96624616,4846.33153629,0.0
1.17050848517,1.02229863813,1.01087068499e-05,1211182.71816,2.110779391e-05,0.0,5446157.73563,685.865687519,655.273350394,65886407.3274,1847.20247505,50503325.8412,67523047.8865,4858.78072194,4848.13839504,0.0
0.95959274874,0.642188038795,9.94083605535e-06,-93852432.7881,1.67816882392e-05,0.0,6052738.10208,685.039269754,641.750065449,67538127.2915,1614.66196745,68901944.2341,69125807.1377,3983.26950002,3976.908927,0.0
0.912370140217,1.12053397571,9.82397923302e-06,-91922355.7646,1.2225908732e-05,0.0,6189402.15035,691.350490417,638.708168906,67878967.4497,1602.30104188,67202856.0108,67878967.4497,3787.24845204,3781.54029557,0.0
1.10302825788,1.13834861241,1.01987721046e-05,-21415187.3464,1.56658489441e-05,0.0,5717724.21221,681.6907662,651.011362265,66716874.0559,1764.1422226,37785173.3139,68650509.3648,4578.67029846,4569.82700771,0.0
1.09388408417,1.07052971239,1.00650298258e-05,-24623163.5493,1.56883579894e-05,0.0,5745172.367,681.21320133,650.371206406,66796718.8358,1752.2961644,36606818.1347,69098455.8774,4540.71283339,4532.0134502,0.0
1.13620166291,0.850736640822,1.02643247926e-05,-10529820.0417,2.29760693791e-05,0.0,5599407.24858,683.724131323,653.09565606,66382271.0213,1807.53979478,43928441.0469,67864314.6411,4716.37310274,4707.21908841,0.0
1.14769376443,1.13321401509,9.61198990455e-06,-7536614.93946,1.85493684411e-05,0.0,5610991.57992,684.612441476,653.773480481,66432644.9919,1821.5922487,46174440.0112,68653865.1462,4764.07681615,4754.62239077,0.0
1.0524359909,0.87192408627,9.97313519444e-06,-42728432.0749,1.5301949685e-05,0.0,5825526.11687,678.988456541,647.654907275,66984185.4122,1696.78936918,35318258.9561,70585164.0723,4368.66179823,4360.23611333,0.0
1.10332154717,1.30924120315,9.98202065339e-06,-21675129.8692,1.37648045762e-05,0.0,5738816.87302,681.804873326,651.041474178,66775802.5865,1764.59739226,37742696.7302,68670855.5584,4579.8877423,4571.03906662,0.0
1.12707829636,1.0152624472,1.03849400197e-05,-11252373.2677,1.84318773971e-05,0.0,5599148.69852,682.89049727,652.397627891,66345035.8492,1793.36042872,43479365.7968,67468916.4603,4678.50200819,4668.71489777,0.0
1.19915090865,0.950897973591,1.01469567453e-05,8088460.82236,2.44694285977e-05,0.0,9515455.91594,687.689255973,657.059367958,65442550.2929,1881.27324834,54645160.6171,66619175.4428,4977.67542181,4966.30539215,0.0
1.18740526628,0.93482364281,1.01055376939e-05,5526693.31748,2.39803056229e-05,0.0,7054109.28326,686.932241553,656.302685132,65690861.1005,1868.06948112,52984360.9351,66916589.2039,4928.91926033,4918.10435265,0.0
1.05630281241,1.06305845089,9.91196184681e-06,-41119170.3635,1.34446605769e-05,0.0,5840680.32542,679.134718882,647.888112754,67035343.3191,1702.40745165,35053701.9197,70318435.5715,4384.71297431,4376.40812579,0.0
1.13963383279,0.76549095088,9.95175733082e-06,-10123431.9661,2.45211300105e-05,0.0,5598236.49924,684.17875505,653.313736566,66377994.5185,1812.31658016,44233415.5646,67984078.5982,4730.62003991,4721.43793586,0.0
1.06631775174,0.827653288075,1.02644673092e-05,-35351121.4565,1.67291473796e-05,0.0,5791706.22019,679.521973387,648.554906758,66903595.1237,1716.19773272,34645309.3686,69871954.1392,4426.28498747,4417.91780332,0.0
1.1393070508,0.773562345767,9.96902058623e-06,-8710678.43438,2.38089217146e-05,0.0,5559625.90832,684.143473433,653.261849078,66259309.6065,1809.90340019,45313162.2344,68111631.3846,4729.26356787,4719.51571021,0.0
1.19224548573,0.954919222069,9.8945301512e-06,5869974.30669,2.37021968092e-05,0.0,7436077.27955,687.449618633,656.607437129,65483850.6539,1872.33023138,53163889.7958,66727495.6331,4949.01101127,4937.33651052,0.0
1.16390276044,0.690492270504,9.89240534198e-06,-727817.18233,2.66067692436e-05,0.0,5407524.52204,685.894977013,654.854987935,65770885.4783,1838.633709,49450833.3874,67648995.4085,4831.36035859,4820.41736307,0.0
1.08532130096,0.846376613182,1.02516848232e-05,-26880451.1853,1.78750282277e-05,0.0,5745228.61092,680.72851489,649.863140481,66787125.4974,1741.27719947,35948543.9756,69176371.4437,4505.16872028,4496.60321877,0.0
0.95019748805,0.703364402694,9.47126468016e-06,-93592937.5752,1.62234533647e-05,0.0,6098995.62335,687.581131872,641.147877205,67655405.391,1616.87211232,68673327.9532,68892971.5524,3944.2697729,3938.03529051,0.0
1.02261855107,1.07209645684,1.01558704982e-05,-67964579.6488,1.30482812993e-05,0.0,5871136.92641,677.682934919,645.760935294,67084830.5766,1656.08357499,47976357.6543,70853695.2189,4244.88960549,4236.54743974,0.0
1.20752271145,0.581431922605,1.02522646089e-05,10844781.5121,3.62555576074e-05,0.0,12126312.0846,688.545184862,657.500412696,64956362.96,1890.80163131,56476319.1138,66368536.1708,5012.42677523,5000.48265956,0.0
1.28632071879,1.12716834419,9.94543955445e-06,25808115.1779,2.86448363748e-05,0.0,27473800.749,693.018760667,662.41005167,64272169.7232,1980.38879363,67975262.5404,68820891.6157,5339.5173037,5326.47644296,0.0
1.06082581036,0.927181979767,1.02453042048e-05,-37919898.7554,1.53147436377e-05,0.0,5811963.61471,679.192584139,648.195484096,66954824.2537,1708.85806141,34658738.5758,69934894.796,4403.4879388,4395.20574349,0.0
1.09713406738,1.1978967316,1.00881757924e-05,-23511297.9845,1.44957748728e-05,0.0,5743320.31675,681.376984338,650.618693797,66781933.2275,1756.4320714,36975571.6414,69061074.9077,4554.20351369,4545.45309392,0.0
1.03065196581,0.974624344586,9.97481522017e-06,-61474953.361,1.39770287015e-05,0.0,5860401.46699,678.12513304,646.279966491,67064057.5504,1667.24522405,43603640.1012,71027541.902,4278.23631008,4269.85118026,0.0
1.080620274,1.19762750336,9.66223972967e-06,-30579951.4455,1.31873996698e-05,0.0,5809828.61639,680.541858216,649.429057919,66980421.9446,1734.86147601,35470549.4729,69456470.4238,4485.65475737,4477.1623958,0.0
1.0789715846,0.733067061516,1.01167147271e-05,-29508052.2064,1.87638220135e-05,0.0,5760959.0776,680.505623408,649.457174469,66822873.2431,1733.05342715,35518269.605,69239079.4307,4478.81104767,4470.34427592,0.0
0.92734992608,0.965084133667,1.03767475208e-05,-92232415.8907,1.35173016443e-05,0.0,6059291.76423,688.209704781,639.652056199,67493615.8083,1598.99480425,67476062.8356,67682344.2181,3849.42954316,3842.33937028,0.0
1.13167697367,0.826765973213,9.49059624776e-06,-12388531.9639,2.14913576737e-05,0.0,5624128.17985,683.958350989,652.784459509,66456980.3571,1800.82839207,42895271.5292,67946327.8018,4697.5911177,4688.06866993,0.0
1.17461710748,0.887949993662,9.94461359774e-06,2515924.258,2.34634518328e-05,0.0,5399171.20396,686.310262527,655.507760552,65746842.5733,1851.48872162,51316634.7604,67003199.6741,4875.83561315,4864.80873295,0.0
1.11588765965,1.11375114795,9.51862027037e-06,-16450654.5358,1.60890062469e-05,0.0,5671936.46765,682.860914647,651.772502632,66576110.1549,1778.825558,40610804.3606,69390510.838,4632.04967521,4622.31021303,0.0
1.07965976054,0.688863417663,1.03667238128e-05,-28630562.1615,1.97535358827e-05,0.0,5750411.44469,680.403001444,649.518287207,66786548.6399,1734.31952614,35579440.6748,69136135.179,4481.667666,4473.28677483,0.0
1.14990837615,1.01465250549,9.84236330101e-06,-7608027.10295,2.10273956604e-05,0.0,5586823.46538,684.719595731,653.942757497,66354591.2217,1824.96855304,45805540.5449,68664790.2718,4773.2696694,4763.87028945,0.0
1.16217958984,0.896347173994,9.6206795035e-06,-2607531.79852,2.34432411217e-05,0.0,5504173.7087,685.796042027,654.77792889,66104953.9082,1838.68590392,48668057.1093,68188291.0172,4824.20747743,4814.06090996,0.0
1.03229701482,0.88826793122,1.00676691893e-05,-58263782.6174,1.46736135126e-05,0.0,5897202.41211,678.006721956,646.387877373,67190712.3865,1671.81466883,41731988.2332,70954636.2895,4285.06490852,4277.69721383,0.0
0.947152882101,0.930200987812,9.9714673127e-06,-93402369.1752,1.39879736265e-05,0.0,6096958.90756,686.388019736,640.948952113,67650319.4326,1610.16627101,68505579.7829,68723484.6916,3931.6316136,3925.43780548,0.0
1.23657827136,1.08075568668,1.01113137259e-05,17070117.7421,2.55310633932e-05,0.0,18661192.3542,689.828195722,659.364615114,65122096.1156,1925.46471083,61819803.1713,66989049.1807,5133.03640442,5121.42492729,0.0
0.975233301947,1.10896582225,9.9108183009e-06,-94793091.9198,1.25717725125e-05,0.0,6041561.08487,682.010617314,642.757360644,67515245.1837,1613.61037061,69729998.3483,69965722.4586,4048.19343638,4041.54575217,0.0
1.10685535438,0.896967951,1.02367604421e-05,-18130778.5804,1.87687119304e-05,0.0,5663912.28549,681.948081256,651.217961386,66546906.1413,1767.75734212,39646301.0188,68867815.2058,4594.55657603,4585.26672829,0.0
1.11490483851,1.26017004313,1.04893280577e-05,-15391395.6937,1.51509429964e-05,0.0,5651310.40746,682.045913895,651.660512633,66503044.9734,1777.88093818,40997337.4045,69026519.458,4627.96998466,4618.44757847,0.0
1.17898951244,1.00486093818,9.87011362112e-06,2982695.96589,2.13822476497e-05,0.0,5403174.25121,686.540371018,655.776361828,65761542.5844,1856.95438638,51555956.7327,67022602.95,4893.98546614,4882.8862972,0.0
1.09391985052,0.827446265162,1.01468810089e-05,-24308920.3985,1.87508288865e-05,0.0,5723521.04518,681.279157975,650.381904982,66716393.8457,1752.55699663,36666983.178,68960028.6195,4540.86129951,4532.16135532,0.0
1.16740639594,0.982973352202,9.8114511472e-06,98597.2247913,2.11855927376e-05,0.0,5437353.05512,685.916172705,655.073642392,65865118.3267,1842.42862298,50120936.4852,67771585.9047,4845.90394955,4834.89973802,0.0
0.999630064787,0.926852626642,1.01281759308e-05,-95655484.9074,1.42094002947e-05,0.0,5899043.5642,678.268408334,644.298280203,67112213.8011,1624.46989136,70489057.1381,70603542.5586,4149.46439893,4141.16203931,0.0
1.14726250688,0.875857237119,9.8028757187e-06,-6413162.78885,2.25158091975e-05,0.0,5541781.05574,684.663715392,653.759169421,66215986.7079,1819.52723486,46735012.199,68690026.1001,4762.28666606,4752.30103046,0.0
1.12462844866,1.13025209149,1.01118845278e-05,-13148936.1086,1.67555870458e-05,0.0,5621878.46871,682.967168643,652.306853375,66429143.7785,1790.19370133,42439078.6901,67841302.0094,4668.33269039,4658.56588475,0.0
1.03866862844,0.868923604098,9.85793981291e-06,-55478676.2307,1.51301267232e-05,0.0,5840761.81862,678.560055869,646.787664227,67016459.4966,1677.91963516,40121133.325,71141386.3791,4311.51347665,4303.00102861,0.0
1.31060283603,1.10473284245,9.80761127414e-06,29216006.158,3.18152301435e-05,0.0,30717123.1853,694.856589419,664.096233589,63911086.2896,2008.09047599,69505000.9484,70681783.278,5440.31237236,5426.85264111,0.0
1.15024363404,1.07865106924,9.45401206353e-06,-7063848.96846,1.94015073767e-05,0.0,5603872.88555,684.9078479,653.948142222,66424301.2534,1824.90965542,46504500.5967,68779645.7975,4774.6613249,4765.13895376,0.0
1.17175149271,0.858405571566,9.8605182643e-06,1377235.24565,2.33693065626e-05,0.0,5414226.89285,686.209077159,655.349663789,65784338.4832,1848.27477553,50716710.2474,67474373.7658,4863.94044624,4852.96973638,0.0
1.10442916251,0.896556518159,1.06042680727e-05,-18424679.7323,1.89497095003e-05,0.0,5612120.59196,681.625418864,651.044454815,66369971.2856,1763.20675304,39388508.1903,68657848.7134,4584.48545358,4574.56066995,0.0
1.03326332703,0.69675759928,1.04693209435e-05,-55302478.4885,1.64288986043e-05,0.0,5809515.32507,677.82453474,646.429188972,66911528.2386,1670.05481745,40013047.0146,70811609.9088,4289.0760705,4280.44569652,0.0
1.085911552,0.923152694381,9.72286245177e-06,-28348415.6251,1.66095593181e-05,0.0,5771231.90901,681.122665599,649.920117527,66872314.5087,1742.01113483,35855360.5853,69387482.9445,4507.61885235,4499.04414937,0.0
0.992657223019,0.855257749654,9.80717545358e-06,-95512230.166,1.47172851182e-05,0.0,5980782.58882,679.590734161,643.871748911,67346416.8651,1617.58649663,70363158.7,70602541.4445,4120.52013275,4113.37350677,0.0
1.22504090265,0.77998630327,9.76384298351e-06,13763515.279,3.01612545935e-05,0.0,15113505.449,689.716796461,658.677214018,64975969.2913,1911.4580849,59006907.9017,66389879.5374,5085.1447869,5072.91331821,0.0
1.03052304903,0.896077801396,9.95724277371e-06,-60762518.6031,1.45365700912e-05,0.0,5855132.11648,678.145426433,646.270189468,67045937.9512,1666.90408721,43174609.9252,70928128.7855,4277.70117652,4269.23149279,0.0
1.22630630059,0.705315929917,9.6697537392e-06,14080957.8838,3.22470495179e-05,0.0,15500317.8325,689.887036482,658.774536698,65044692.8404,1914.12776897,59341189.421,66480538.5406,5090.39745375,5078.53576645,0.0
0.973825604157,0.721681759396,9.88485233349e-06,-94672035.4419,1.57673087684e-05,0.0,6027008.18875,682.436114597,642.666673283,67467443.8788,1613.80704321,69623339.0346,69858127.9301,4042.35008286,4035.72182843,0.0
1.06126192433,0.93623237207,1.02019638211e-05,-36972974.9044,1.53118874776e-05,0.0,5824669.17415,679.338688463,648.313018936,66996990.8639,1710.04993071,34657305.6358,70037322.3916,4405.29824789,4397.28356559,0.0
1.1935505277,0.994246259768,1.03387381858e-05,7417074.65806,2.34864241942e-05,0.0,8822960.13929,687.191422991,656.72052319,65512172.9395,1874.47855847,53931680.7918,66514670.9902,4954.42824048,4943.29178028,0.0
1.0395502124,0.787740193058,9.56522810919e-06,-54875296.5548,1.59996907224e-05,0.0,5828414.60841,678.873384142,646.838736432,66976775.5946,1678.04005729,39808247.5058,71376821.1054,4315.17293167,4306.29808284,0.0
1.10855551359,0.9741150299,9.75061792286e-06,-18647731.5065,1.73412778674e-05,0.0,5686582.72382,682.366624659,651.342232197,66615826.1872,1770.18728207,39471212.8717,68866883.9697,4601.61393691,4592.19670753,0.0
1.20600383193,0.860996335124,9.79301549521e-06,10248492.0598,2.65404162619e-05,0.0,11621338.977,688.26179991,657.445827631,65477525.5403,1890.32967718,56308138.261,67585564.8582,5006.12190634,4994.94864071,0.0
1.06077950704,0.807258779492,1.03265076455e-05,-37600757.6669,1.65914262694e-05,0.0,5801999.31379,679.170846447,648.190922563,66926007.2107,1708.86933566,34615289.5464,69915640.5708,4403.29573372,4395.01571267,0.0
1.1097701657,1.02260105161,1.0054555206e-05,-17387919.4779,1.72541175782e-05,0.0,5639878.07825,682.218065969,651.383207204,66456884.1332,1770.17513101,40059404.709,69014509.6228,4606.65595782,4596.73236352,0.0
1.21513085668,0.841314993497,1.00852807761e-05,12003436.8284,2.81431228342e-05,0.0,13254369.2965,688.798361184,658.037406436,65173029.6746,1900.07508899,57545736.8099,66216512.2751,5044.00818608,5032.22339022,0.0
1.06150911286,0.759363226082,1.0407421331e-05,-36913264.9756,1.71915374039e-05,0.0,5794324.94128,679.166697072,648.240365905,66904921.3465,1709.886871,34587746.9443,69941765.467,4406.32432748,4398.03157734,0.0
1.02691590478,1.03837317152,1.00802867199e-05,-64543851.312,1.34535007245e-05,0.0,5861938.92225,677.883835029,646.036435362,67064225.8556,1661.84643234,45613098.479,70887784.891,4262.72792074,4254.31672617,0.0
1.0173448556,0.978774507067,1.01250539555e-05,-73837232.1389,1.36487984256e-05,0.0,5929967.24794,677.574986566,645.446151351,67253471.032,1651.45147417,52328963.846,70816119.6761,4222.9984956,4215.75552484,0.0
1.08384577041,0.962656071742,1.0239637721e-05,-27430653.1871,1.63702698993e-05,0.0,5757693.25857,680.610735369,649.774678495,66823090.5617,1739.25453708,35826507.129,69228119.39,4499.04379297,4490.50127588,0.0
0.976815026439,0.95833630676,1.00281450994e-05,-94669884.7234,1.38770568622e-05,0.0,6012892.07596,681.785401435,642.854182031,67432336.5236,1613.81224621,69621424.1407,69856665.6695,4054.75917475,4047.83610494,0.0
1.0272048074,0.953209988197,1.03506703008e-05,-63726878.887,1.42082064138e-05,0.0,5825351.17836,677.670641536,646.04360138,66956761.0124,1661.05784067,45068035.3959,70623872.8237,4263.92715552,4255.08753,0.0
0.999685057686,0.954453011223,9.92047051511e-06,-95581675.8822,1.40686261866e-05,0.0,5908360.30053,678.694552345,644.305738008,67137377.7858,1624.47048063,70424708.0192,70844319.4268,4149.69267445,4141.38942037,0.0
1.13226884439,0.75620798072,9.51242630532e-06,-12058853.7443,2.27091038066e-05,0.0,5556827.39218,684.117382698,652.809610591,66240891.0759,1799.60861292,43015483.4086,67573103.8351,4700.04797306,4689.70928177,0.0
1.07723938213,0.944792803072,9.94468211953e-06,-30940197.8366,1.59045052382e-05,0.0,5790799.53677,680.243124544,649.204010633,66921036.5518,1730.61362673,35299488.8569,69339318.927,4471.62067522,4463.18075536,0.0
1.09238203654,0.757322681239,9.59979143019e-06,-26028990.3395,1.90607897982e-05,0.0,5742932.24305,681.618706742,650.295278306,66785373.971,1750.43264314,36325381.7244,69362886.7281,4534.47783368,4525.70395231,0.0
1.09711895812,1.00953002897,1.00601756081e-05,-23562491.3267,1.67574129148e-05,0.0,5731306.24833,681.475090827,650.616755382,66744837.8998,1756.57198354,36951325.7961,69034760.8174,4554.14079516,4545.39061293,0.0
1.11261229219,1.01165136258,9.76832239362e-06,-17235018.6545,1.72734598595e-05,0.0,5650306.73093,682.57833345,651.569175707,66506628.7682,1774.24112268,40160907.0643,69141030.6716,4618.45362488,4608.57840924,0.0
1.0653788177,1.19894657904,9.97379294852e-06,-36602995.4975,1.26390603334e-05,0.0,5824379.56865,679.536850954,648.489780951,67003176.9861,1714.37422779,34675556.156,70227031.8032,4422.38747227,4413.94117592,0.0
1.12234843179,0.692074473318,1.04224637731e-05,-13419689.9338,2.37619089535e-05,0.0,5574594.12959,682.886939222,652.158896363,66277192.4529,1788.00559089,42116676.2865,67559002.0544,4658.86834036,4649.22190382,0.0
1.02979636032,0.846460562691,9.84141569166e-06,-61253528.8353,1.49782428532e-05,0.0,5910177.55161,678.162269284,646.244245327,67223175.082,1668.46093235,43440947.8189,71069307.4342,4274.68469169,4267.35287956,0.0
0.968429946338,1.02485684616,1.00366569777e-05,-94210657.0093,1.35614363338e-05,0.0,6000013.6872,683.162477515,642.305244433,67375264.5532,1611.39338648,69217318.0578,69447112.4486,4019.95270725,4012.53955511,0.0
1.05788597626,0.966776357026,1.02378563703e-05,-39338665.1531,1.47591416596e-05,0.0,5821563.34588,679.024377487,648.005628737,66978868.7729,1704.90694659,34791274.3655,69719277.5489,4391.28468746,4383.04784005,0.0
1.01840121189,0.962800129568,1.02784268404e-05,-72816853.1635,1.38945239413e-05,0.0,5922653.89563,677.458189306,645.512097898,67243939.4787,1653.07265498,51544234.8569,70788941.8299,4227.38343056,4220.21446594,0.0
1.06377254663,0.809006365168,1.01198619771e-05,-36664870.121,1.66068473546e-05,0.0,5798880.08223,679.489960935,648.385787491,66913750.9169,1712.5416572,34617918.027,70070393.5803,4415.71984106,4407.29864933,0.0
1.09231261931,0.974571319495,1.00773759668e-05,-25065350.5384,1.67909545608e-05,0.0,5741927.55015,681.148416297,650.262431177,66784725.5818,1750.32761696,36460387.8614,69134621.9811,4534.18968276,4525.51493352,0.0
1.01795822327,0.862588030226,9.63189399593e-06,-77754246.5473,1.45955065893e-05,0.0,5949582.18556,678.143917876,645.492727796,67314349.1353,1652.61045754,55399537.5223,71007407.6586,4225.54458479,4218.38162772,0.0
0.992886152147,0.979473140835,1.0144643082e-05,-95243822.6917,1.39262877378e-05,0.0,5920033.30516,679.049059906,643.871343349,67168313.5151,1615.61266531,70127193.9142,70398262.6504,4121.47041756,4113.35782807,0.0
1.14357721515,0.993455248342,1.0012593163e-05,-8662142.04961,2.05006866637e-05,0.0,5546598.13372,684.158436463,653.403015903,66210677.2344,1814.62073717,45169386.9564,68324553.1509,4746.98902009,4736.85750147,0.0
1.0103578059,0.849010866828,9.92349456114e-06,-84222250.4302,1.45071260732e-05,0.0,5956929.08961,677.793229507,645.002800375,67310680.2516,1642.43507858,60666797.6939,70831827.0189,4193.99525229,4186.93981915,0.0
1.10100062578,1.12081673073,9.6439677323e-06,-23184802.8783,1.52441999294e-05,0.0,5742985.99994,681.943745054,650.87052382,66788260.3445,1761.37536617,37266641.8356,69265654.6183,4570.25359761,4561.34300762,0.0
1.03788526854,1.24600229396,9.62399035119e-06,-55818543.5495,1.17851608154e-05,0.0,5858793.15458,678.572539296,646.736225629,67067950.8937,1675.51554415,40273742.9923,71151706.971,4308.26174971,4299.41442834,0.0
1.07601247521,1.09991605227,9.33851104121e-06,-32634944.1115,1.36187978835e-05,0.0,5821273.03281,680.561161692,649.144514088,66997092.5504,1728.24160549,35111716.9215,70068682.3537,4466.5277846,4457.91605515,0.0
1.25676420889,1.24217815632,9.95507040815e-06,20588435.8662,2.42939979068e-05,0.0,22444471.8828,691.214783314,660.620532825,64704927.4566,1946.64801199,64587658.371,65364609.897,5216.8282311,5204.05953211,0.0
1.08111270796,1.0945776753,9.60434313261e-06,-30544593.8775,1.42345400003e-05,0.0,5804750.97892,680.649392639,649.461467199,66963849.6425,1735.58093542,35498533.9374,69450293.2798,4487.69885074,4479.19865848,0.0
1.15521933867,1.28017891878,1.00161530208e-05,-5873034.82016,1.77660692521e-05,0.0,5581731.80979,684.843097683,654.305528507,66346402.9275,1831.34274031,46718930.9852,68665795.1833,4795.31547482,4785.83072556,0.0
1.15208156441,1.04641289231,1.0283522287e-05,-5703763.61662,2.00577629309e-05,0.0,5485271.20317,684.552721364,653.990438057,66025453.6798,1824.21749285,46478629.6324,67315333.9287,4782.29057387,4771.6316037,0.0
1.11135943068,1.2257143143,9.78006273183e-06,-19459192.5506,1.48914107415e-05,0.0,5715317.36444,682.411696803,651.520238189,66722837.6262,1774.78497898,38922723.1515,69017938.1434,4613.25299675,4604.17521417,0.0
1.12191292214,0.915525433389,9.83273320132e-06,-14391051.7804,1.94276141256e-05,0.0,5606748.31782,683.112475313,652.114164236,66376331.652,1786.30605902,41625835.2651,68265319.364,4657.0605398,4647.02535383,0.0
1.06545668926,1.06417159906,1.02145881642e-05,-34838174.9564,1.40383212421e-05,0.0,5807259.47545,679.39827373,648.496986866,66944282.5482,1714.35794293,34711887.7686,70005418.9411,4422.71071712,4414.26349826,0.0
1.10630890685,0.751531535794,1.0440680623e-05,-18004278.0506,2.12482977699e-05,0.0,5586139.84916,681.94976186,651.154797249,66280812.6594,1765.39181884,39536318.5004,68673842.4099,4592.28827233,4582.14151149,0.0
0.967165673416,0.905274963916,9.78627370912e-06,-94192392.6357,1.4591829576e-05,0.0,6037686.6402,684.3158215,642.233247043,67492490.9982,1616.68553651,69201164.2382,69431048.9498,4014.70471035,4007.8659753,0.0
1.14547958276,1.03280955364,9.95216609199e-06,-8463898.98059,2.04410145657e-05,0.0,5590867.90272,684.340459805,653.622051609,66355042.1084,1818.92334403,45340554.4367,68424854.4041,4754.88574804,4745.45255411,0.0
1.03262234017,0.919562452581,1.02664769477e-05,-58009836.0098,1.46447136201e-05,0.0,5835836.67563,677.935936085,646.392459499,66995943.631,1669.53537774,41488741.7436,70890162.027,4286.41533405,4277.91212078,0.0
1.14104824849,1.06972462114,1.00750541513e-05,-9223137.78065,1.91259662535e-05,0.0,5560754.88858,683.930366399,653.265014993,66249375.6802,1811.30091556,44823552.242,68181774.7043,4736.49127948,4726.40303234,0.0
1.12182470827,0.792413748576,9.857487243e-06,-14309782.9259,2.1294510532e-05,0.0,5641572.1529,683.094088758,652.12393841,66489317.2327,1788.14069214,41649388.685,68893815.8199,4656.69436403,4647.35860181,0.0
1.03777527411,0.865895025383,1.0423744354e-05,-51630659.0372,1.53082680043e-05,0.0,5811543.06168,678.018485437,646.713217031,66933897.1713,1676.19721993,38160241.4256,70587957.1649,4307.80516283,4299.13146301,0.0
1.05785326149,0.991689342415,1.03178291905e-05,-39029663.0211,1.45406381173e-05,0.0,5819864.40672,678.951763758,648.001533091,66975329.725,1704.84997221,34732117.2588,69734548.0155,4391.14888845,4382.91399779,0.0
1.00319039018,1.0046246869,9.94888521813e-06,-95483920.6172,1.36386377211e-05,0.0,5901763.74017,678.309616656,644.526101261,67122989.7709,1629.11894107,70344655.4339,70742437.7571,4164.24330964,4155.88316432,0.0
1.2180296001,0.761912298303,1.03694175303e-05,12960155.8219,3.108954507e-05,0.0,14163516.2694,688.942654154,658.226068197,64971212.4932,1903.03165731,58244793.6785,66257942.0479,5056.04087002,5044.09219851,0.0
1.18466421355,1.11049030174,9.65250071086e-06,4157427.83101,2.0012149616e-05,0.0,6020799.2937,686.916548852,656.13240189,65853448.0826,1864.5956051,52436472.1806,67148744.3812,4917.54115045,4906.64561607,0.0
1.10432444693,1.02120538262,1.02033410101e-05,-20975935.6411,1.73193348249e-05,0.0,5704993.76759,681.808998068,651.086804081,66679908.7232,1765.94461263,37971855.6989,68680326.2612,4584.05077921,4575.18637049,0.0
0.91016414204,1.15070587956,1.03749756153e-05,-91535889.4161,1.1667387523e-05,0.0,6139036.57174,690.30548915,638.552104724,67719769.37,1595.80094858,66862900.1611,67719769.37,3778.09135361,3771.82927795,0.0
1.02180812521,1.07006881788,1.01350916528e-05,-68853100.472,1.30525064479e-05,0.0,5873758.7174,677.688866502,645.710272374,67090461.1207,1655.0011005,48613756.7074,70749145.7732,4241.52552775,4233.1963541,0.0
1.06553669772,1.24948597624,1.03441942917e-05,-34658412.4663,1.24722237339e-05,0.0,5816231.53262,679.248779151,648.504386206,66978334.4915,1714.67547427,34711391.6494,69939750.1857,4423.04283224,4414.68800474,0.0
1.14218834293,0.950083834105,9.94997350109e-06,-9073371.30613,2.0959143365e-05,0.0,5550534.42796,684.155639383,653.338079744,66217013.0326,1812.94370753,44871144.2663,68191737.8167,4741.2238115,4731.11599498,0.0
1.15372631552,0.693026232474,9.76661715606e-06,-4903229.93234,2.68752567459e-05,0.0,5508055.26057,685.255295334,654.205994514,66116852.6431,1828.48377825,47482240.9078,68595926.0821,4789.11793572,4779.14062714,0.0
1.22064140496,1.20249743525,1.006779803e-05,12895127.63,2.17329937149e-05,0.0,14128965.0136,688.913009819,658.39364727,65189789.0685,1905.3545834,58336585.5147,66505023.769,5066.88247199,5054.79557772,0.0
1.0596223645,0.687604096416,9.98081506146e-06,-38350027.9843,1.73731755932e-05,0.0,5769782.47515,679.57979876,648.184778939,66812747.2033,1705.32374807,34622233.3464,69749533.4713,4398.49243504,4389.42594178,0.0
1.09336446375,0.97529951203,1.00590454761e-05,-24035581.0419,1.63843055908e-05,0.0,5700808.7847,681.260068325,650.315383828,66643375.9573,1749.75019734,36661636.4099,68989590.3843,4538.55588903,4529.11187941,0.0
1.12486688334,0.851875270018,9.87507604528e-06,-13637521.0978,2.0877226747e-05,0.0,5631073.40127,683.258023099,652.332794462,66462636.6358,1791.92433854,42076327.1719,68407901.6271,4669.32243274,4659.93721554,0.0
1.22765854508,0.834900833122,9.86491211545e-06,14636176.5567,2.90053512009e-05,0.0,16052573.2225,689.706253878,658.858354865,65082514.3756,1915.15492621,59758563.8149,66621667.3338,5096.01062063,5084.18083438,0.0
1.1198322734,1.04137200318,9.9808928221e-06,-14732414.1891,1.7806491291e-05,0.0,5610550.70917,682.823539364,651.973282025,66383133.337,1783.14654014,41429640.518,68587374.597,4648.42376688,4638.32601785,0.0
1.16425618883,0.921284638334,1.01405171774e-05,-167066.231721,2.20514400289e-05,0.0,5429724.23261,685.557141098,654.872489567,65825570.2388,1838.50976165,49721148.4075,67578967.0317,4832.82743983,4821.91092048,0.0
1.07975667979,1.09984971823,1.0110087811e-05,-29352003.8547,1.43904615095e-05,0.0,5783646.55746,680.407340304,649.510898549,66894560.6176,1733.79324032,35593396.0072,69316536.1426,4482.06997781,4473.5910243,0.0
1.20350413539,0.813648120946,1.01180979651e-05,9592660.67185,2.80327924112e-05,0.0,10956972.606,688.088114612,657.279412467,65208510.9344,1885.4879565,55621924.3004,66728269.7807,4995.745666,4983.8765144,0.0
1.03907758252,1.06721111702,1.02350667556e-05,-52017642.841,1.31158560987e-05,0.0,5845479.01286,678.158148317,646.812291775,67035161.8574,1678.72363383,38382304.3188,70848607.5724,4313.21104504,4304.77837646,0.0
1.09960795147,0.955424248488,1.00639418823e-05,-22694225.2488,1.76271096221e-05,0.0,5720139.84305,681.662421849,650.796746853,66714618.8749,1759.8699623,37241846.5989,68663976.6051,4564.47260655,4555.68261937,0.0
1.06640687893,1.0730765521,1.01952824706e-05,-34470920.2306,1.39862107806e-05,0.0,5806292.40979,679.462755944,648.559450402,66942693.5255,1715.60075312,34726003.2372,69946490.8182,4426.65495444,4418.19286908,0.0
1.08791564314,1.02319879174,1.01037741363e-05,-26478470.6688,1.58627765628e-05,0.0,5756717.43331,680.899494301,650.022552377,66823681.2085,1744.54088601,36100350.1445,69264829.5199,4515.93783467,4507.3318596,0.0
0.985785363827,0.725658757602,9.86102797477e-06,-94994963.9742,1.57319836453e-05,0.0,5931867.23753,680.748378595,643.416562653,67189627.0089,1612.70386232,69907914.2797,70150630.0204,4091.99504525,4083.91682963,0.0
1.04115044408,0.77647173355,1.02318756533e-05,-49812905.4346,1.60300085692e-05,0.0,5814039.77016,678.340297362,646.912520029,66937351.3329,1681.13281101,37432857.9386,70858184.2813,4321.81549338,4313.17505045,0.0
1.07547034705,0.909885282533,1.05641814057e-05,-30323421.8653,1.68049923946e-05,0.0,5770537.54422,679.914447801,649.237909519,66851811.6151,1728.88357409,35138028.3171,69123918.7688,4464.2774106,4456.05582876,0.0
1.16777704685,0.915545608691,1.0224249945e-05,1069720.67812,2.27965975408e-05,0.0,5407479.0956,685.716275864,655.085342547,65745098.014,1842.65662151,50327627.8025,67174615.7608,4847.44252147,4836.45735715,0.0
1.00910732328,0.824443546942,9.87449435658e-06,-84310020.7135,1.45309009203e-05,0.0,5890246.02562,677.943659116,644.906254456,67085430.0519,1637.23086291,60732788.6581,70801225.9056,4188.80449894,4180.40007317,0.0
1.05261842467,0.763025972577,1.053126362e-05,-39576706.0072,1.64791511651e-05,0.0,5808058.09263,678.538973781,647.64135337,66938139.801,1697.59059653,34734579.8113,69496256.39,4369.41908081,4361.17310955,0.0
0.995083142524,1.0018702955,1.02761903371e-05,-95307811.3099,1.3693384049e-05,0.0,5911080.64539,678.471165217,644.010011989,67145851.6873,1618.54890393,70183486.289,70542294.492,4130.59012462,4122.44204337,0.0
1.18689790193,0.892414225785,1.03466317857e-05,6012324.324,2.49305133917e-05,0.0,7512153.16239,686.852800311,656.278492427,65497112.7461,1866.00540071,53027376.3732,66594299.709,4926.81319091,4915.56572818,0.0
1.1187714735,0.920875635577,1.00185512403e-05,-14907623.8161,1.93767840383e-05,0.0,5601315.95823,682.796977907,651.903908998,66353376.7599,1781.91306232,41331392.4555,68695739.9891,4644.0203865,4633.94195136,0.0
1.10151747978,0.789488942316,1.01008265278e-05,-22015940.5439,1.99548637196e-05,0.0,5699525.26174,681.83551518,650.921820065,66655565.9991,1762.49731364,37489307.8269,68474635.8047,4572.39905857,4563.57961029,0.0
1.04414186242,1.00012897036,1.03842256659e-05,-47645559.4283,1.41327384097e-05,0.0,5814370.30058,678.295273674,647.126413424,66947528.1495,1684.96409762,36615854.7968,70305725.3795,4334.23287091,4325.54371591,0.0
1.04757250259,1.00393959203,1.0009238014e-05,-45136773.6021,1.38738604613e-05,0.0,5842981.59666,678.676497373,647.348886213,67028182.4643,1690.2364869,35926456.8574,70425962.054,4348.47345825,4340.12428805,0.0
1.03944527154,0.844709036049,1.0293251994e-05,-50432015.8143,1.53277902287e-05,0.0,5819932.3741,678.187961901,646.807291399,66952786.786,1678.82215795,37623686.0013,70748546.0336,4314.73732216,4306.1232278,0.0
1.07576364437,0.784553226216,9.80663453434e-06,-32050826.0229,1.76249401861e-05,0.0,5789762.14667,680.317173571,649.103596557,66912349.5682,1728.78823246,35099351.3731,69702122.0752,4465.49488778,4457.07781655,0.0
0.961531178195,0.870460881476,1.03724901307e-05,-93842493.6537,1.4527241196e-05,0.0,6025503.43887,683.501939232,641.866728219,67452582.0194,1609.83264233,68893189.9192,69116332.7505,3991.31592069,3984.60759758,0.0
1.00360558265,1.20022401907,1.03183672055e-05,-90400909.176,1.19859424217e-05,0.0,5900061.01749,677.610965057,644.550787249,67126164.3781,1629.79871665,65894457.1683,70661229.5938,4165.96677358,4157.68269091,0.0
1.05196832546,0.854767734103,9.83083251616e-06,-45962137.0887,1.57157280814e-05,0.0,5803783.9425,679.177220005,647.627551049,66919691.1862,1695.15137698,36088470.9893,70563578.4185,4366.72051898,4357.81446808,0.0
1.09784911712,0.764922300093,9.96024785492e-06,-23356850.6161,1.98232122096e-05,0.0,5717224.62136,681.715244933,650.664683389,66714206.0675,1757.90416246,36998522.0748,69054928.4407,4557.17168517,4548.40990887,0.0
1.00381380656,0.937228486605,1.03808884506e-05,-88662685.7546,1.42865211509e-05,0.0,5881168.59315,677.588884456,644.563822569,67069290.5917,1630.27274717,64383828.655,70657668.2769,4166.83111103,4158.54237975,0.0
1.02096222872,1.20731686008,1.01457066243e-05,-69129643.2872,1.17747068821e-05,0.0,5931547.38644,677.517337,645.674820583,67271767.3041,1656.1304728,48840347.2458,70800973.2244,4238.01421142,4230.71932314,0.0
1.03761082591,0.745693219521,9.8078945327e-06,-56146052.6744,1.62261555466e-05,0.0,5886785.59582,678.498123377,646.737608463,67162831.3402,1678.94627792,40550019.3768,71087424.5232,4307.12253835,4299.67978816,0.0
1.00972258072,1.17530542947,9.96388476716e-06,-84693812.3331,1.17984296721e-05,0.0,5972571.94702,677.64250624,644.960642592,67357151.0364,1641.41981379,61061555.4335,70884969.516,4191.35843257,4184.31195455,0.0
1.09317577556,0.887321761757,9.70932483347e-06,-25469716.1518,1.73963896455e-05,0.0,5746523.24719,681.513211632,650.330223624,66799540.4393,1751.34831082,36440917.0539,69297387.4573,4537.77264435,4528.98620862,0.0
1.18377090327,0.808006361251,1.02573582172e-05,4665324.57142,2.63893987681e-05,0.0,6257321.81683,686.740080092,656.060729502,65585035.7643,1863.33023383,52342094.8402,66814761.3243,4913.83301947,4902.85127587,0.0
0.901860336217,0.829811642504,1.00522408256e-05,-91224012.2196,1.38364393132e-05,0.0,6129730.94798,692.13231745,638.012652368,67671235.7587,1593.77576169,66588346.7686,67671235.7587,3743.62225564,3736.94355261,0.0
1.22207773708,0.691354825485,9.95463583081e-06,13373193.7049,3.30312875693e-05,0.0,14651351.9242,689.536525434,658.486033993,64918872.127,1908.15657153,58663777.6003,66272724.1043,5072.84468662,5060.70329193,0.0
1.22034518501,0.865722952042,1.01516388503e-05,13136596.2302,2.82774977291e-05,0.0,14328188.3518,689.110765178,658.37377632,65030965.0106,1905.46460281,58459867.3546,66354473.2037,5065.65286298,5053.57150585,0.0
1.17855959675,1.00014996481,9.72069013551e-06,2747011.31224,2.15603689621e-05,0.0,5443510.68368,686.571538584,655.765657982,65907127.0176,1857.66223581,51623023.5088,67188791.7414,4892.20088611,4881.5402629,0.0
1.0385194448,0.916434233802,1.00718526875e-05,-52213459.2468,1.45909329748e-05,0.0,5830784.23729,678.323501057,646.762107533,66987282.0516,1677.25061362,38442342.8969,70909956.2081,4310.89421536,4302.20938634,0.0
1.11675517916,0.951381813978,1.01695795766e-05,-15185497.1608,1.88549425428e-05,0.0,5635079.87009,682.496524377,651.781327937,66466707.4538,1780.34905203,41143012.5099,69053537.4888,4635.65074869,4626.0979555,0.0
1.14832474288,1.08695892449,9.98627374544e-06,-7723035.66351,1.98617890282e-05,0.0,5594790.99356,684.368312715,653.749511279,66380004.621,1822.80777263,45630617.3236,68617791.5132,4766.69600769,4757.32369919,0.0
1.09490249305,0.830275904898,9.86836562317e-06,-24578471.7958,1.85064873083e-05,0.0,5735394.31458,681.509468971,650.428944236,66763298.4036,1753.98906405,36655888.266,69151023.3187,4544.94024865,4536.22477558,0.0
1.11677886605,1.02779638403,9.96574061995e-06,-15708849.1691,1.77783536837e-05,0.0,5670907.73613,682.585870512,651.79529704,66574047.396,1781.29649249,40954292.5773,69398116.8297,4635.74907297,4626.49539573,0.0
1.14972429037,0.853511425734,9.92059678606e-06,-7415376.05036,2.38698462093e-05,0.0,5569090.11045,684.74915845,653.934537042,66300863.5025,1824.86691339,45857924.5333,68627097.6535,4772.50552933,4763.10910279,0.0
1.15218193392,0.6106555537,1.04046528006e-05,-3774617.06172,2.77674238865e-05,0.0,5415727.29904,684.943340707,654.121661048,65778258.2338,1824.1733319,47281158.0337,67924595.6243,4782.7072077,4771.98556216,0.0
1.11504357048,1.01276000979,1.02176076311e-05,-15664802.9683,1.78561455301e-05,0.0,5643114.78612,682.326398825,651.672002311,66491318.3569,1778.00143762,40920845.6874,69266227.3262,4628.54586106,4619.02056111,0.0
1.13867574216,1.09254754793,1.02804308584e-05,-9916802.28624,1.93731639006e-05,0.0,5610436.50568,683.719524997,653.227778588,66421370.6299,1810.45592792,44309360.5212,68055987.0091,4726.64300571,4717.44973326,0.0
1.18896734123,1.16167035593,9.89535387083e-06,5311200.18182,1.98809130017e-05,0.0,6900605.74847,687.066866434,656.383491597,65601758.7924,1867.88380064,52881947.4057,66926623.6396,4935.40343345,4923.78460161,0.0
1.07425980838,1.03458957982,1.03810829054e-05,-30549953.6434,1.50823722278e-05,0.0,5775937.10437,679.913100744,649.13986798,66859849.7999,1726.28546412,35251040.1539,69233647.3806,4459.25246459,4450.76198837,0.0
1.14606828244,0.954586984324,9.94134282858e-06,-8392907.1042,2.17865120529e-05,0.0,5589932.81558,684.413036406,653.659579463,66359822.2307,1820.13208545,45202703.8731,68409789.5447,4757.32944041,4747.99326266,0.0
1.0685760987,0.71240752696,1.0097427417e-05,-33782262.0468,1.8157352646e-05,0.0,5781058.84379,679.794646531,648.691147077,66867741.9561,1718.72613799,34809141.7843,69786553.3603,4435.6593857,4427.16461381,0.0
1.17513461078,0.911577664695,1.0279174792e-05,2761996.21957,2.37297424372e-05,0.0,5355433.82596,686.16443165,655.516920942,65581875.2652,1851.13822178,51243601.1322,66903154.3618,4877.98376935,4866.63268037,0.0
1.12780963437,0.961098114874,1.01603390843e-05,-12395106.6172,1.97493700598e-05,0.0,5593010.74695,683.15578377,652.442191477,66332165.6032,1794.51643978,42877712.9608,67226488.2718,4681.53779227,4671.69930592,0.0
1.08197857631,1.35948859863,1.00793625635e-05,-28714592.7739,1.21740860005e-05,0.0,5792715.81547,680.490414429,649.667340547,66925073.5705,1736.54955186,35709420.7066,69359863.6643,4491.29307026,4482.77960225,0.0
1.09322509885,0.881299150478,1.01460771999e-05,-24539867.5139,1.79917536069e-05,0.0,5729655.95348,681.204045936,650.329758355,66733734.7314,1751.58738583,36582903.2429,68991067.3513,4537.97738533,4529.28833573,0.0
1.06171015985,1.05379020084,9.77692106455e-06,-40007123.456,1.38404045849e-05,0.0,5813892.66654,679.577000024,648.249413993,66963162.0762,1708.73401999,34844514.2769,69859708.4981,4407.15887354,4398.42032739,0.0
1.16391131453,1.06473922531,1.00424125289e-05,-1763252.71122,1.97845867517e-05,0.0,5449066.914,685.53925373,654.855117816,65884568.9662,1838.21872844,48781903.2837,67669362.5314,4831.39586661,4820.45212033,0.0
0.961065934049,0.936537459788,9.76076356539e-06,-94038655.0795,1.41799304638e-05,0.0,6071097.58921,685.043429268,641.845513272,67585918.3076,1615.36073906,69065795.3055,69292316.1662,3989.38469224,3982.92553008,0.0
1.108521969,1.18026638615,9.62435420486e-06,-19233280.7391,1.48284974399e-05,0.0,5705651.62747,682.363870974,651.347417753,66673289.8859,1769.86016396,39272850.1983,68875991.4518,4601.47469332,4592.0581311,0.0
1.10219485554,0.663064630787,1.00182837734e-05,-21745479.1412,2.21153485511e-05,0.0,5692294.14036,682.004137544,650.964958132,66630335.9935,1763.67843184,37584904.4059,68464284.3128,4575.21084535,4566.38059748,0.0
1.08574888171,0.928972011904,9.58786494058e-06,-28410928.0343,1.62391392443e-05,0.0,5775777.08251,681.193839248,649.904854418,66875901.1885,1741.57798587,35853260.8072,69441683.3983,4506.94360798,4498.2743551,0.0
1.15527147078,1.07030706617,9.99828925171e-06,-4237829.13615,2.03228524668e-05,0.0,5540994.13219,684.825242914,654.206558867,66212562.3727,1830.05101922,47707675.7358,68526147.5404,4795.53187521,4785.62120628,0.0
1.03160730025,1.07006573025,1.00799234722e-05,-58593342.5319,1.30210806617e-05,0.0,5907393.26177,677.913351673,646.347458617,67220742.7206,1670.79062965,41889687.5173,70982682.3032,4282.20190334,4274.84411299,0.0
1.03015164408,0.807503207815,9.89694868985e-06,-60563046.7984,1.53359805359e-05,0.0,5905385.02827,678.13179822,646.26640239,67210259.0481,1668.95333031,43036326.1712,70979034.507,4276.15947458,4268.82256893,0.0
1.17013968238,1.16156430829,9.7467606955e-06,627678.039369,1.83531972609e-05,0.0,5459225.4254,685.991310422,655.249364491,65939390.2676,1845.89651556,50430429.2826,67805806.6069,4857.24982156,4846.30049079,0.0
1.04472316355,1.09229494815,9.56694431859e-06,-51068469.1774,1.29731555968e-05,0.0,5847633.97181,678.92046613,647.144559437,67043311.1327,1685.28922418,38089263.7344,71152497.4309,4336.6458519,4327.85925469,0.0
1.15713868101,1.10042773551,1.00016874143e-05,-3582350.91499,1.88006795472e-05,0.0,5473830.80403,685.147377719,654.437353158,65983840.1964,1829.55558434,47829429.1143,67847262.8107,4803.28266487,4792.37086145,0.0
1.11839273719,0.998751544501,9.70475640252e-06,-15735225.4229,1.80105246508e-05,0.0,5624058.0888,682.928175786,651.881608291,66432024.1086,1781.35375578,41054466.4963,69318584.6949,4642.44825208,4632.37632704,0.0
1.07526202853,0.8110227947,1.00301587669e-05,-31102377.0902,1.74235232555e-05,0.0,5772338.45874,680.125128632,649.068171743,66853449.4983,1727.45000527,35254537.4909,69439135.7135,4463.41268043,4454.81301965,0.0
1.09624878689,0.804764070631,9.83121771631e-06,-24237287.9683,1.89509268336e-05,0.0,5731127.67535,681.64285099,650.530082269,66751187.3757,1755.77756083,36767841.0448,69148350.8943,4550.52871438,4541.79209809,0.0
1.14817728762,0.950573759127,1.01270893755e-05,-7415983.60665,2.22733974781e-05,0.0,5572892.79331,684.471764806,653.835566778,66314152.9797,1822.69523799,45758245.8707,68594643.4377,4766.08392091,4756.71397521,0.0
1.06637948747,0.778927082927,9.56102105077e-06,-37050653.4318,1.66108740436e-05,0.0,5815698.10514,680.053786359,648.555145943,66969855.0887,1716.0139227,34664481.8646,70235779.3026,4426.54125249,4418.08053212,0.0
1.16592202352,1.13558366029,9.92837399432e-06,-124771.223639,1.87230132176e-05,0.0,5454750.83362,685.653561867,654.979523078,65919476.6551,1840.29255869,49922497.8466,67787203.43,4839.74231963,4828.76474257,0.0
1.16045904705,1.12122132299,9.57518957919e-06,-3874960.31223,1.93600589591e-05,0.0,5539017.46398,685.523287418,654.627929581,66213458.7829,1836.57512336,48082834.8289,68477988.0901,4817.0655043,4806.94610474,0.0
1.16457041261,0.843703453147,1.03993305789e-05,547602.828938,2.42331546233e-05,0.0,5441169.95198,685.418991709,654.898387394,65858809.2723,1840.04049785,50013418.9677,67437773.7119,4834.13178274,4823.71266157,0.0
1.04841880657,0.908256385279,1.03888477182e-05,-45362551.5372,1.51821290338e-05,0.0,5798267.28577,678.535648211,647.400329321,66906886.6574,1690.72831838,35847589.0134,70326690.414,4351.98646607,4343.2274742,0.0
1.23346046313,0.825233344828,1.02156453449e-05,16185549.2445,3.08611018236e-05,0.0,17680151.2699,689.9180351,659.173683389,64799029.7518,1920.44240403,60949019.4906,66601023.0063,5120.09438245,5107.76631143,0.0
1.02983346432,0.855238475466,1.01321398378e-05,-60138819.538,1.48891626196e-05,0.0,5848199.1427,677.975655856,646.225133595,67026350.0904,1666.04210803,42746802.4741,70910307.0372,4274.83871039,4266.38020232,0.0
1.05598952365,0.762150676321,9.54500622179e-06,-43113267.5511,1.6450308901e-05,0.0,5810886.24082,679.572163939,647.87524436,66942191.0867,1700.82699385,35395990.0818,70591441.1519,4383.41251267,4374.58558673,0.0
1.06196750583,0.951253105146,9.91073977069e-06,-38366671.1554,1.48806225949e-05,0.0,5820180.04942,679.49633592,648.269829988,66983228.7476,1710.03164825,34694263.9645,70002171.6444,4408.2271167,4399.8340997,0.0
1.07156018677,0.772601617705,9.59851298633e-06,-33329381.9038,1.71440767575e-05,0.0,5789944.15974,680.297814604,648.879411991,66892282.1227,1722.01837182,35009169.9045,69952749.1607,4448.04633528,4439.31712247,0.0
0.984102966298,0.951313060609,1.03749265747e-05,-94824335.1253,1.39121826659e-05,0.0,5932284.91222,679.694706698,643.306636822,67191519.0542,1608.57529315,69757790.9127,69997924.7395,4085.0114131,4077.04052458,0.0
1.0887253484,1.05095591455,1.01246162315e-05,-26154529.5488,1.55830401329e-05,0.0,5755509.38554,680.905998738,650.062352628,66821857.5158,1745.56630901,36174298.2659,69243044.2916,4519.29892121,4510.68029817,0.0
0.945090778866,1.01405432266,9.92730921205e-06,-93340803.6713,1.33390317554e-05,0.0,6106841.05427,686.756148956,640.816479623,67677322.0146,1609.98074053,68451395.3171,68668468.9453,3923.07182307,3916.90796636,0.0
1.24172502896,0.935830980921,1.00774431971e-05,18085483.0699,2.88954729111e-05,0.0,19617166.5612,690.385774936,659.708080908,64889120.3891,1930.84110064,62541192.0935,67063494.7129,5154.40059521,5142.3480881,0.0
1.03970093873,1.01391183193,1.02959381128e-05,-50322952.8516,1.38069407203e-05,0.0,5829354.49563,678.126638166,646.818526054,66982362.6781,1679.04687006,37607170.8912,70803430.0844,4315.79859667,4307.1803482,0.0
1.12039071342,0.899765767556,9.91069198223e-06,-14514110.6315,1.95968768122e-05,0.0,5600656.90448,682.978823826,652.009433204,66351072.8319,1784.10198978,41514090.2973,68563974.1655,4650.74185141,4640.63428806,0.0
1.13610035504,1.25604454989,1.02387558277e-05,-10752070.9876,1.69871535441e-05,0.0,5632771.48994,683.546039756,653.089688744,66484299.4739,1807.04267518,43891113.8954,67952183.1592,4715.95257377,4706.80016551,0.0
1.08665132648,1.09302184944,1.02419711523e-05,-26497868.9542,1.50005723971e-05,0.0,5759204.41312,680.701592023,649.943234679,66831959.0726,1742.8170978,36052705.5158,69215852.5864,4510.68965622,4502.10341513,0.0
1.05560019701,0.968019701598,9.98583311585e-06,-41123440.7063,1.44335309183e-05,0.0,5830440.49732,679.198937659,647.925385861,67003847.4091,1701.55523579,35026982.9251,70301960.8938,4381.79641779,4373.50247856,0.0
1.03320910305,1.06789802201,1.04481261478e-05,-57414054.8868,1.32777802665e-05,0.0,5847341.54991,677.75054137,646.433589047,67037074.2431,1671.04547587,41145555.1493,70827471.4065,4288.85098676,4280.59986613,0.0
1.08235420378,0.781797202187,9.98790819525e-06,-28733410.6038,1.83037359976e-05,0.0,5760177.53481,680.797172172,649.691137059,66824082.042,1737.4622365,35693541.6919,69274494.9616,4492.85229989,4484.33299127,0.0
1.16720665275,0.980975559611,9.9097472932e-06,234309.910701,2.13195837865e-05,0.0,5432659.98037,685.8444547,655.059208347,65852806.9397,1842.10622853,50133852.9992,67698189.3791,4845.07481557,4834.07418955,0.0
1.11949289829,0.820258760118,9.37329334972e-06,-15947463.6392,2.00529421964e-05,0.0,5642373.41323,683.292230987,651.971449169,66494234.8761,1783.99215861,40872883.9631,69500037.6516,4647.0150208,4637.21776553,0.0
1.12890730069,1.15663920816,9.93043521608e-06,-12357119.6377,1.68606646229e-05,0.0,5617209.35629,683.254193033,652.516082813,66421709.7234,1795.59825622,43020697.2472,67363761.2256,4686.09420516,4676.23756631,0.0
1.11206072871,1.16148922069,1.01292952077e-05,-16779771.5003,1.57267480299e-05,0.0,5645790.95746,682.20902013,651.511301469,66486794.8155,1773.18730442,40318012.4504,69203471.6703,4616.16408488,4606.29754626,0.0
1.14922237221,0.938390976971,9.80650006236e-06,-7410835.8796,2.16333930666e-05,0.0,5527849.1026,684.805108912,653.878814397,66155019.6893,1821.90871821,45839834.8216,68627569.2214,4770.42206704,4760.19207933,0.0
1.13065868205,1.01132248788,9.99410914624e-06,-11706898.8142,1.91269119228e-05,0.0,5594563.34364,683.410005361,652.636452329,66355900.7106,1797.96604583,43377403.1745,67475974.6594,4693.36418919,4683.47789406,0.0
0.977553551709,0.922525825785,1.0070510453e-05,-94615097.192,1.42154762788e-05,0.0,5958276.30288,681.497259539,642.888425469,67255878.7198,1610.29758011,69573440.2454,69810601.6539,4057.82479314,4049.95901073,0.0
1.14094103084,1.10097266019,9.64813395083e-06,-9889716.37689,1.83483812902e-05,0.0,5608803.85439,684.300710214,653.391862399,66413055.4412,1812.33233387,44665966.8222,68090558.5566,4736.04621902,4726.37199772,0.0
1.05264843048,1.17673012217,1.03509780965e-05,-42798600.7775,1.26900508531e-05,0.0,5854684.3556,678.547474207,647.660993066,67094945.3249,1698.60652373,35321259.442,70196996.3317,4369.54363492,4361.78845366,0.0
1.04605791756,0.926089118885,9.94765897236e-06,-48909727.6186,1.48603820102e-05,0.0,5824151.14707,678.780823011,647.259919385,66977349.5004,1687.69910018,37138026.1604,70983893.6003,4342.18641579,4333.55466071,0.0
1.02023005952,0.91562632455,9.83189821769e-06,-73090939.779,1.41477109353e-05,0.0,5938460.94478,677.926382434,645.63763188,67288860.3797,1655.65016536,51771103.0988,70990348.894,4234.97497707,4227.77974538,0.0
1.0906100768,1.05953383248,9.96174924726e-06,-26021705.3727,1.55104027913e-05,0.0,5757943.82654,681.1162623,650.176266984,66829849.6348,1748.03682273,36255585.8085,69300533.2217,4527.1224288,4518.47433601,0.0
1.0820195255,1.09050199822,9.87402506635e-06,-29290908.5121,1.44960018884e-05,0.0,5786917.38245,680.712764553,649.659575063,66904138.4523,1736.77659158,35672621.1377,69383113.8422,4491.46305035,4482.9489457,0.0
1.23956023763,0.894109153463,9.80738286354e-06,17345955.9882,2.88269911993e-05,0.0,18888193.9181,690.358489919,659.535186719,64937398.606,1928.52364056,61947134.9698,66960000.204,5145.4145464,5133.3048812,0.0
1.11196509007,0.987610457058,1.01034928246e-05,-16822479.7536,1.79335582196e-05,0.0,5632051.09396,682.313123889,651.506776609,66443568.7895,1773.24904696,40365263.7633,69145160.7754,4615.76708888,4605.90218944,0.0
1.1678167241,0.902888163465,1.00539159735e-05,801972.817013,2.29133276443e-05,0.0,5445361.67995,685.804683142,655.108210632,65880632.3034,1843.93796164,50349948.8719,67576696.079,4847.60722174,4837.01322649,0.0
1.06825500511,0.988284044748,1.00151767663e-05,-35092659.8096,1.48692593128e-05,0.0,5802999.39743,679.745790212,648.678184488,66933178.6317,1718.2883933,34709454.4801,70010081.1603,4434.32652621,4425.83520124,0.0
1.13864612534,1.03588749962,1.0554226532e-05,-7187968.66789,1.89098695725e-05,0.0,5557095.60644,683.374150842,653.077580076,66194828.4262,1807.81323557,45810735.7082,68417258.6861,4726.52006629,4716.56698069,0.0
1.06750666982,1.02850032751,9.8576377998e-06,-36053308.9636,1.42958721296e-05,0.0,5813926.60799,679.803173371,648.628465656,66973218.6086,1717.272273,34686512.0795,70189614.4174,4431.22018642,4422.74058655,0.0
1.17708832488,1.27814521349,1.00423428445e-05,3025752.80904,1.76107012586e-05,0.0,5442632.83244,686.141566429,655.659131103,65879164.1373,1854.50178097,51600626.1273,67144480.5831,4886.09363658,4875.2270762,0.0
0.966668277834,1.02522940326,9.89007522258e-06,-94248089.2629,1.34434737646e-05,0.0,6027160.48195,683.679345611,642.197338022,67449131.6649,1612.49876584,69250140.9938,69478831.0574,4012.64002129,4005.53935165,0.0
0.954486015554,0.743098008028,1.0077268095e-05,-93642943.7707,1.54286017092e-05,0.0,6067104.56985,685.233862228,641.420525763,67572909.3288,1611.50199659,68717470.8888,68939271.0457,3962.07145056,3955.7796306,0.0
1.12760630772,1.11588493228,1.03205736915e-05,-12171195.1665,1.76503010371e-05,0.0,5600237.09026,682.955988879,652.430314014,66357480.1293,1794.02688499,42945488.0585,67312751.1986,4680.69378335,4670.8577462,0.0
1.04485031419,0.859111907913,1.01448628528e-05,-48551461.758,1.54778759506e-05,0.0,5815536.67182,678.587545537,647.179941129,66952021.51,1686.18289094,37005445.8376,70820345.454,4337.1736542,4328.5614429,0.0
1.04090734624,1.04637721437,1.00055987817e-05,-52451288.2885,1.35521311223e-05,0.0,5841334.39868,678.4530791,646.929680469,67021606.8747,1680.79449174,38625140.5656,70904837.8766,4320.80639424,4312.25787092,0.0
1.09404490878,0.943088892243,9.90524913428e-06,-25024014.2441,1.71570132407e-05,0.0,5742058.10892,681.381187889,650.373538199,66785095.7987,1752.62414454,36545405.3828,69184608.3274,4541.38041635,4532.67851049,0.0
1.12162674432,1.01865573647,9.91593920174e-06,-14413078.0718,1.82381384664e-05,0.0,5604990.25281,682.995571146,652.091285805,66367728.0922,1785.50070987,41662836.1108,68290865.413,4655.87261567,4645.74368281,0.0
1.15420599385,1.10899586702,9.90945371815e-06,-5808573.0764,1.95136611269e-05,0.0,5535744.70825,684.969651313,654.231218353,66198266.689,1828.33551663,46628891.8545,68612919.9502,4791.10908047,4781.00166415,0.0
1.06501966518,1.0000995667,9.58368850689e-06,-38283843.7167,1.43724489326e-05,0.0,5828325.60243,679.890084348,648.468067955,67007634.9989,1713.97678144,34760867.5432,70167768.2563,4420.89663016,4412.4559497,0.0
0.99661838928,1.00086496819,9.87906559693e-06,-95491941.629,1.36555841803e-05,0.0,5920997.97874,679.067171082,644.110701124,67169941.4083,1620.32753738,70345586.7672,70692120.3441,4136.9629339,4128.70950016,0.0
1.0387646409,0.756194171999,9.32420408621e-06,-57182935.3753,1.59741416723e-05,0.0,5900342.07602,678.96324523,646.817383175,67200099.0975,1680.16636363,41131584.8332,71325139.8274,4311.91202438,4304.36044049,0.0
1.02788429828,0.932707123007,1.01132341806e-05,-63453125.7717,1.4417049775e-05,0.0,5852344.81103,677.908107801,646.084233858,67035983.6967,1663.21880867,44872395.5895,70918690.6779,4266.74772216,4258.32094038,0.0
1.15739426654,0.94973749523,9.48670210577e-06,-4225734.93248,2.17770866822e-05,0.0,5507110.59579,685.525638683,654.432199033,66103574.4319,1831.72305042,47919190.0446,68368224.6429,4804.34360041,4793.85952531,0.0
1.08114247678,0.897699105833,1.01061079283e-05,-28802413.0232,1.68166598028e-05,0.0,5766527.45893,680.58815895,649.611096497,66843341.7671,1735.77220429,35653065.8043,69265011.9839,4487.82242111,4479.32194766,0.0
1.20122632976,0.999298804279,9.93859337315e-06,9087051.94562,2.34969044596e-05,0.0,10535693.6125,687.888196905,657.177399732,65423759.2938,1882.93100525,55362728.7247,66800180.4488,4986.29049483,4974.68184645,0.0
0.983392815714,1.16781553037,1.05586968498e-05,-94801373.5868,1.19355778536e-05,0.0,5939660.88658,679.206093473,643.259965788,67216580.3767,1606.52599463,69737482.6158,69977193.5843,4082.06357803,4074.10504063,0.0
1.03870935059,0.87533456637,1.00208307206e-05,-52283559.3306,1.49694539583e-05,0.0,5829884.77844,678.389155589,646.772970492,66984162.4629,1677.53092816,38438663.8366,70948866.4361,4311.6825143,4302.99457705,0.0
1.17351516377,0.787811941125,9.76496776188e-06,1737388.06116,2.53430772534e-05,0.0,5432870.8762,686.39382794,655.462910417,65868668.3069,1851.65928602,51075767.5087,67464853.3227,4871.26144481,4860.67455391,0.0
1.12884710213,0.914692351367,1.00396261884e-05,-12049939.5612,2.03775767581e-05,0.0,5590085.58967,683.313647247,652.513538667,66338843.1003,1795.74506569,43104909.8669,67330736.7569,4685.84432094,4675.9887008,0.0
0.959778258397,0.823078120378,1.00393309681e-05,-93876587.6074,1.50190629612e-05,0.0,6058976.16304,684.629821222,641.761413222,67558892.9572,1613.44229138,68923174.0552,69147345.8449,3984.03955061,3977.67647394,0.0
1.13541025073,1.13579434727,1.00159390362e-05,-9825176.65755,1.77553815074e-05,0.0,5606477.3639,683.692196938,653.034597809,66401422.4597,1804.5535316,44683268.3244,67939117.1019,4713.08795078,4703.42931252,0.0
1.14217738634,0.893743879217,1.01795018815e-05,-8804204.66765,2.26271507867e-05,0.0,5578908.40292,684.074308634,653.417242256,66318166.1871,1814.74646218,45006010.1463,68222380.1482,4741.1783307,4731.79830628,0.0
1.01867775223,1.06792028953,9.94193904289e-06,-74050343.2817,1.27835510082e-05,0.0,5945189.04465,677.750685999,645.526082925,67305089.9706,1653.52916491,52497416.7545,70860972.4282,4228.53134951,4221.35817722,0.0
1.13242791472,1.11874514124,9.66906751806e-06,-11876313.9593,1.74946019368e-05,0.0,5631015.21189,683.755148868,652.834327506,66477504.8952,1801.07967478,43304893.6592,67547101.6005,4700.708274,4691.07107954,0.0
0.934173066342,1.06064827271,1.00748726191e-05,-92886619.1112,1.25057434596e-05,0.0,6129657.68305,687.69511907,640.112289459,67721486.7772,1604.56726023,68051529.6289,68263493.8454,3877.75239839,3871.73069343,0.0
1.10360534158,1.04478444011,1.02469181342e-05,-18881144.7974,1.65136477063e-05,0.0,5659112.34704,681.730840262,651.018424931,66515135.2446,1762.39330655,39067561.3591,68707109.1447,4581.0657729,4571.34373639,0.0
1.04271827828,1.24715076616,1.03166227268e-05,-48656024.5336,1.1816756239e-05,0.0,5835507.18422,678.191936495,647.041697194,67008838.6211,1682.89311567,36973772.9693,70875508.6676,4328.32357314,4319.65761346,0.0
1.21531518254,0.797434721599,9.89368867058e-06,12135514.2231,2.89130505023e-05,0.0,13411880.5076,688.909684258,658.049727366,65236478.1949,1901.0892834,57685344.3824,66314634.6976,5044.77332272,5033.23073591,0.0
1.17282514172,1.00074986757,9.95348545634e-06,1766427.70648,2.13732531569e-05,0.0,5419459.46464,686.126908431,655.402785738,65806722.6529,1849.23461711,50909115.874,67068362.957,4868.39716328,4857.39987175,0.0
1.01992589005,0.878328519145,9.57330253218e-06,-74902936.8504,1.47952652891e-05,0.0,5883968.26187,678.326610479,645.598593472,67106930.9842,1652.25833021,53172984.2743,71023988.6451,4233.7123696,4225.32866109,0.0
1.12272513752,0.892401663014,1.03429409204e-05,-13311240.2304,2.03628558048e-05,0.0,5596293.82947,682.739590792,652.104338792,66337304.6105,1788.01411326,42309567.0091,67615526.826,4660.43204585,4650.67938513,0.0
1.03229864348,1.04535122631,1.03523115125e-05,-57093135.0626,1.34912701038e-05,0.0,5837780.42383,677.792006346,646.36980178,67000907.2193,1668.80254277,40969877.8194,70769774.3784,4285.07166909,4276.48736829,0.0
1.22244135275,0.830640604959,1.02348763241e-05,13739752.5003,2.93195737065e-05,0.0,15030184.4588,689.202612922,658.515601372,65045543.4802,1908.37173946,59007313.8044,66439161.3926,5074.35405527,5062.45813563,0.0
1.14105532798,0.59943269151,1.01041116124e-05,-8136008.40306,2.67164049183e-05,0.0,5515484.89056,684.177534628,653.258463221,66101933.2,1811.82220778,45395276.8955,68192667.8792,4736.52066644,4726.47258599,0.0
1.06781707523,1.03730492264,9.74117959876e-06,-36402199.7324,1.41591303331e-05,0.0,5818101.5481,679.903267212,648.648859041,66984854.1709,1717.66693676,34700278.2045,70283697.0798,4432.50867928,4424.02568479,0.0
1.15527240515,1.12031206531,9.62962195014e-06,-5217737.59741,1.9355124742e-05,0.0,5581481.80298,685.146276589,654.317843893,66350340.0177,1831.15857784,47444983.2806,68853394.9406,4795.53575378,4785.93171105,0.0
1.10909430387,0.967642581887,1.05180308667e-05,-15088681.3925,1.72004079421e-05,0.0,5610090.32024,681.825707456,651.300494877,66341355.9987,1768.5865353,41079480.8201,69159284.6945,4603.85045536,4593.71854819,0.0
1.14459732853,0.885524978546,1.01160322613e-05,-8161984.43065,2.20145172493e-05,0.0,5531432.02451,684.195098456,653.461904255,66163933.2617,1816.06833264,45362785.5471,68351194.362,4751.22351073,4741.09132441,0.0
1.10124805127,0.758574611353,9.93152681632e-06,-22315190.6812,2.02140493383e-05,0.0,5707764.99723,681.950952671,650.903658871,66689894.735,1762.34601827,37391833.0355,68598363.8905,4571.28066082,4562.46534935,0.0
1.27054710692,1.04167073949,9.95323519442e-06,23130085.7846,2.85475360991e-05,0.0,25009517.0801,692.241150861,661.527439607,64411732.0034,1962.15014807,66314547.578,67247217.4535,5274.04104082,5261.05515882,0.0
1.12929304109,1.10388878464,1.01174517717e-05,-12131393.9983,1.77589862624e-05,0.0,5603351.02746,683.201187581,652.542841436,66365449.9837,1796.26768505,43028099.9645,67361438.5618,4687.69541356,4677.83183122,0.0
1.17758461901,0.81345010171,9.8249355781e-06,2535650.52488,2.51252643165e-05,0.0,5382773.937,686.641881502,655.691930039,65698309.6787,1855.62969153,51333926.7074,66930598.3084,4888.15375351,4877.06970979,0.0
0.982337699206,1.10133879955,1.04940619626e-05,-94758352.1164,1.25074172972e-05,0.0,5941101.28,679.56021146,643.192685721,67217723.3243,1606.97302467,69699638.5204,69939201.4518,4077.6837894,4069.74204495,0.0
1.01081246528,0.865519764527,1.00365874927e-05,-83892146.526,1.49051969841e-05,0.0,5871312.22815,677.876955354,645.007724259,67042691.4725,1639.39993032,60274696.1339,70692317.2452,4195.88254338,4187.39771026,0.0
1.06856302644,0.949034372881,9.76177693722e-06,-35965419.5468,1.51669500414e-05,0.0,5809565.9836,679.966342106,648.697444182,66960558.4206,1718.71061518,34696033.805,70198796.9832,4435.60512275,4427.11043945,0.0
1.05390605497,0.710982911245,1.00855848248e-05,-43701382.5643,1.77178952727e-05,0.0,5765923.6854,679.103714646,647.721381786,66814663.9842,1697.13163212,35427638.2128,70151915.881,4374.76403418,4365.64906017,0.0
1.07634492788,0.792908394802,1.00616941268e-05,-30661069.1438,1.77551758651e-05,0.0,5762644.63851,680.360225723,649.269578466,66825842.7257,1728.89055198,35342264.8623,69274274.9907,4467.90779563,4459.29106819,0.0
1.16958872892,0.865389915075,9.53614023697e-06,80889.7164738,2.30181401328e-05,0.0,5454158.10395,686.27563947,655.224064709,65929943.5775,1846.46055209,50180812.8188,67860893.9696,4854.96281375,4844.23100713,0.0
1.10378391706,1.05302369438,9.61441081829e-06,-22279335.2341,1.62439529961e-05,0.0,5731914.69142,682.176595852,651.068288413,66757367.9735,1765.07846828,37551612.5741,68723439.5431,4581.80703972,4572.85148003,0.0
0.963260121545,0.832959103961,9.62832275965e-06,-94102557.8095,1.49557724546e-05,0.0,6039532.82292,684.978965274,641.980533027,67484302.7897,1614.67427247,69122052.9735,69350322.1512,3998.49276453,3991.47339616,0.0
1.09697138749,0.635941046117,1.01230439179e-05,-23296857.0692,2.21766782848e-05,0.0,5698907.06711,681.613957867,650.613424576,66645653.2837,1756.73630101,36980074.5812,68913559.2158,4553.52822947,4544.78030538,0.0
1.07460388581,0.99277596663,9.74926704605e-06,-32781349.8053,1.51122077611e-05,0.0,5808648.9851,680.22263621,649.042160029,66966964.2136,1727.11946319,34982172.2912,69877898.7022,4460.68073,4452.28159728,0.0
1.05968877495,0.917291524852,1.02145745974e-05,-38569462.076,1.53360804713e-05,0.0,5815345.68232,679.155652043,648.120298872,66960311.7294,1707.33597483,34699218.8427,69840546.2931,4398.76810482,4390.50346079,0.0
0.932860749432,1.00535776606,1.02071025362e-05,-92588439.8726,1.34387072176e-05,0.0,6086973.19147,688.027641195,640.015972095,67581185.7355,1604.0982793,67789254.8999,67998325.6775,3872.30497089,3865.69196202,0.0
1.05866639366,1.1464065151,9.95605092861e-06,-39811348.5554,1.27944029336e-05,0.0,5838249.26128,679.200416246,648.047702767,67033394.7346,1705.50835227,34864428.5353,69802370.0285,4394.52420008,4386.18260983,0.0
1.0273339929,0.908250235369,1.01707020355e-05,-63485073.4434,1.46011497114e-05,0.0,5850265.54625,677.843718298,646.047966758,67028890.4377,1662.51396519,44888388.1516,70882951.8043,4264.46340453,4256.04548187,0.0
1.10662866985,0.986184187528,9.92846094174e-06,-18595120.7188,1.73522542571e-05,0.0,5653108.30214,682.160686935,651.20597634,66504353.6958,1766.18094919,39381441.6839,68824746.1392,4593.61560855,4583.74614239,0.0
1.11670615211,1.19408292885,9.81631369211e-06,-17787325.4019,1.56389970492e-05,0.0,5695115.35544,682.671282641,651.821961888,66655378.9272,1781.71411518,39920870.538,69288815.6845,4635.44723741,4626.2845605,0.0
1.2596118502,1.08496659982,1.01131073543e-05,21318256.8518,2.79212258212e-05,0.0,23226360.5684,691.453424171,660.818885124,64591152.7654,1950.18512533,65109787.2998,65903468.7655,5228.64879018,5215.92134762,0.0
1.2287002383,0.730897924186,9.8898770194e-06,14977119.3308,3.21204632929e-05,0.0,16371484.387,689.842158366,658.928884334,65067684.1789,1917.23234577,60024981.7158,66629843.4052,5100.33468918,5088.71311362,0.0
1.18413960149,0.817996924243,1.02527531948e-05,4740402.87888,2.61899496132e-05,0.0,6308805.75933,686.758819838,656.084912891,65586229.9651,1863.76405721,52370655.9847,66810172.9449,4915.36348579,4904.37520897,0.0
1.01138516845,1.06399117534,1.03015375736e-05,-77387873.6444,1.29441664816e-05,0.0,5894514.84347,677.429063936,645.049341852,67120970.4369,1641.27921787,55096187.5331,70572620.3731,4198.25983424,4190.18103825,0.0
1.15141490171,1.04225332065,9.9615487738e-06,-5444398.99882,2.04302803106e-05,0.0,5550732.6955,684.760747341,654.060989788,66238097.4381,1825.24392482,47091513.8996,68722804.272,4779.523257,4769.67686693,0.0
1.0822966131,0.896034212975,9.42607491839e-06,-30016345.5767,1.62643920726e-05,0.0,5793589.30037,680.924487284,649.538222618,66923090.7699,1737.06355379,35598243.0512,69486890.074,4492.61324098,4483.99823985,0.0
1.10973216645,0.936462071161,9.82607502253e-06,-17842353.0343,1.7915168145e-05,0.0,5671385.35315,682.398613329,651.404883178,66567216.8648,1771.50774417,39771962.6736,68964313.6045,4606.49822293,4596.9634111,0.0
1.0213532743,0.892268431629,9.71525377524e-06,-72987441.4243,1.43850723507e-05,0.0,5939335.02681,678.081056511,645.716811175,67291831.4849,1657.16375525,51694561.3836,71054229.891,4239.63744162,4232.42623023,0.0
0.966597033924,0.989070669572,9.94541489931e-06,-94147168.3035,1.39391440021e-05,0.0,6005694.32253,683.696335748,642.187915698,67387903.2683,1611.93258311,69161399.4792,69390345.7864,4012.34428782,4004.95899644,0.0
1.19079679193,0.786605425954,1.03519957805e-05,7139224.94801,2.76227698828e-05,0.0,8594084.98901,687.178400932,656.551827072,65447599.9778,1871.37594011,53738223.1508,66456084.0213,4942.9974833,4931.89848462,0.0
1.10545788529,0.674290989905,9.88266678342e-06,-18525369.6446,2.19626278483e-05,0.0,5709670.20586,682.167440245,651.161515737,66686636.4537,1768.11222147,39485134.4384,68882230.3632,4588.75568184,4580.10387728,0.0
1.08600627656,1.09341998665,9.7572121241e-06,-28241789.556,1.46510014181e-05,0.0,5781510.25505,681.02996821,649.924928191,66891891.0359,1741.99969621,35876453.4268,69419169.5513,4508.012054,4499.43587398,0.0
0.999043116454,1.00663907693,9.48374986253e-06,-95807031.4406,1.36112390446e-05,0.0,5995971.22664,679.694764782,644.287357505,67409431.3489,1626.68982938,70622685.1524,70865166.7006,4147.0279764,4139.95284338,0.0
1.17189068606,1.09633441555,9.85882031819e-06,1141182.0319,1.95140920827e-05,0.0,5439901.92369,686.069339615,655.35918065,65866457.0961,1848.15539375,50608333.8394,67610172.5896,4864.51823784,4853.53791853,0.0
1.13924177904,1.08445023409,1.02382196525e-05,-9557932.00178,1.90198232257e-05,0.0,5578679.42646,683.81235656,653.249374919,66325189.8692,1809.7914221,44592993.4571,68074495.7942,4728.99262479,4719.26691563,0.0
1.0349376204,1.12979653558,1.01956742735e-05,-55129018.7243,1.25507577441e-05,0.0,5851373.93723,678.000367596,646.549897487,67042373.0525,1672.63636911,39912973.4777,71027462.4405,4296.02606228,4287.48507589,0.0
0.993799158028,0.591173170009,1.0078807447e-05,-95239717.197,1.74023735424e-05,0.0,5893625.12249,679.125177657,643.928084865,67084411.6075,1616.90724092,70123435.8811,70377218.9518,4125.26030497,4117.05256505,0.0
0.997016142546,0.97413652939,9.99191305019e-06,-95484367.4751,1.38543544302e-05,0.0,5913565.09169,678.786977912,644.135562024,67150413.0132,1620.91957037,70338868.8047,71056946.8883,4138.61400771,4130.35411899,0.0
1.05438989759,0.999264269765,1.00454722944e-05,-41945028.9669,1.44475916666e-05,0.0,5806242.84891,678.980104346,647.755098351,66932549.9365,1698.30505562,35138458.7332,69944190.4632,4376.7724649,4367.97218709,0.0
1.21163064167,0.900699095053,9.88765173997e-06,10973648.5081,2.62373664985e-05,0.0,12296385.4558,688.603039923,657.771545499,65220731.7018,1895.54339205,56801714.4948,66483846.9708,5029.47879357,5017.55973918,0.0
0.908729626757,0.97217180601,9.77308655805e-06,-91653805.2913,1.37392494798e-05,0.0,6172156.71544,692.387116581,638.467356125,67808287.5534,1603.12718024,66966596.2622,67808287.5534,3772.13668067,3766.15525941,0.0
1.22690792689,1.18099794052,9.65629972673e-06,13975885.6928,2.1890882634e-05,0.0,15393394.8903,689.518047087,658.808814952,65268677.3563,1913.93758289,59319361.4898,66732878.4104,5092.89480452,5081.02208114,0.0
1.06785728705,0.849089555418,9.6847676697e-06,-34804666.6979,1.60493647494e-05,0.0,5801487.21928,680.002493119,648.647385071,66922545.4726,1717.07960185,34790293.4937,70213200.5399,4432.67559854,4424.00551996,0.0
1.14598174419,0.925457492569,1.03181998407e-05,-7561928.61098,2.26979666694e-05,0.0,5569071.45349,684.222679273,653.688773319,66303378.0924,1819.8378936,45565498.3021,68489505.4545,4756.97022013,4747.63542692,0.0
1.15621861906,1.01332674332,1.00292211454e-05,-5403016.16706,2.1808466439e-05,0.0,5553275.61325,685.097975559,654.417359914,66261831.5356,1832.85362778,46932107.2953,68547137.8471,4799.46348772,4789.96264087,0.0
1.255157954,0.794808717993,1.0166864723e-05,20712319.9093,3.45417117736e-05,0.0,22548169.6707,691.392578716,660.521758411,64487611.4242,1945.67416286,64608091.5881,65407872.6651,5210.16066705,5197.53950529,0.0
1.04525686698,0.699479360491,1.00555947706e-05,-49944857.4552,1.71257620849e-05,0.0,5857200.60022,678.631074336,647.222496293,67087609.9486,1689.24221225,37556021.8399,70676260.4283,4338.86125483,4331.30786402,0.0
0.983568967266,1.12925880064,9.77967015164e-06,-95069540.9093,1.23140422116e-05,0.0,6015642.17583,681.207310404,643.289429719,67441199.1406,1616.07034285,69973278.0152,70214009.4331,4082.79478312,4075.68976601,0.0
1.1482639036,0.868511805746,9.73915960128e-06,-7713263.29004,2.27655924944e-05,0.0,5541511.63058,684.781312157,653.792973531,66205560.7521,1821.28751748,45723910.4694,68551794.9762,4766.44346384,4756.43666723,0.0
1.19076785971,0.995198155252,1.02310309183e-05,6922651.90462,2.31334265075e-05,0.0,8404103.79367,687.045870859,656.547909344,65629447.0343,1871.67981335,53756411.5676,66741972.6766,4942.87738566,4932.0089864,0.0
1.18671830044,1.24705932742,1.00031795693e-05,5187075.34374,1.85048264411e-05,0.0,6767899.01425,686.77217739,656.252590613,65748424.7054,1865.97672333,52908027.2096,66994306.6035,4926.06766513,4914.94363272,0.0
1.05834674845,0.933762554149,9.85481569834e-06,-41292874.708,1.4992352666e-05,0.0,5810919.1733,679.366063442,648.008358249,66949698.5688,1704.37091204,35034276.4963,69670000.3366,4393.19735282,4384.51306857,0.0
1.15665450846,0.766489732289,1.03335569668e-05,-5348134.19474,2.65995709792e-05,0.0,5413440.36218,685.25572911,654.407990722,65801397.0224,1830.48027152,46311393.8369,67657102.3647,4801.27286462,4790.48956528,0.0
1.10276857449,0.734900830872,9.68007468607e-06,-22327824.8885,2.04341583143e-05,0.0,5706088.44345,682.231692935,651.001452009,66677251.1176,1764.0462901,37465892.6467,68709691.2468,4577.59235271,4568.65206067,0.0
0.9888342214,0.659492128279,9.90055481323e-06,-95322775.6124,1.60447466657e-05,0.0,5974255.18611,679.796787674,643.627725299,67318259.7825,1613.32721387,70196361.8636,70442660.9453,4104.65085303,4097.4759192,0.0
1.04465481013,1.01240301491,9.68272667616e-06,-50563229.9189,1.37969402566e-05,0.0,5837966.30968,678.861439982,647.143006866,67015488.4743,1685.28593098,37837497.7184,71117595.1947,4336.36211685,4327.57664353,0.0
1.234363481,0.766392029296,9.7604669575e-06,16266684.7763,3.1331901e-05,0.0,17758721.8894,690.243431751,659.283018925,64958825.617,1922.98488893,61108804.1848,66725264.3438,5123.84280963,5111.8860526,0.0
1.17612445952,0.940628065962,1.03778296622e-05,2904380.82601,2.34151564115e-05,0.0,5349906.18579,686.147019542,655.571825887,65566739.9207,1852.34865427,51207776.7483,66724839.4003,4882.09263147,4870.72180161,0.0
1.13137545722,0.941996478746,9.85644093249e-06,-11763467.5755,2.01671496191e-05,0.0,5609789.2059,683.667903748,652.766728326,66397271.5951,1799.86497848,43320832.549,67478579.5964,4696.33952292,4686.71976755,0.0
1.13553959813,0.749335483906,1.02647827758e-05,-10697471.6568,2.46920738802e-05,0.0,5591789.66989,683.73782574,653.052855273,66358093.7675,1806.80746647,43851989.6024,67800217.9153,4713.62487184,4704.4828023,0.0
1.17810541071,0.704898241163,1.00199063171e-05,3301232.30919,2.80363119104e-05,0.0,5536458.93273,686.582802154,655.724579146,65728201.3062,1857.25421409,51708703.8666,67009199.4643,4890.31555986,4879.64937373,0.0
1.17414226893,0.995647253171,9.66717398296e-06,1625821.55659,2.13323665357e-05,0.0,5460631.0869,686.349348011,655.506668641,65953108.3626,1852.22344872,51080072.5001,67684044.7242,4873.86455833,4863.26680496,0.0
1.03136191602,0.830314977799,1.01698401582e-05,-58318093.96,1.51426474165e-05,0.0,5842037.86664,677.993330785,646.31246636,67008572.0069,1668.08775615,41678501.5728,70937916.4007,4281.1833134,4272.70014095,0.0
1.08155770392,0.835061634155,9.9070188074e-06,-29294371.8306,1.74772581051e-05,0.0,5769418.03275,680.769065421,649.62893112,66850029.1141,1736.37228631,35635515.7633,69316592.1259,4489.54602897,4481.03910313,0.0
1.04914005146,1.0758791104,1.00610565726e-05,-45355807.4817,1.33957962415e-05,0.0,5823866.40411,678.718976926,647.448678686,66977741.1579,1691.4392758,35908106.1541,70499869.5094,4354.98035361,4346.26684701,0.0
1.21119875006,0.734841326112,1.03615538956e-05,11752692.9758,3.11991337221e-05,0.0,12940071.4458,688.506585724,657.776606074,65057486.8818,1894.98887055,57219755.2219,66084735.1206,5027.6860115,5015.89147775,0.0
1.03114912963,1.12388965168,1.00050872853e-05,-60830233.7967,1.26177933332e-05,0.0,5867446.22021,678.052462436,646.311505797,67087288.1431,1667.80592284,43208126.7449,70957031.5296,4280.30003709,4271.9069494,0.0
1.24201727969,1.13205193487,9.92676092452e-06,17497415.9322,2.43433262939e-05,0.0,19107601.9699,690.377165539,659.723859101,64889570.2882,1930.20125244,62050722.1069,67045609.7472,5155.61372799,5143.12029139,0.0
0.96857583531,0.973990871872,1.02143418451e-05,-94296993.188,1.35123756649e-05,0.0,6025958.8959,682.405643462,642.323214264,67461507.6382,1609.91306104,69293186.3144,69524082.0927,4020.55829237,4013.74985171,0.0
1.02871779524,0.880178218384,9.87797907132e-06,-63293834.6321,1.47083898156e-05,0.0,5865004.17553,678.161111979,646.139564963,67069229.8021,1664.69677987,44790416.1204,71005154.6339,4270.20756804,4261.84647366,0.0
1.00067673781,0.917711110173,1.03164072309e-05,-95667907.5709,1.44156564405e-05,0.0,5890464.26335,677.929477115,644.366645366,67091967.3387,1626.09211254,70500472.6839,70536896.5221,4153.80913865,4145.57112995,0.0
1.24202140106,0.87802057359,9.72815688051e-06,17777430.4377,2.93377026509e-05,0.0,19317407.7096,690.430663357,659.585606203,64915958.4299,1931.59325537,62294943.2648,67007827.3098,5155.6308358,5143.4740948,0.0
1.22459790687,1.00145172164,9.80081626374e-06,13798642.9762,2.51460684198e-05,0.0,15189233.5324,689.416982061,658.663350728,65193682.9092,1911.22379513,59129049.8455,66601520.2844,5083.30591142,5071.47573592,0.0
1.05434308587,1.01770427042,1.05397348246e-05,-38800125.7353,1.41049611531e-05,0.0,5817880.66373,678.558833111,647.771676129,66961407.8898,1699.72045074,34668017.874,69668875.6479,4376.57814945,4368.30545362,0.0
1.08934138256,0.905738195758,9.98641219315e-06,-26344022.3348,1.72599678796e-05,0.0,5749334.88251,681.106804544,650.107046854,66801606.6123,1746.50785591,36171803.5804,69270179.283,4521.85607901,4513.22782815,0.0
1.0249054342,1.18843438668,1.01801587415e-05,-65636386.1998,1.21267638551e-05,0.0,5871698.8629,677.663145706,645.899119403,67092103.1555,1659.08590743,46353699.7101,70976183.2763,4254.38245736,4246.00224722,0.0
0.970926679222,1.0605292415,1.01988501192e-05,-94332344.0332,1.32229497348e-05,0.0,6036395.47347,682.608693885,642.477530917,67511059.5804,1614.70240456,69324394.6255,69554988.0779,4030.31664545,4023.80232802,0.0
0.986601873019,0.868255774863,9.98896011739e-06,-95027813.2765,1.45929250214e-05,0.0,5932598.35333,680.221470703,643.467909916,67195256.814,1611.53213179,69936845.226,70180294.9766,4095.3843749,4087.29302074,0.0
1.09839102637,1.01215664945,9.58091110244e-06,-24136248.6485,1.63112038229e-05,0.0,5745704.7362,681.847787949,650.671234689,66802994.2242,1758.06250817,36880809.1636,69291118.4351,4559.42115046,4550.55204486,0.0
1.0954045154,1.06460700022,1.02980669818e-05,-23377418.9966,1.61037846378e-05,0.0,5734083.61839,681.186460013,650.506327303,66756508.9872,1754.51521627,36938995.5875,68936023.2832,4547.02414343,4538.3501917,0.0
0.986475562558,0.980651647051,9.43712745152e-06,-95253775.161,1.36784835206e-05,0.0,6011074.23072,681.6081491,643.477741901,67423390.3095,1618.82944288,70135492.857,70378697.1278,4094.86006018,4087.63113212,0.0
1.06772480689,0.738864688208,9.86520053386e-06,-35856848.1361,1.76027515641e-05,0.0,5793865.67249,679.929530671,648.642681462,66912325.8593,1717.78233547,34660623.6013,70110311.7943,4432.1256734,4423.64265639,0.0
1.15159620273,0.834221414271,1.00124022298e-05,-3548687.96124,2.25760892912e-05,0.0,5516313.5526,684.67297731,653.968521605,66108968.3982,1824.21454999,48213414.0848,68618431.372,4780.27583753,4770.0814783,0.0
1.15974731111,0.866183559003,9.94404940473e-06,-2902004.94962,2.2610894225e-05,0.0,5449283.87778,685.48484949,654.602790539,65915275.3569,1833.49015654,48142121.7412,67703408.0806,4814.11108842,4803.26748109,0.0
1.07503438613,1.02584973184,1.03104208346e-05,-30492915.9123,1.51968802472e-05,0.0,5776193.71164,680.012922941,649.190071644,66861068.9858,1727.31689692,35286075.5522,69249757.3695,4462.46773683,4453.96517228,0.0
1.03189200254,1.06000610082,9.59197215442e-06,-61259835.1485,1.30910244325e-05,0.0,5925216.17933,678.397520588,646.381332504,67270169.2033,1671.07001975,43461882.359,71215744.1657,4283.38370254,4276.02182454,0.0
1.14089427576,0.968816137073,9.79171473571e-06,-8813751.5692,2.05115867785e-05,0.0,5589489.39218,684.236337983,653.370910708,66354361.1469,1812.08959454,45385398.3093,68216741.7222,4735.85213868,4726.18179977,0.0
1.10817063888,0.94435267924,1.04931824494e-05,-17183297.2349,1.83620279737e-05,0.0,5648883.83504,681.833389427,651.282348584,66484041.4271,1769.48124361,40009997.7926,68942536.8289,4600.01632199,4590.60620097,0.0
1.10696274944,1.19458497005,1.01718854085e-05,-18326689.323,1.49763785731e-05,0.0,5690473.35214,681.856597858,651.227509696,66627716.8284,1767.64802059,39621626.8941,68936695.0563,4595.00237293,4585.71013477,0.0
1.13329577281,0.782727636465,1.02399589244e-05,-11290458.31,2.37789659919e-05,0.0,5604347.78018,683.59567135,652.909690302,66392359.5006,1803.90590218,43530039.6642,67660967.0793,4704.31075293,4695.20276103,0.0
1.20615566645,0.832121231781,9.98282059442e-06,10027856.7601,2.76254185653e-05,0.0,11401317.7232,688.295843837,657.429748381,65199655.5754,1888.75691481,56000143.4092,66857171.6082,5006.75217143,4994.80661046,0.0
1.03100155942,0.924209785817,1.00494249639e-05,-60559657.2733,1.44043840179e-05,0.0,5854227.04653,678.082181433,646.301500721,67047130.1033,1667.75328094,43027661.8287,70926612.8223,4279.68747315,4271.29674787,0.0
0.8731836477,1.18127155141,9.6244847984e-06,-90225254.9138,1.08237171936e-05,0.0,6236621.02933,696.260780278,636.172189706,67975014.9195,1587.48977538,65709389.8089,67975014.9195,3624.5853216,3618.59093786,0.0
1.04884991452,0.645280094717,9.77755280853e-06,-45950713.2314,1.73016901663e-05,0.0,5811971.66313,679.090121006,647.425415714,66935604.8492,1691.43220468,36092513.3362,70471373.1936,4353.77599517,4345.06692455,0.0
1.08068924044,1.16092295741,1.0112844645e-05,-29028810.9217,1.38009513958e-05,0.0,5784929.29689,680.446138011,649.578826828,66899596.0807,1734.97740281,35642509.6064,69324120.6702,4485.94103707,4477.44760435,0.0
1.136721109,0.940404010933,9.9617256233e-06,-10726257.8008,2.07852428781e-05,0.0,5586247.58115,683.952819101,653.117971413,66336187.5056,1806.84161761,44094327.0336,67769575.8268,4718.52932346,4708.81975683,0.0
1.06625593891,1.03816389101,9.91479976373e-06,-36397830.0582,1.41532878854e-05,0.0,5815427.37076,679.688048989,648.547847218,66976226.1693,1715.63201648,34671689.8673,70227858.6956,4426.02840242,4417.56838452,0.0
0.988872714818,0.828237209176,9.91024468102e-06,-95132866.6906,1.49619569489e-05,0.0,5928059.00498,680.096810244,643.614097325,67183406.6863,1612.63974711,70029340.7109,70273908.2095,4104.81063921,4096.68250051,0.0
1.01860517921,1.00063890823,1.00381441036e-05,-70617964.6192,1.34789125755e-05,0.0,5896959.3304,677.750019788,645.51681476,67147198.3615,1651.43342882,49879577.9568,70847979.2721,4228.2300989,4220.26256586,0.0
1.08557897263,0.90355006844,1.01551387155e-05,-27352836.6205,1.71337805397e-05,0.0,5757283.9084,680.786825493,649.884171007,66828025.884,1741.86137435,35940929.6968,69246301.5898,4506.23831539,4497.76616085,0.0
1.04382938794,0.859698867797,9.66381894125e-06,-50998339.8077,1.52643373312e-05,0.0,5830498.06334,678.902859727,647.087818781,66990687.5631,1684.3023965,38009847.9648,71054244.981,4332.93578934,4324.16388331,0.0
1.27475726969,0.910953654848,1.01257778489e-05,24067604.634,3.26710634593e-05,0.0,25791464.4764,692.499361434,661.763296301,64270883.554,1967.11186411,66920159.9586,67828125.7371,5291.51742648,5278.57674046,0.0
1.13867048415,1.05632719453,1.00770542838e-05,-10018466.9754,1.96065028438e-05,0.0,5610551.32835,683.908713425,653.253729474,66406003.7099,1810.18198279,44358754.6773,68012341.6554,4726.62117971,4717.29591795,0.0
0.96340283227,0.823798296362,1.01446420842e-05,-93916063.401,1.50824512586e-05,0.0,6029692.30739,684.002832595,641.989448283,67474538.3926,1613.30962087,68957944.4637,69184033.6518,3999.08515675,3992.38030067,0.0
1.11433631983,0.871415189165,1.02889932054e-05,-15867818.9923,1.97380034287e-05,0.0,5632117.78367,682.323885391,651.627205033,66438223.7229,1777.58122212,40736332.1676,69284404.4264,4625.61006361,4616.09619095,0.0
1.08035685827,0.985808246192,9.92543518024e-06,-29287512.395,1.54853877976e-05,0.0,5762681.03644,680.621348805,649.540799136,66819989.3097,1733.44204968,35494078.9498,69338074.3164,4484.56131868,4475.69097312,0.0
1.0399814812,1.13226427689,9.87996105049e-06,-52289739.6559,1.25574538207e-05,0.0,5848766.63658,678.461989586,646.859896584,67042748.74,1679.01752532,38483925.0387,71038439.0267,4316.96312846,4308.25435853,0.0
1.10043425494,0.925932472551,9.97654372767e-06,-22493921.6273,1.78734579414e-05,0.0,5722104.56565,681.786356981,650.850704263,66718588.0838,1761.11472075,37338336.295,68729712.1157,4567.90259226,4559.10011066,0.0
1.17533428448,0.824852383249,9.61783039682e-06,1584458.62948,2.44888454957e-05,0.0,5388510.31168,686.645775019,655.563039967,65716080.6699,1852.4902015,50875330.0248,66958328.7427,4878.81261488,4867.57281763,0.0
1.16218813341,0.950882571269,9.42344505605e-06,-3331597.88542,2.24179303655e-05,0.0,5544308.4332,685.789623867,654.74440309,66245541.9055,1839.68642187,48527823.932,68634946.321,4824.24294178,4814.41764225,0.0
1.30245965439,0.952690117154,9.56331884431e-06,27990164.2855,3.33683500859e-05,0.0,29418614.9235,694.5348714,663.504155563,63900850.3779,1998.83250201,68899879.3873,70045919.0517,5406.51002537,5392.85291121,0.0
1.10539797827,1.12335348316,1.0071544988e-05,-18815040.1907,1.55689347983e-05,0.0,5667965.87006,681.914191593,651.132149604,66541768.3679,1764.67322519,39226940.0448,68811650.5376,4588.5070078,4578.75529055,0.0
1.09373019795,0.888278102121,9.75392239796e-06,-25148556.5929,1.74633102069e-05,0.0,5742917.57774,681.494957416,650.353188219,66777975.7837,1752.06851376,36513107.6542,69245238.9835,4540.07405169,4531.27884248,0.0
1.08099100383,1.00247577333,1.00368542555e-05,-29110359.2474,1.55890720465e-05,0.0,5776698.21058,680.578828867,649.595639017,66873651.328,1735.49856205,35639361.4181,69314998.2153,4487.1936569,4478.69553675,0.0
1.12237642537,1.02518687097,1.02836299263e-05,-13568211.1865,1.84535611535e-05,0.0,5609341.09993,682.790550997,652.158094782,66375326.5329,1787.45033203,42178612.886,67877847.9469,4658.98454171,4649.23775625,0.0
1.16323625662,0.726249650501,1.03827005114e-05,192261.788764,2.63940787198e-05,0.0,5397927.01976,685.493811395,654.80707412,65718144.9089,1837.54382642,49760430.569,67373838.8898,4828.59370123,4817.7803339,0.0
1.06831873704,1.02461547805,1.04268775403e-05,-34932894.6193,1.5011420341e-05,0.0,5732926.86248,679.485906108,648.635566193,66726854.0239,1716.0145423,34611833.626,69552411.1016,4434.59107745,4425.08771313,0.0
1.02892029031,1.05387863391,9.90693346395e-06,-61604203.9882,1.31000995857e-05,0.0,5920083.72242,678.005035755,646.187463283,67252581.1784,1667.19174805,43667197.8008,71100684.1058,4271.04812508,4263.72886628,0.0
0.992086441397,0.948021978336,1.01651511736e-05,-95201546.7091,1.41511083343e-05,0.0,5919631.92064,679.105892458,643.819375653,67165791.4427,1614.61209955,70089859.089,70339872.901,4118.15081824,4110.05105904,0.0
1.19176330229,1.06177227511,1.01288848102e-05,6057107.91476,2.19539353455e-05,0.0,7572478.025,687.212957004,656.588950457,65472750.4016,1871.33275476,53125055.8281,66558255.8912,4947.00946781,4935.36376725,0.0
1.09974428706,1.09646402042,9.98169633733e-06,-22629844.9185,1.56948001735e-05,0.0,5736143.92248,681.657893782,650.805002818,66776057.9014,1759.96533665,37325699.4023,68870021.4185,4565.03853559,4556.24658876,0.0
1.12487210074,0.852473092398,9.74668958626e-06,-13887652.6342,2.07016915612e-05,0.0,5639029.74848,683.323939646,652.325608568,66485303.922,1791.77932785,41997284.2301,68585249.1123,4669.34409017,4659.95838127,0.0
1.10500181999,0.910860031332,1.03671648121e-05,-18101711.3921,1.83693716054e-05,0.0,5661432.43997,681.74840767,651.099462715,66532075.8641,1765.13948683,39603265.8293,68801074.2152,4586.86255478,4577.50518353,0.0
1.09873979713,1.2067799756,9.78377121129e-06,-23239026.3615,1.40521654991e-05,0.0,5730381.38079,681.687198662,650.70770507,66739116.6758,1757.43334254,37194228.9064,69332882.0348,4560.86889789,4551.60155536,0.0
0.993546416992,1.14004544178,1.0205835142e-05,-95296435.6432,1.24164034274e-05,0.0,5926572.45536,678.736648232,643.912169203,67190021.8182,1616.36511617,70173372.4346,70427065.3068,4124.21117693,4116.08778701,0.0
1.00604194713,1.12265320709,1.00841634099e-05,-89332189.7413,1.24421941229e-05,0.0,5897920.67022,677.828498722,644.70501192,67117945.7768,1632.86018044,64985861.9453,70883848.8858,4176.08012254,4167.67341611,0.0
1.09307289518,0.788554925871,9.78505375512e-06,-25426852.7877,1.88812396509e-05,0.0,5741161.70487,681.492468956,650.321090484,66776557.1324,1751.64512169,36442717.2416,69296301.0234,4537.34558789,4528.65881465,0.0
1.14772281495,0.801614445888,9.69101629138e-06,-6751250.52962,2.38221106243e-05,0.0,5538667.32291,684.803499168,653.772168942,66195326.8543,1820.41632879,46550120.5705,68637981.6788,4764.19740486,4754.20356941,0.0
1.07024473977,1.13087413945,1.02086627861e-05,-32698182.34,1.36207949911e-05,0.0,5799468.91575,679.601051987,648.762896804,66929596.7039,1720.61589951,35030747.2655,69649843.419,4442.58591479,4434.0636742,0.0
1.09752288986,0.764477047819,9.80932036593e-06,-23856728.3928,1.96607880963e-05,0.0,5724584.42081,681.765969673,650.625547816,66733793.0283,1757.49987264,36903247.232,69133018.419,4555.81751581,4547.06023602,0.0
1.07176841066,0.889646377642,1.00190373151e-05,-32144336.3398,1.5976581616e-05,0.0,5751775.15066,679.959854538,648.849163595,66770836.0851,1720.9530475,35005752.1202,69450455.86,4448.91067265,4439.64286643,0.0
1.08898117343,0.908678728606,9.92595694445e-06,-26628521.967,1.7155803381e-05,0.0,5753505.39902,681.138267189,650.094849067,66812321.8849,1746.04808901,36115443.8693,69300639.1639,4520.36085091,4511.7373129,0.0
1.09974556038,0.952546876348,1.03354795553e-05,-20021247.5564,1.76736771466e-05,0.0,5644359.84271,681.510095851,650.776961612,66472065.8424,1756.77191281,38625840.574,68472612.3866,4565.04382114,4555.19956371,0.0
1.06780729007,0.973991286039,1.01420688928e-05,-34778245.2923,1.50618644876e-05,0.0,5798155.36597,679.634907981,648.650030708,66919986.1984,1717.71556058,34714562.2629,69900058.1214,4432.46806108,4423.98375182,0.0
1.26323564384,0.873734245234,1.031335731e-05,22243971.8505,3.42224074716e-05,0.0,24194674.8963,691.843214031,661.052360632,64296889.7677,1953.90372804,65616593.0043,66567964.995,5243.69115758,5230.69128523,0.0
1.06382385934,0.64956001564,9.55082832673e-06,-38885748.5059,1.83157035491e-05,0.0,5809362.65666,680.000074804,648.392226292,66946908.4518,1712.64695113,34788543.1381,70019700.4795,4415.93284012,4407.51084689,0.0
1.13702541197,0.786747223503,9.83577080817e-06,-9504803.23616,2.31505747539e-05,0.0,5575893.58554,684.103974236,653.138989607,66303506.9397,1807.04050742,44831590.1475,67905575.5259,4719.79248509,4710.08137292,0.0
1.23072974635,1.17839205358,9.58448144367e-06,14903144.3054,2.22039097216e-05,0.0,16324380.391,689.785727611,659.06505435,65286578.2351,1919.13049723,60074214.507,66875024.4829,5108.7591771,5097.0405465,0.0
0.984360140407,0.867238159158,9.95526371665e-06,-94941928.3203,1.45978985375e-05,0.0,5939205.61234,680.654524655,643.32447199,67211294.1717,1611.49239115,69861243.6166,70102648.4966,4086.07894283,4078.02363992,0.0
0.959920278505,1.10551462049,9.42082691082e-06,-94122346.4269,1.27317308115e-05,0.0,6093660.38964,685.921016282,641.773230282,67645005.0987,1617.2167819,69139384.8933,69366775.428,3984.62907607,3978.10503371,0.0
1.11207728826,0.937330250947,9.79142350356e-06,-19142537.555,1.8471669735e-05,0.0,5691947.93931,682.56347117,651.560729315,66652946.8576,1775.9516193,39046763.9864,68986530.9422,4616.23282357,4607.14451934,0.0
1.24426603152,1.11907856042,9.85130958954e-06,18086219.7866,2.46027104295e-05,0.0,19691824.8533,690.513297753,659.870943408,65003422.4365,1934.11132916,62607834.6014,67214459.4046,5164.94829684,5152.87474466,0.0
1.10469382859,1.10639177082,1.0266700837e-05,-18867867.2664,1.60214269835e-05,0.0,5638748.20107,681.752169487,651.069413445,66459082.9802,1762.7903234,39291998.3423,68765072.175,4585.58408248,4575.56003227,0.0
1.04630956521,0.892497571598,9.52060037077e-06,-50324415.8441,1.50027906279e-05,0.0,5832121.63512,679.130404972,647.258215138,66997954.1532,1687.53884418,37734150.2647,71177324.7606,4343.23100519,4334.41814245,0.0
1.21953801402,1.38398035784,1.04172556824e-05,13043555.8107,1.96184096382e-05,0.0,14269291.8123,688.543849421,658.322899622,65206378.2003,1903.61186218,58436312.6234,66556150.0509,5062.3022962,5050.3257183,0.0
1.09353302303,0.835822793156,1.00846044334e-05,-24591964.5716,1.85539918381e-05,0.0,5728305.70131,681.283830966,650.348773861,66743874.8826,1752.05077763,36588418.7894,69037119.3604,4539.2555786,4530.56094686,0.0
1.21031120913,1.16899258739,9.95982018386e-06,10654998.3682,2.13349869614e-05,0.0,11965710.6213,688.277056285,657.683595435,65333337.0445,1893.39373841,56572994.2029,66700640.9841,5024.0018291,5012.08693196,0.0
0.965536739718,0.935066291577,9.89152699849e-06,-94184973.6311,1.41818844514e-05,0.0,6025053.95873,683.870733997,642.124479661,67440728.0496,1612.27433374,69194586.578,69422804.7724,4007.94300657,4000.85895759,0.0
0.98543381994,0.874286317514,1.02944117123e-05,-94887153.5869,1.45102318006e-05,0.0,5927376.77594,679.722099234,643.391992278,67180972.4232,1609.55859098,69813046.1684,70054149.5659,4090.53578657,4082.54224174,0.0
1.13248053402,0.936831345962,1.00395498486e-05,-11418699.8058,2.04112669918e-05,0.0,5579978.02413,683.549678376,652.760063432,66297020.9231,1800.55165968,43430409.0782,67532097.5117,4700.92669672,4691.00910313,0.0
1.01682502438,0.732228799698,1.0301748004e-05,-74251131.2087,1.56771320734e-05,0.0,5915344.82055,677.468986451,645.411890848,67216827.1426,1651.07138558,52636274.5567,70712528.3197,4220.8406762,4213.69478449,0.0
1.05458688941,1.21886937595,1.01406390196e-05,-42840007.4077,1.25864659492e-05,0.0,5815316.02426,678.884867302,647.773465464,66961219.4051,1698.7527794,35283835.3349,70385929.336,4377.59017794,4368.81977795,0.0
1.02467276987,1.00781403241,9.99626889778e-06,-66077147.5755,1.34509946913e-05,0.0,5924542.01135,677.801157945,645.903990628,67260099.3356,1661.56675779,46685022.0568,70929312.3901,4253.41666773,4246.15814242,0.0
1.15211387218,0.910695432932,1.01068355876e-05,-6373696.30981,2.32998113223e-05,0.0,5556449.98436,684.784227416,654.1134638,66268240.7856,1827.73588489,46374878.0356,68632264.434,4782.42468342,4772.99157538,0.0
0.99167378965,0.748501978112,1.01234110962e-05,-95157022.1884,1.56471634616e-05,0.0,5912049.56772,679.341842218,643.794282941,67141052.6706,1614.27707414,70050685.4692,70298623.9988,4116.43790084,4108.34475886,0.0
1.16890605667,1.06369853402,9.72402611437e-06,144407.777888,1.98043268109e-05,0.0,5474081.13112,685.986209224,655.180425748,65978931.8102,1845.35705699,50167996.3576,67832255.2817,4852.12904124,4841.46184308,0.0
1.06726228027,1.0093229483,9.9907716797e-06,-35149488.075,1.47640879708e-05,0.0,5816790.20977,679.688665036,648.616685976,66987381.122,1717.46539159,34691260.1628,70114980.3369,4430.2057254,4421.91807025,0.0
0.996932961399,1.11900303063,1.03034974904e-05,-95396754.9076,1.25921818658e-05,0.0,5912972.29884,678.18456906,644.127149135,67154884.8453,1620.96240372,70261862.9171,70617776.5676,4138.26872277,4130.0910816,0.0
1.16586894835,0.849479908717,9.46439296456e-06,-1761374.06478,2.43633141935e-05,0.0,5485351.36745,686.153557764,655.006755146,66043695.2485,1843.16406038,49275558.0398,68012800.895,4839.5220046,4829.20616597,0.0
1.00637340015,0.860335478754,9.64221287659e-06,-91801535.3943,1.44600529359e-05,0.0,5977980.57575,678.326487385,644.75629299,67365680.2581,1636.98006639,67109675.8508,71159391.3338,4177.45598402,4170.45664076,0.0
1.07702618112,1.03164315866,1.00666581675e-05,-30446370.4593,1.49713896085e-05,0.0,5777256.49383,680.297039728,649.317002234,66872124.1516,1729.59285265,35371806.2517,69324560.2281,4470.73567783,4462.10820666,0.0
1.01280786297,1.23596262534,9.81882289515e-06,-80981478.028,1.13036091309e-05,0.0,5906143.31041,677.817723429,645.14009238,67139196.6618,1641.91307322,58001794.7237,70882060.7448,4204.16543919,4195.70062193,0.0
1.00141572022,1.06416072309,1.00169424021e-05,-95885918.1316,1.2982398508e-05,0.0,5907805.56495,678.286685409,644.416065219,67140199.2558,1626.72171283,70691064.9513,70691064.9513,4156.87665463,4148.54523133,0.0
1.12483634131,1.08899892135,1.03606345552e-05,-13275035.5226,1.83264287533e-05,0.0,5652204.64391,682.816875541,652.342670273,66528254.1217,1792.72758732,42376449.5709,68029128.8089,4669.19565278,4660.22192632,0.0
1.1188080707,1.03958088173,1.04281889012e-05,-14431353.0338,1.806407539e-05,0.0,5621133.44968,682.449729335,651.925987968,66415340.1429,1783.05726126,41526676.9235,68386186.6452,4644.17230148,4634.58401793,0.0
1.00565774341,1.1060989092,9.95247781964e-06,-90857332.4907,1.26256147118e-05,0.0,5902732.15852,678.082439018,644.685105136,67130074.9389,1632.3232432,66285218.6463,70819269.0214,4174.48529289,4166.08486593,0.0
1.11244320108,1.01594389788,9.73664405595e-06,-19402190.548,1.75532578771e-05,0.0,5696789.4927,682.59490671,651.585527984,66668086.1736,1776.2666597,38949643.1687,69009616.5733,4617.75172768,4608.65766474,0.0
1.09709692642,1.00182710928,9.87421829428e-06,-23901116.4485,1.66099206177e-05,0.0,5741798.01761,681.583298235,650.597618758,66785597.669,1756.70408296,36892439.3096,69159758.3659,4554.04934157,4545.29939471,0.0
0.998710114676,0.92965622815,9.94013836693e-06,-95549629.3235,1.42649846184e-05,0.0,5908515.72274,678.766044685,644.243561694,67136985.7897,1623.19048795,70396365.4281,70735938.1735,4145.64568602,4137.36080854,0.0
1.26826004082,1.06684374305,9.58640419213e-06,22780029.5666,2.78934782582e-05,0.0,24727515.5509,692.23260154,661.392468968,64684594.9959,1961.9636981,66233326.138,67178859.1181,5264.54742944,5252.09680682,0.0
1.01174812529,0.938475428094,1.03492017049e-05,-79879704.912,1.39283612502e-05,0.0,5936259.56617,677.270414373,645.075320322,67258715.959,1644.16382197,57085676.2672,70572682.7094,4199.76646808,4192.69169212,0.0
1.02907487161,0.814650745557,1.02290907225e-05,-60105060.5013,1.51908007863e-05,0.0,5844107.74542,677.871760825,646.175220498,67012916.9215,1665.0596259,42721164.4993,70855413.0664,4271.68979205,4263.24351449,0.0
1.18037722914,0.877098344876,9.86546643598e-06,3196574.47563,2.40948558752e-05,0.0,5379397.50148,686.7343136,655.860977686,65693848.7034,1858.92339154,51687145.0418,66953063.4929,4899.74587816,4888.62495475,0.0
1.11107751929,0.831385868322,1.03023423157e-05,-16454895.6467,2.00060974425e-05,0.0,5637328.96761,682.155506329,651.444335715,66467130.6599,1773.11833644,40398734.618,69152066.2369,4612.08278257,4602.6249211,0.0
1.09737641664,1.00381949987,1.04172078176e-05,-20640782.6191,1.68986068979e-05,0.0,5653310.56337,681.29460018,650.629764724,66481438.4809,1753.75164091,38312035.8403,68322375.6829,4555.20950547,4545.40648206,0.0
1.12947440307,0.831046747771,9.99354350436e-06,-11980018.5681,2.16281167011e-05,0.0,5582384.89254,683.429773394,652.555645471,66317093.5612,1796.65230965,43188194.4587,67337226.842,4688.44824714,4678.58200938,0.0
1.07499486751,0.910311904361,1.02700636594e-05,-31056639.2916,1.64487072038e-05,0.0,5781630.89464,680.079525136,649.187993684,66887163.3032,1728.03703808,35144853.0916,69293588.5449,4462.30369503,4453.99289486,0.0
1.0780718755,0.836564165087,1.00644301342e-05,-30086205.6406,1.73081657118e-05,0.0,5772564.87359,680.440383412,649.391578892,66856673.1987,1731.79535782,35440026.1763,69279391.1912,4475.0763552,4466.62353474,0.0
1.10571488735,1.03278847886,9.8094036756e-06,-19389665.9772,1.63970296097e-05,0.0,5697610.32516,682.141924638,651.17243216,66646179.6014,1766.41960427,39109949.7259,68716592.3951,4589.82249739,4580.45132034,0.0
1.20296010987,1.09518093955,1.00754255664e-05,9261525.79509,2.21884352361e-05,0.0,10603256.7983,687.856866788,657.259967819,65354339.8109,1884.37491533,55431355.2041,66817209.2127,4993.48741607,4981.62839892,0.0
1.2697858598,0.884474771416,9.90095121225e-06,23126013.8699,3.34606000578e-05,0.0,24997273.11,692.439165847,661.477980356,64323506.8492,1962.34471534,66312970.5418,67304921.9095,5270.88110403,5257.8718764,0.0
1.10315225608,1.00331766978,1.00335672279e-05,-21544196.1102,1.72268750059e-05,0.0,5717200.78665,681.877235705,651.026998955,66709944.754,1764.58154576,37739676.8708,68611116.1517,4579.18501499,4570.33965308,0.0
1.11610427528,0.791682452989,1.01241199618e-05,-15459828.9575,2.09730158619e-05,0.0,5624816.91273,682.574780351,651.73916651,66433666.2036,1779.69213771,41042801.8865,69144664.4721,4632.94884669,4623.4065887,0.0
0.963020221309,0.872240781682,9.75612182652e-06,-94108657.161,1.47230305847e-05,0.0,6063789.32778,684.821569972,641.971278511,67566722.8744,1615.98997092,69127402.1933,69354987.3331,3997.49693865,3991.01107247,0.0
1.24311800026,1.02751402371,1.01098564408e-05,18319032.0119,2.71392233878e-05,0.0,19985175.4329,690.377087119,659.790959078,64914957.9656,1932.30912908,62779214.9147,66716026.4876,5160.18281908,5148.13358697,0.0
1.18886396555,0.827246843378,1.02666569487e-05,6013020.98699,2.65052919156e-05,0.0,7492067.2828,687.119706473,656.401339642,65386090.2508,1868.23348781,53000704.885,66536429.7167,4934.974321,4923.47633378,0.0
0.992581851898,1.03393772256,9.93526408949e-06,-95323040.1496,1.32631728451e-05,0.0,5931230.94249,679.406195902,643.850960534,67196183.8477,1615.01986686,70196709.2702,70449228.0908,4120.20726723,4112.01922562,0.0
1.059861341,1.03023830271,9.89920350834e-06,-39442378.7794,1.39287212648e-05,0.0,5830965.24087,679.359436215,648.133590977,67011808.3375,1707.16705449,34820446.1375,69861220.4847,4399.48442649,4391.12423557,0.0
1.13938119343,0.812665904687,9.84430679084e-06,-9030124.28829,2.29407782241e-05,0.0,5577576.51795,684.205957574,653.284213729,66318148.3901,1810.306818,45200728.1938,68078913.204,4729.57133393,4719.92598494,0.0
0.982650630431,1.01844727525,9.62229769719e-06,-95008557.1771,1.36420359099e-05,0.0,6017829.90489,682.039130326,643.232188525,67449950.3219,1619.0631011,69919577.0448,70158616.8025,4078.98276692,4071.97360881,0.0
1.13122134576,0.708727905672,9.7014091232e-06,-12218447.1837,2.38582776987e-05,0.0,5536464.84019,683.983171224,652.737759938,66176980.2963,1797.99113422,43225953.9336,67468487.7946,4695.69980625,4685.28105285,0.0
0.989646216099,1.12198670227,9.96235434256e-06,-95215929.1933,1.23975282029e-05,0.0,5942007.86743,679.70993578,643.664053711,67228070.8455,1612.13498305,70102411.93,70346776.2498,4108.02144303,4099.88082688,0.0
1.11336486827,1.03243421456,9.75483896112e-06,-17028337.8003,1.70350986389e-05,0.0,5650477.33648,682.615393516,651.612238327,66509020.5624,1775.19060259,40305681.3795,69188019.402,4621.57756819,4611.68944604,0.0
1.11026486739,0.750500578352,1.03888751526e-05,-17027224.017,2.16344995926e-05,0.0,5574294.65059,682.197816573,651.378694572,66250229.1457,1770.53134021,40057547.5885,68853601.1509,4608.70946454,4598.49297231,0.0
1.09324542616,1.26131116757,1.00062197386e-05,-25040431.7162,1.3576719083e-05,0.0,5761219.25743,681.136255635,650.322020324,66843942.6553,1751.32975993,36530237.9458,69210272.7861,4538.06176399,4529.37239571,0.0
1.16188601908,0.841432498487,1.03383790827e-05,-1692352.90173,2.60029928171e-05,0.0,5499529.43335,685.324077508,654.757084392,66065512.8653,1839.49789997,48780228.861,67957173.5744,4822.9888652,4813.39927345,0.0
1.13137645591,1.043264154,9.91210055831e-06,-11779485.5902,1.86580563293e-05,0.0,5617668.3267,683.571717134,652.766702539,66426749.5109,1799.76632861,43300170.955,67520241.6697,4696.34366848,4686.74940371,0.0
1.05506355934,1.19024409702,1.00235996948e-05,-40940247.5761,1.22156324825e-05,0.0,5813005.18088,678.938958132,647.792052937,66942200.3496,1698.56997986,35025974.0152,69830162.9328,4379.56883482,4370.56223007,0.0
1.20190903693,1.15498157929,9.92383812482e-06,9164361.94521,2.07808645607e-05,0.0,10640737.0367,687.822859396,657.218759452,65479759.9254,1883.48076056,55474968.7568,66900016.2304,4989.1244123,4977.50355364,0.0
1.10025603594,1.13974844071,1.00075776203e-05,-22526115.4327,1.52292545861e-05,0.0,5737011.98085,681.664953055,650.839753962,66765925.4098,1760.69269132,37354796.3676,68761447.2832,4567.16280519,4558.36313228,0.0
1.05949841222,0.944197526374,9.79471696775e-06,-40030856.9832,1.4779521324e-05,0.0,5830175.09368,679.444280168,648.099802523,67006678.8878,1706.72236724,34893407.7599,69795130.2943,4397.97790913,4389.62336938,0.0
1.12257812673,1.08557310628,9.7403263068e-06,-14539924.8423,1.71551155663e-05,0.0,5616360.83122,683.122437928,652.153848376,66416099.1046,1786.63235187,41613303.9381,68447981.1019,4659.82180406,4649.67716308,0.0
1.05795372681,1.2932355405,9.37648098303e-06,-42918357.0501,1.13685568784e-05,0.0,5846301.31559,679.58065182,647.998057887,67052470.9352,1703.01697932,35403294.8213,70730044.0513,4391.56591999,4382.70684386,0.0
1.059084223,0.748296876685,1.00292377368e-05,-39216286.2213,1.69304631348e-05,0.0,5810519.28169,679.328794357,648.083585216,66949845.3921,1706.35460311,34747039.9184,69777424.6061,4396.25860967,4387.91051738,0.0
1.01040023629,0.88598632413,9.75973221785e-06,-85776873.4664,1.42610747497e-05,0.0,5964859.18827,678.007084984,645.007575882,67332055.7188,1642.43507039,61971416.9639,70975197.4979,4194.17138084,4187.11534936,0.0
1.10557721472,1.06574149542,1.03224425854e-05,-18060915.9862,1.64449486915e-05,0.0,5674319.79196,681.737686211,651.135970276,66572196.4805,1765.74817233,39607701.867,68864786.7408,4589.2510183,4579.88414867,0.0
1.12235447708,0.959257923948,1.00499457772e-05,-13826332.9272,1.91609451148e-05,0.0,5613643.72091,682.959365251,652.158431867,66402253.581,1787.36582023,42114488.9109,68210483.2521,4658.89343436,4649.14714454,0.0
1.03650382052,1.22159092943,1.0023586058e-05,-56038703.141,1.19532030633e-05,0.0,5860688.93013,678.192612236,646.651215532,67075747.6798,1674.85617314,40420027.8259,71079295.8366,4302.52735898,4294.04836727,0.0
1.16569406944,1.24825148134,1.01487801839e-05,166614.430149,1.74124935293e-05,0.0,5456482.98287,685.438919848,654.962049942,65912253.267,1839.76491137,49981117.7616,67666645.8034,4838.79608225,4827.84843398,0.0
1.11445933641,1.14467052167,9.94194765496e-06,-16466058.5375,1.6026023295e-05,0.0,5688513.85338,682.430082165,651.669901661,66623250.0064,1778.18731999,40608197.2401,69343700.6627,4626.12070544,4616.90461348,0.0
1.19391116526,0.937016127699,1.02129651215e-05,7301850.56032,2.43519791794e-05,0.0,8721824.24397,687.34416939,656.7477753,65494110.8067,1874.82112656,53968238.7818,66516782.1517,4955.92524699,4944.67238287,0.0
1.18884428141,0.975382096946,1.00397025592e-05,5285689.95552,2.32114160151e-05,0.0,6859854.69302,687.117390025,656.37788563,65516677.589,1868.06872912,52736209.8679,66762438.6469,4934.89261213,4923.30082913,0.0
1.28402743063,1.1770417508,1.01090300193e-05,25641240.8917,2.79277621845e-05,0.0,27292440.9584,692.764780704,662.272639469,64315303.8688,1977.56059155,67827333.5824,68698197.7846,5329.99786455,5317.06126177,0.0
1.15207776097,0.892250060438,9.53690487947e-06,-5920616.03408,2.24353996717e-05,0.0,5547319.37736,685.146007527,654.091840245,66229012.4952,1826.1938132,47064006.0742,68876029.5649,4782.27478579,4772.29886824,0.0
1.08553066281,0.936024693018,9.57374910857e-06,-28555106.788,1.61359172825e-05,0.0,5777410.12705,681.189052089,649.888029922,66880591.914,1741.27951011,35855215.5845,69447640.2199,4506.03778132,4497.37196183,0.0
1.06327597175,0.76086485544,9.86934782284e-06,-37911337.3391,1.7026331966e-05,0.0,5806576.77637,679.674983248,648.354731541,66942884.4675,1711.90360291,34684780.49,70033520.5859,4413.65855873,4405.24640489,0.0
1.16768765353,0.760176404189,9.76140824877e-06,-679306.602548,2.55958411799e-05,0.0,5431845.02412,686.146912518,655.102630828,65850707.4535,1844.36531311,49544156.4427,67563207.0501,4847.0714498,4836.34642967,0.0
1.12913069004,1.04880217538,9.85056780855e-06,-12405591.9191,1.83420392099e-05,0.0,5628834.36843,683.462659557,652.616608847,66455920.275,1796.92255147,42828981.5486,67716680.575,4687.02149436,4677.46438769,0.0
1.06299329894,0.981451091253,1.01130773278e-05,-36380854.8352,1.45062671105e-05,0.0,5779197.34492,679.410464888,648.318462862,66850285.9583,1709.57585784,34541638.0741,70030272.2119,4412.4851839,4403.3626102,0.0
1.20126106285,0.922190701988,1.02944305386e-05,8762808.24515,2.55969743718e-05,0.0,10131118.5641,687.782164438,657.157946931,65265434.316,1882.60349435,54924951.1013,66602745.514,4986.43467189,4974.59437604,0.0
1.02296625651,0.872541792439,9.99744662016e-06,-68234527.4051,1.45473312763e-05,0.0,5922568.91782,677.818136137,645.809445729,67250285.8846,1659.35513118,48190251.3509,70924328.8932,4246.33293077,4239.09874546,0.0
1.06578397208,0.828214429123,9.94356345073e-06,-36465703.5057,1.64384953753e-05,0.0,5801808.33517,679.724356683,648.515774956,66934363.4251,1715.16410945,34648542.5985,70178913.1213,4424.0692681,4415.61792265,0.0
1.03349549222,1.075690089,9.60154299648e-06,-60081644.0206,1.29806344816e-05,0.0,5921957.15372,678.434283594,646.483608177,67262841.9689,1673.21209408,42859541.6808,71165843.4391,4290.03978821,4282.65486985,0.0
1.07592279511,0.917746675214,1.06102969441e-05,-29940578.5919,1.67743071486e-05,0.0,5767951.24287,679.911048256,649.273317473,66845414.4687,1729.46655739,35196480.5972,69104919.2726,4466.1555225,4457.92707038,0.0
1.16349701466,0.820853042233,9.79210925094e-06,-2426535.38124,2.56823525186e-05,0.0,5512135.68844,685.785965004,654.866538491,66127266.5843,1841.57881985,48954102.9172,68283132.1716,4829.67610785,4819.93771476,0.0
1.21523819524,0.710794976695,1.05449132861e-05,12804817.6892,3.27254190232e-05,0.0,14021817.4538,688.716307288,658.046977356,64952060.6879,1899.60433155,58073115.8084,66191935.6176,5044.45374844,5032.58692966,0.0
1.18154028877,0.991252279848,9.87775783764e-06,3422239.14502,2.21082950987e-05,0.0,5483880.17384,686.715772287,655.932647507,65724654.4001,1860.15641836,51823595.2479,66989240.6235,4904.57373868,4893.43193832,0.0
1.10253080345,0.713525180808,9.86402431114e-06,-22090329.3862,2.10521550744e-05,0.0,5702614.34934,682.103057165,650.989070834,66675179.9346,1764.0835903,37522946.7883,68464531.3561,4576.60536512,4567.769815,0.0
1.12462798278,1.01383759769,1.03362538713e-05,-13347442.9417,1.94166972655e-05,0.0,5647785.23544,682.854843521,652.328577116,66514837.9685,1792.54313207,42328352.1638,68076319.9657,4668.33075652,4659.36030625,0.0
1.08117547792,0.950755752913,9.68525104537e-06,-30182148.5836,1.59432275587e-05,0.0,5791453.68797,680.659151013,649.466339838,66925602.0035,1735.77918745,35517234.4293,69413304.6628,4487.95940885,4479.45842265,0.0
1.02130068304,0.880003392716,1.0235304849e-05,-68460813.3194,1.46670589793e-05,0.0,5860152.28511,677.646387341,645.67907353,67048990.5919,1654.47273363,48322845.3381,70679500.7135,4239.4191353,4231.09809237,0.0
1.26487315356,0.960994250994,9.83135668832e-06,22545465.8763,3.07455140456e-05,0.0,24416199.2494,691.95637325,661.171875163,64688407.7829,1958.28966222,66084785.1258,66921312.1155,5250.48846043,5238.27992675,0.0
0.910947118024,1.06584831237,1.01230619332e-05,-91587903.502,1.25085609511e-05,0.0,6116787.2593,690.890716585,638.597835098,67643610.2292,1596.56229579,66908665.1012,67643610.2292,3781.34148692,3774.53002214,0.0
1.1277660443,1.05826660417,1.04443511188e-05,-11881787.2253,1.85844542723e-05,0.0,5588589.03387,682.916762179,652.443881367,66323826.7311,1794.25468991,43073530.376,67355104.1824,4681.35684989,4671.5191006,0.0
1.0360157176,1.21761377582,1.01498693153e-05,-54527377.0301,1.18540332562e-05,0.0,5855481.06539,678.045808652,646.610753532,67057113.5939,1674.00269164,39606695.7306,71147985.6524,4300.50124376,4291.94415675,0.0
1.0903424584,0.924267644806,9.70305935418e-06,-26460770.5074,1.67242248265e-05,0.0,5757595.61677,681.367282388,650.18304601,66829649.9942,1747.60568682,36196738.6355,69387998.1528,4526.01154482,4517.26988935,0.0
1.0192304151,0.783931291281,9.67368511565e-06,-75853497.6823,1.52943758354e-05,0.0,5941276.14253,678.124121251,645.572331264,67292591.156,1654.37402162,53900631.0787,70910797.2476,4230.82545308,4223.64443037,0.0
1.06591746202,0.940817355641,1.03214632622e-05,-35328328.5833,1.55068727233e-05,0.0,5797251.96889,679.416543633,648.529149718,66921012.2083,1715.58772795,34652033.292,69868019.1776,4424.62338485,4416.26240728,0.0
1.10508009665,0.723339673156,1.04900676371e-05,-17996436.4763,2.13080505417e-05,0.0,5638668.20092,681.789879825,651.100900162,66446080.0635,1765.70386335,39598160.6015,68697389.3483,4587.18748119,4577.82842325,0.0
1.20476603895,1.1128122737,1.0135396025e-05,9713324.56642,2.21001516936e-05,0.0,11049254.9847,687.890945634,657.344922764,65330152.8272,1886.42469465,55761521.4644,66913780.6704,5000.98382768,4989.09115566,0.0
0.969700148574,1.02169206025,1.04150529518e-05,-94227807.6215,1.3446345166e-05,0.0,6028308.10852,682.150724416,642.397463115,67488319.2367,1611.9985698,69232505.9105,69462594.0179,4025.22531673,4018.72771366,0.0
1.17293512518,0.866248126179,1.0022284573e-05,1705485.93851,2.39872741622e-05,0.0,5389175.95449,686.207999206,655.402008222,65710366.7594,1849.38932699,50709734.3725,66956288.8473,4868.85370462,4857.74850117,0.0
1.03044595372,0.85398758882,9.97294699332e-06,-59965918.4411,1.49201739389e-05,0.0,5903913.40016,678.05526006,646.284090761,67206230.4983,1669.35333196,42755067.1377,71062616.6948,4277.38115389,4270.04002774,0.0
1.09653756654,0.923617632128,9.39490286816e-06,-25062796.2705,1.68997019979e-05,0.0,5755580.01541,681.880887853,650.532693862,66825652.8931,1755.83597823,36663307.332,69419255.477,4551.72743871,4542.8876432,0.0
1.03706577045,1.18056874257,1.00953198625e-05,-53291832.2786,1.21220506982e-05,0.0,5849709.60567,678.122430344,646.658035989,67042407.2226,1675.13969831,39000753.5436,71155446.729,4304.86001314,4296.19760415,0.0
0.974190824828,0.896813644697,1.01858028212e-05,-94624083.5759,1.45329058872e-05,0.0,6023231.65015,681.647785496,642.689080075,67467195.1295,1611.99383272,69581358.393,69815399.183,4043.86611386,4037.31303271,0.0
1.15164768983,0.834775414727,9.68561079663e-06,-5483000.2536,2.34423769399e-05,0.0,5507358.54571,685.106530534,654.059355438,66103141.1472,1824.55700332,47182854.0779,68594660.3922,4780.48956048,4770.13129132,0.0
1.02036642705,1.01392309302,9.73647766081e-06,-74008454.9119,1.33314381883e-05,0.0,5946738.0511,677.999108839,645.647013649,67313633.3379,1655.78102504,52472493.0007,71367380.6899,4235.54103868,4228.34386773,0.0
1.01255581785,0.9171102203,1.06280557938e-05,-77196486.6886,1.45107376393e-05,0.0,5849408.40808,677.140603201,645.114820453,66988885.1618,1642.0021883,54920508.2426,70507550.8249,4203.1191999,4194.68845913,0.0
1.16190293927,0.948395893468,9.88738634055e-06,-2492902.11855,2.14022111087e-05,0.0,5451356.1719,685.597521998,654.736050012,65920806.174,1836.0305072,48435626.6701,67737808.5657,4823.05910091,4812.15130179,0.0
1.2011236279,1.09253623239,9.93656716523e-06,8970412.41389,2.17593340609e-05,0.0,10453748.9167,687.813803485,657.171905716,65463784.6603,1882.66042782,55325353.5193,66830489.045,4985.86417941,4974.2574131,0.0
0.984714307295,0.922230914559,9.67084704393e-06,-95064755.4255,1.44671625951e-05,0.0,6005316.00615,681.646721523,643.364344408,67417382.0466,1619.06882704,69969196.3444,70209637.595,4087.54908958,4080.51029398,0.0
1.07083567235,1.08150808788,1.01847813916e-05,-31996811.891,1.39146894193e-05,0.0,5761743.31009,679.691655214,648.782461002,66802881.1693,1719.57188622,35033468.8231,69426762.9405,4445.03887592,4435.78527595,0.0
1.16512347187,0.992309991352,9.92640882729e-06,-550048.308087,2.10113139729e-05,0.0,5441274.33741,685.714178658,654.930624753,65877437.3731,1839.64514606,49651188.6863,67737007.5288,4836.42753173,4825.46271309,0.0
1.17158477739,0.908166328038,1.01721083362e-05,1608545.29152,2.32651462042e-05,0.0,5392085.24383,686.00079838,655.314303743,65699695.0822,1847.53270887,50575062.1235,66965438.8906,4863.24841095,4852.16752455,0.0
1.10447077885,0.919705637838,1.01384203246e-05,-21096835.0017,1.85428094562e-05,0.0,5699470.11289,681.911426301,651.098556628,66662292.8233,1766.21663438,37922614.7645,68660887.7616,4584.65820301,4575.7921225,0.0
1.11716904537,0.778259379199,1.0345421759e-05,-14920253.7033,2.15052870569e-05,0.0,5610014.07131,682.524239685,651.808025552,66376699.5342,1781.29214253,41181514.494,68741328.5729,4637.36870733,4627.80772442,0.0
1.14363278615,0.78007180361,9.80573666231e-06,-7896609.05855,2.39798054811e-05,0.0,5560696.24423,684.462135957,653.508830263,66272456.434,1815.80366551,45821466.1573,68357610.5264,4747.21969531,4737.5041336,0.0
1.10744541323,0.781186492348,1.01090400563e-05,-20256111.0479,2.06706134018e-05,0.0,5679997.7998,682.165522645,651.275777875,66606385.6158,1770.19266032,38304796.3052,68750636.5222,4597.00591032,4588.09275947,0.0
1.15078878367,0.846352203053,9.79049719076e-06,-6882107.49947,2.34708036528e-05,0.0,5527048.57414,684.963907706,653.995492681,66165407.4962,1824.47760161,46115374.6003,68686929.0496,4776.92424101,4766.87473848,0.0
1.18904255822,0.815499297446,1.03338526729e-05,6315605.98463,2.68141996645e-05,0.0,7795331.76919,687.080539241,656.423255234,65436548.821,1868.88481446,53185643.7499,66487026.7966,4935.71565917,4924.42700052,0.0
1.19514960251,0.813714042777,9.46528688648e-06,6019781.89423,2.63359035452e-05,0.0,7656821.64682,687.993588796,656.785712799,65482717.7875,1876.60061119,53491288.058,66814164.7709,4961.06600002,4949.324372,0.0
1.10992620038,0.864702912849,9.70428614084e-06,-20171866.0899,1.92075079857e-05,0.0,5694673.81475,682.555403625,651.440248562,66656233.7452,1773.16847012,38519746.2116,68861612.2263,4607.30365778,4598.24994251,0.0
1.11713695498,1.05959597004,1.03847195739e-05,-14945016.396,1.75978050446e-05,0.0,5630872.94873,682.354387184,651.815933239,66440980.3803,1780.93363725,41238934.9608,68761165.9978,4637.23550012,4627.67505142,0.0
1.01044752161,0.797518099033,9.93521065975e-06,-83970703.3478,1.49007676306e-05,0.0,5954003.34922,677.798784813,645.016413823,67302888.5689,1642.58311547,60455966.761,71385793.3826,4194.3676622,4187.3109639,0.0
1.18214812482,0.856895715236,1.0471470227e-05,5051526.12719,2.54788801996e-05,0.0,6598432.96147,686.475464769,655.958055931,65535278.7143,1860.51301209,52479362.1908,66755582.9641,4907.09686613,4896.0411795,0.0
1.05435940349,0.962482554961,9.48460213839e-06,-43059650.1226,1.41105223857e-05,0.0,5849347.24679,679.433397637,647.791609223,67052049.0999,1699.32739967,35425158.57,70803064.2044,4376.64588389,4368.18816395,0.0
1.13442364527,0.919553359665,9.85911065034e-06,-12047958.8683,2.10848012688e-05,0.0,5537711.59186,683.986214851,652.954308455,66178961.0466,1802.00487255,43083164.0229,67457444.2325,4708.99255152,4698.50422741,0.0
1.08966756697,0.872114262274,1.02645357721e-05,-25382188.3893,1.79009744609e-05,0.0,5734020.8022,680.916730272,650.097543896,66745645.4156,1746.93914518,36308257.1874,69070819.229,4523.21007049,4514.57672001,0.0
1.0898646699,0.912759111961,9.59467111175e-06,-26960701.2085,1.67388792132e-05,0.0,5762821.21798,681.426341343,650.159028566,66843043.9403,1746.98769589,36129032.9094,69431405.6563,4524.02824475,4515.29413149,0.0
1.00661829616,0.976372163772,1.02808217729e-05,-87041463.1898,1.37490553061e-05,0.0,5934231.21744,677.455978214,644.755580007,67232871.618,1636.23077887,63026544.4608,70721177.7991,4178.47254736,4171.12446191,0.0
1.16566633141,0.79594456167,9.50784621736e-06,-791630.216046,2.40364335969e-05,0.0,5428800.41611,686.148174764,654.969684217,65841862.9588,1840.52990151,49822684.4637,67938884.8535,4838.68094168,4827.60494227,0.0
1.12077910994,1.13270822441,1.03102845161e-05,-13968652.5672,1.68628391959e-05,0.0,5623027.83105,682.610598499,652.052605688,66415404.57,1785.27377856,41863609.436,68217177.4247,4652.35408536,4642.63327708,0.0
1.089487934,0.827814851801,9.8871820485e-06,-26580409.7033,1.81651929655e-05,0.0,5747525.67687,681.229794867,650.1241981,66794367.4433,1746.75894565,36145880.6396,69300369.9835,4522.46441403,4513.83387211,0.0
1.05855066074,1.11240178576,1.03121160402e-05,-38761636.7656,1.33015649641e-05,0.0,5826054.44798,678.947926554,648.047996114,66995601.8772,1705.70151902,34723540.6231,69808105.8498,4394.04379273,4385.79815555,0.0
1.07480625207,1.02032545257,9.7507101941e-06,-31744236.7947,1.46110982769e-05,0.0,5802633.6731,680.201771431,649.040629885,66939050.3087,1726.73499114,35306897.7212,69784978.1228,4461.52075234,4452.92802869,0.0
1.24340180734,0.866659978117,9.93345138982e-06,18189436.1079,3.01779333687e-05,0.0,19789314.6345,690.643842391,659.805131773,64809489.722,1932.60438002,62571356.2689,66093702.9773,5161.36090227,5149.06863168,0.0
1.13408625959,1.13405773669,1.03647576519e-05,-10960517.7399,1.8481202252e-05,0.0,5625218.01558,683.393554197,652.959726333,66460786.9001,1804.52302648,43691245.2549,67837120.8079,4707.59206356,4698.47156159,0.0
1.07198860282,0.967721214166,1.00052633146e-05,-32654609.1431,1.53575218898e-05,0.0,5792600.83193,679.909718343,648.874216409,66908296.6972,1723.0194348,35033482.4159,69694927.4511,4449.82469031,4441.27653525,0.0
1.28838618742,0.844744591353,9.94697664517e-06,26293959.2753,3.57909804308e-05,0.0,27884354.7251,693.306401138,662.424560606,64018201.5783,1982.79218473,68096270.9834,68995540.5065,5348.09106398,5334.769276,0.0
1.01939460938,0.879652024415,1.00193530969e-05,-72427268.6801,1.44000907021e-05,0.0,5931327.61137,677.728716552,645.579620654,67267182.1786,1654.60848236,51259053.0877,70899823.21,4231.50702354,4224.32366778,0.0
1.03776505376,0.847525862285,1.00316555577e-05,-52910681.7643,1.51896328163e-05,0.0,5830072.41436,678.337716316,646.701808428,66982486.5682,1676.29985299,38752096.7448,71072563.4192,4307.76273816,4299.08889283,0.0
1.11093623815,0.832375367056,1.00141225543e-05,-17082919.6279,1.97378366219e-05,0.0,5621112.94145,682.410045126,651.452939966,66400764.2686,1771.89071235,40236110.2391,69023779.4941,4611.49632456,4601.55260907,0.0
1.11095621256,0.941658081506,1.03152228036e-05,-16485139.4933,1.85378931545e-05,0.0,5646952.52819,682.081109795,651.436925395,66496805.4079,1772.85382385,40410027.2621,69173730.608,4611.57923834,4602.12178624,0.0
1.24908291153,1.00896640312,1.02313914813e-05,19486120.2275,2.87727498449e-05,0.0,21193228.0782,690.781728373,660.132440466,64627064.691,1937.5438826,63616719.0307,64627064.691,5184.94316576,5172.20822536,0.0
1.08404713492,0.784673871356,1.00807951744e-05,-27831153.2621,1.84709837027e-05,0.0,5751700.60696,680.814891751,649.792648233,66802622.9031,1739.67179955,35773727.3582,69244520.4277,4499.87965705,4491.33400478,0.0
1.13119708793,0.908478314948,1.03684142596e-05,-11165056.4283,2.10382642709e-05,0.0,5565598.07607,683.274104614,652.673619854,66257476.2254,1798.82270935,43526419.4179,67538139.6746,4695.599112,4685.70234962,0.0
1.12804543392,0.917673413886,9.81588299973e-06,-12662069.935,2.00951835759e-05,0.0,5623054.74096,683.478105334,652.543082425,66435267.0957,1795.67821937,42627582.8037,67931413.8171,4682.5165962,4672.97739209,0.0
1.03030850473,0.810864484611,1.02924260809e-05,-59836638.6068,1.55089830824e-05,0.0,5833930.60165,677.868987302,646.246854613,66984916.065,1666.5445893,42555412.5399,70927292.7681,4276.81060313,4268.34475027,0.0
1.05394697891,1.20164982833,9.51123041181e-06,-44433414.3665,1.19837791725e-05,0.0,5845911.82951,679.331495936,647.763511059,67045278.211,1697.76830548,35702671.9241,70751697.9697,4374.93390946,4366.14036606,0.0
1.08872545573,1.01037618708,1.04656597507e-05,-25267227.8815,1.64648405253e-05,0.0,5743145.4169,680.657744363,650.035152832,66779365.1723,1745.93231726,36307247.4258,69059184.5507,4519.29936674,4510.77861584,0.0
0.955172131332,0.883985824731,1.01702609247e-05,-93586417.865,1.44304465423e-05,0.0,6051659.28748,685.020408351,641.459280589,67525554.217,1610.75617053,68667740.5875,68889418.5818,3964.91951716,3958.32999114,0.0
1.1608554897,0.765622733818,9.6503925204e-06,-2078215.8406,2.43678793393e-05,0.0,5444382.34647,685.797493541,654.675344706,65893941.4223,1834.90979378,48979207.5427,67860425.861,4818.71113774,4807.82272574,0.0
0.987882987056,0.967993658481,9.98251441693e-06,-95100462.4152,1.38530342311e-05,0.0,5934997.80461,680.009722745,643.550163587,67204443.1207,1611.77372058,70000792.3928,70244535.1928,4100.70227927,4092.59029316,0.0
1.1036360767,0.999987211217,1.00285372855e-05,-21410068.9001,1.73140660167e-05,0.0,5715675.14753,681.910402015,651.05754173,66706068.0182,1765.21858122,37795471.9614,68636846.8749,4581.19335438,4572.34035062,0.0
1.00686561883,0.910353829485,1.02822861662e-05,-86515876.3196,1.40730584313e-05,0.0,5949871.62086,677.404408302,644.779034852,67293391.2176,1637.59627654,62582895.865,70765348.1936,4179.49918376,4172.49456161,0.0
1.16527688763,1.02713096147,1.02059378652e-05,258476.355962,2.06553472864e-05,0.0,5432168.58427,685.508323073,654.934452331,65837577.7212,1839.47882776,49962566.9449,67562963.4639,4837.06436055,4826.12417781,0.0
1.06027075473,0.783964057466,1.02768198253e-05,-38017288.3912,1.67906635457e-05,0.0,5803849.69941,679.189719728,648.159376287,66929516.3198,1708.21717947,34653298.4547,69874297.091,4401.18390288,4392.91027732,0.0
1.16676194971,1.08891877008,1.02967703203e-05,862967.236541,1.9883659084e-05,0.0,5459617.29255,685.468843306,655.04033206,65910496.8582,1842.24907069,50270421.7975,67508255.0593,4843.22885325,4832.67956092,0.0
1.18297512337,1.01401854583,1.00054073246e-05,4492161.0679,2.18930599511e-05,0.0,6115965.93754,686.67900668,656.002777141,65675162.8281,1861.41447633,52381492.7745,67010250.3685,4910.52973711,4899.35291884,0.0
1.15036132886,1.12146753596,1.00884262066e-05,-6989869.9217,1.96149627913e-05,0.0,5582430.77782,684.56840618,653.999010997,66346169.8098,1825.29635631,46095701.8885,68761735.6157,4775.1498761,4765.74490882,0.0
0.990161523954,0.742427809783,1.01216282759e-05,-95094116.3119,1.56701079445e-05,0.0,5915440.71278,679.555660806,643.69703963,67149266.3603,1612.70795277,69995292.0963,70239430.2937,4110.16048593,4102.0915757,0.0
1.06525959899,0.982330438231,1.01232165745e-05,-36014524.6349,1.48255462624e-05,0.0,5805845.36263,679.503138212,648.483433006,66938310.0665,1714.37379715,34653990.045,70083148.8299,4421.89259541,4413.44816339,0.0
1.16539017531,0.851417530023,9.79206835622e-06,-671204.589937,2.33109484367e-05,0.0,5430186.41574,685.914139151,654.949945918,65840694.6139,1840.28464364,49644256.3335,67751032.7022,4837.53461771,4826.56501756,0.0
1.08539630731,0.741909755456,9.4633477503e-06,-28826877.6364,1.86051556666e-05,0.0,5771692.03305,681.165564368,649.747933184,66861595.0977,1741.27955237,35797445.4172,69439951.0635,4505.48007164,4496.81636578,0.0
1.10081380562,0.756929709814,1.00703761434e-05,-22336123.5879,2.03695531805e-05,0.0,5700150.7792,681.830164863,650.87588819,66656050.476,1761.61413731,37419665.0318,68415440.18,4569.47810713,4560.66975499,0.0
1.16591775909,0.979971305685,9.76140502354e-06,-664722.196169,2.10835090004e-05,0.0,5445525.69554,685.873604114,654.983725527,65888157.5381,1840.77242634,49687562.6217,67809759.2305,4839.72461798,4828.74555681,0.0
0.976557710892,1.00327314411,9.74911503464e-06,-94729015.4355,1.3663401428e-05,0.0,6027187.69214,682.564725865,642.83963978,67469575.6801,1616.46214739,69673435.0146,69909358.1272,4053.69105791,4046.76909357,0.0
1.07667443054,0.753640702593,9.86275799359e-06,-31448053.3552,1.81335994445e-05,0.0,5783021.9213,680.346830466,649.166078839,66894872.1858,1730.02205849,35197845.5142,69595889.8353,4469.27556117,4460.84439138,0.0
1.10587350489,1.04120061595,9.89237302668e-06,-18493691.5456,1.67088197546e-05,0.0,5736150.20449,682.012317336,651.188705861,66769252.3998,1768.30865766,39533462.1426,68989426.8831,4590.4809188,4581.82268861,0.0
1.11626083141,0.925685224053,1.06176141183e-05,-14681030.1573,1.95178027557e-05,0.0,5611251.88788,682.216843249,651.757288879,66384623.0611,1779.84515845,41316003.0285,68483668.5737,4633.59871118,4624.05439462,0.0
1.1382247445,1.05943696278,1.01704127683e-05,-10004983.0908,1.95816762017e-05,0.0,5609042.56056,683.801153564,653.214011455,66406966.9361,1809.63647256,44299723.3667,68004571.5545,4724.77091442,4715.47914222,0.0
1.12155683155,0.986386172389,9.98412937047e-06,-14341257.6381,1.88273641591e-05,0.0,5650574.97748,682.902090762,652.10519479,66519837.6257,1787.50327924,41691951.8328,68817900.21,4655.58240776,4646.2511144,0.0
1.1404176905,0.970164880119,1.00590082662e-05,-9369625.0613,2.06251381083e-05,0.0,5550809.63818,684.088427559,653.317524266,66217235.4006,1810.64091202,44728813.8522,68095379.8471,4733.87383327,4723.79617232,0.0
1.05747087975,1.08546007008,1.02181226982e-05,-39634873.0771,1.34885601734e-05,0.0,5830629.30116,678.965405337,647.97335668,67005979.0184,1704.26508543,34818282.9177,69706208.8278,4389.56162184,4381.33116919,0.0
1.27474809913,0.789335213193,1.02324679762e-05,24129285.941,3.65859418241e-05,0.0,25862524.9592,692.625557391,661.749686601,64089043.5781,1966.80007081,66869595.9519,67779581.8657,5291.47935949,5278.29556465,0.0
1.08781954147,1.03964223276,9.89817152467e-06,-27152643.6756,1.55132551839e-05,0.0,5766880.84493,681.044805534,650.028637274,66851762.0924,1744.4113287,36035112.5928,69359426.0866,4515.53891664,4506.93444222,0.0
1.10194690149,1.06067280319,9.93756244502e-06,-22141946.8309,1.62607350214e-05,0.0,5729811.46456,681.843353817,650.951520681,66759279.8943,1762.98815625,37516432.2545,68534824.2274,4574.18158808,4565.35461396,0.0
1.11572370385,1.02965513179,9.68456232061e-06,-16661816.3236,1.72204234548e-05,0.0,5663232.93781,682.77286923,651.755449004,66550000.6634,1779.09962536,40439612.8862,69336376.6068,4631.36909468,4621.73406542,0.0
1.07924765591,0.866011992535,9.66682415594e-06,-31072476.4297,1.67582961679e-05,0.0,5791785.11445,680.590174655,649.337371487,66922475.1866,1733.31033667,35331897.2644,69386233.5215,4479.95701968,4471.48596515,0.0
1.05173144581,0.754728623805,9.91959683471e-06,-44515559.8134,1.66838825086e-05,0.0,5801837.65053,679.095051226,647.614916388,66913468.8549,1695.09926308,35668550.8333,70480961.1671,4365.73723156,4356.98152404,0.0
1.00568064997,0.859928158647,1.01186419366e-05,-89298932.2733,1.48280147819e-05,0.0,5880770.51752,677.899268096,644.681664831,67065102.185,1632.57598304,64956853.998,70737726.3548,4174.58037803,4166.17957672,0.0
1.13588913475,0.894829410969,9.77476934187e-06,-10732620.8663,2.12061721366e-05,0.0,5593898.5155,684.032850371,653.065494968,66355283.0953,1805.73224132,44014775.7776,67725102.2528,4715.07579835,4705.3803427,0.0
1.1155702965,0.868029241076,1.00210859939e-05,-15902775.0245,1.9806020758e-05,0.0,5659474.49564,682.555337988,651.718917529,66537947.9097,1779.8620237,40840433.1184,69374509.7833,4630.73230077,4621.49728731,0.0
1.1588394381,0.892517280753,9.62746412641e-06,-4098527.06529,2.3177768732e-05,0.0,5517810.119,685.535209302,654.526628559,66147086.0416,1834.80799508,47901961.7179,68468093.8501,4810.34250755,4800.25048505,0.0
1.06139104299,0.822310541871,1.06248824713e-05,-36165835.4149,1.67841989607e-05,0.0,5802538.69718,678.958239263,648.239150893,66938546.5789,1710.39278909,34587197.054,69899569.9788,4405.83421945,4397.82671666,0.0
1.02532983857,0.755339897557,9.95539901026e-06,-65629426.3581,1.56156026606e-05,0.0,5913164.9429,677.936636268,645.949886457,67225468.9067,1662.5720005,46377602.5712,70929001.798,4256.1441599,4248.87625353,0.0
1.13022443552,0.794321611618,1.01623275593e-05,-11693643.9294,2.24626887532e-05,0.0,5566154.27804,683.512997388,652.686456033,66253922.8334,1797.78934133,43217059.0047,67361355.9193,4691.56163184,4681.68227937,0.0
1.09494595017,0.906258992752,1.00835068473e-05,-24060680.4287,1.78233884109e-05,0.0,5728660.49343,681.3531604,650.458606096,66747585.4846,1753.72859505,36768393.79,69014121.57,4545.12063916,4536.40426314,0.0
1.07361302583,0.936957753757,1.03444001666e-05,-30929579.1099,1.61436601051e-05,0.0,5772509.67781,679.935542798,649.09181811,66847918.7153,1725.51542319,35189925.717,69248181.6496,4456.56767022,4448.08728253,0.0
1.11438171375,0.688559165631,9.64497067606e-06,-18756319.0206,2.23035729039e-05,0.0,5668382.7089,682.934690327,651.701898861,66580204.3001,1779.25111911,39294924.2508,69008238.7294,4625.79849378,4616.67319465,0.0
1.1464140009,0.929990844159,9.77215343586e-06,-7245319.35026,2.16191800128e-05,0.0,5566949.15924,684.562023151,653.681192477,66295108.6446,1819.1644854,46236530.6667,68581752.1203,4758.76451774,4749.00122965,0.0
1.09340428775,0.971829210166,9.55294648251e-06,-25304477.4442,1.59770707061e-05,0.0,5719431.48495,681.640209986,650.341916575,66698881.2862,1749.65316859,36473779.7129,69311911.1223,4538.72119845,4529.18179499,0.0
1.03879427705,0.876158992738,1.0083865277e-05,-51926145.6803,1.49700955488e-05,0.0,5827352.63183,678.346010289,646.786561799,66977287.7098,1677.64892982,38316965.3803,70826669.8852,4312.03504403,4303.34435539,0.0
1.14940049342,0.938016497902,9.73558693383e-06,-7392047.31881,2.16978417999e-05,0.0,5544604.98182,684.834890158,653.887058847,66216209.4208,1822.6442059,45802801.899,68638295.1395,4771.16144819,4761.13543619,0.0
1.00813079847,0.90376377154,1.02746016803e-05,-85030621.4396,1.41455371796e-05,0.0,5947078.90321,677.391302746,644.858432608,67284866.4037,1639.30449838,61336226.209,70876498.593,4184.75094445,4177.72715597,0.0
1.09159198975,1.17146510506,9.81757334982e-06,-25188115.8831,1.37616926915e-05,0.0,5734500.16036,681.259985394,650.228150496,66738496.6848,1747.41943168,36478328.8516,69265477.6391,4531.19834945,4521.78389605,0.0
1.12152076977,1.18441359179,1.00081402633e-05,-14304065.1338,1.58268031147e-05,0.0,5619393.59452,682.832740129,652.085318713,66411639.6031,1785.25007307,41662178.4867,68382366.0413,4655.43271532,4645.32341009,0.0
1.13781854807,0.851127989337,9.70358326795e-06,-10491965.3441,2.19749931553e-05,0.0,5594274.72358,684.210736694,653.191403042,66364658.6757,1808.57355917,44145836.6748,67815909.5247,4723.08479304,4713.46205411,0.0
1.08729197307,0.995068589476,9.90833424986e-06,-27288006.9623,1.60552400032e-05,0.0,5764544.08668,681.030251899,649.996374615,66843899.3383,1743.75937715,35988832.6445,69348253.4138,4513.34898021,4504.75274197,0.0
1.11787146855,0.941420865707,1.03900816974e-05,-14743156.8493,1.9283376691e-05,0.0,5617886.27219,682.461587078,651.864072536,66402812.0512,1781.98249551,41339071.3552,68597549.1143,4640.28446595,4630.71178685,0.0
1.05640989285,0.948218095851,1.00622307321e-05,-39618369.9953,1.45015561218e-05,0.0,5793182.0914,679.205457877,647.955666589,66880572.3483,1700.852364,34777410.6987,69666034.0851,4385.15746522,4376.14568166,0.0
1.26231764566,1.00725208673,9.94958594803e-06,21690847.1602,2.96733290287e-05,0.0,23611486.491,691.801962956,660.988412173,64475296.7791,1953.05412084,65287242.8889,66169868.7918,5239.88054713,5226.89492319,0.0
1.04422956422,0.97842057115,9.96597133277e-06,-49822394.1723,1.43220877793e-05,0.0,5830872.8632,678.644914701,647.12725507,66995256.9046,1685.24341412,37445947.1727,71017389.8104,4334.59692108,4325.99474898,0.0
1.15441124073,0.580949775373,1.02646872279e-05,-4049107.27908,3.13840648512e-05,0.0,5497048.3506,685.109364271,654.297097515,66070988.9058,1830.77298523,47585743.4615,68308884.5971,4791.96106027,4782.49393547,0.0
1.06459312663,0.787282378879,9.83360321973e-06,-36901726.8848,1.66855189521e-05,0.0,5768025.46023,679.785445543,648.423519692,66817520.7245,1711.45662103,34764825.5037,70033519.6627,4419.12606864,4409.95924985,0.0
1.01149113756,0.926804386583,1.02536447256e-05,-81155616.497,1.40426095559e-05,0.0,5940288.51824,677.396594366,645.066422443,67268274.1229,1643.81215759,58122731.7498,70792741.2418,4198.69971201,4191.62856359,0.0
1.14624115134,1.09408867927,1.03581765859e-05,-7123958.94303,1.96603228421e-05,0.0,5546528.75072,684.173087682,653.703395283,66201655.6032,1818.41554871,45696141.9338,68559805.6528,4758.04701921,4748.18003708,0.0
1.12711360053,0.816099027604,1.02568191069e-05,-12339754.1211,2.18575306734e-05,0.0,5577684.17291,683.125361356,652.396454885,66285481.1761,1793.74946993,42820011.4641,67177304.6271,4678.6485558,4668.82183606,0.0
1.10811841066,0.780521614181,9.56543813639e-06,-19192290.8399,1.96013393851e-05,0.0,5679977.97603,682.577964276,651.325965817,66590634.2501,1769.83186112,39256300.686,68747205.8671,4599.79952265,4590.38861946,0.0
1.02027951593,1.10401531518,1.01381876868e-05,-70250532.9534,1.27284379656e-05,0.0,5879199.25376,677.64499771,645.614789145,67103068.7963,1652.93561778,49634942.0853,70941664.2814,4235.18027063,4226.87558005,0.0
1.14711335694,0.852328211078,9.98858989411e-06,-7992717.87375,2.36971802794e-05,0.0,5574913.62117,684.508950529,653.734436155,66315746.6809,1821.51774707,45492235.9652,68458596.5069,4761.66754466,4752.31464008,0.0
1.14885205958,0.670488258958,1.02420924655e-05,-6503038.18043,2.67563192334e-05,0.0,5482732.5612,684.590737323,653.794161795,66021614.6662,1821.69136231,46066034.843,68510626.8388,4768.88489932,4758.6798923,0.0
1.02087733105,1.13350134592,9.82548130279e-06,-72552566.2632,1.22692820358e-05,0.0,5947997.71984,677.87208949,645.67736817,67319163.0076,1656.42591411,51366662.2101,71030936.0625,4237.66180119,4230.45736277,0.0
1.14927707889,1.12854947452,9.80354198374e-06,-7437685.39316,1.86365782114e-05,0.0,5547548.58973,684.692676203,653.880741408,66215652.213,1821.74531418,45796208.5345,68687842.6059,4770.64915447,4760.41822626,0.0
1.21634362447,0.840594272698,1.01272450838e-05,12817276.5078,2.8448073322e-05,0.0,14062993.2784,688.792239884,658.133721221,65258949.0213,1902.23969011,58223264.8711,66422995.8568,5049.04238518,5037.68547527,0.0
1.05601508655,0.734772527717,1.01357977023e-05,-42011478.6946,1.751105356e-05,0.0,5780382.47986,679.152863732,647.856979182,66856262.0323,1701.0182792,35044758.0534,69662762.7783,4383.51862427,4374.72493577,0.0
1.11044617193,0.956616680958,1.00755125667e-05,-17306070.0981,1.81335872622e-05,0.0,5636303.89114,682.272399616,651.427413177,66453613.3255,1771.32095985,40076220.1884,69026272.374,4609.46205968,4599.62317888,0.0
0.944166735198,0.967362550568,1.01589905932e-05,-93247489.0129,1.35110378532e-05,0.0,6097753.54723,686.206705647,640.755534405,67650230.4764,1607.13022462,68369277.0729,68585953.8868,3919.23611781,3913.08223847,0.0
1.28651302237,0.918910383852,1.04746216126e-05,26627969.7698,3.5136108598e-05,0.0,28064110.181,693.044231663,662.465900742,64053017.1333,1979.89180666,68150153.7739,69217978.549,5340.31555586,5327.31655161,0.0
1.09856824603,0.910064924774,9.97484744744e-06,-23082405.3468,1.78958202097e-05,0.0,5726437.02903,681.671076792,650.718186205,66744006.1024,1758.70184001,37124765.8898,69098137.5633,4560.15678927,4551.38293761,0.0
1.24243514402,0.757448120677,9.93559021365e-06,18211826.0419,3.29266936298e-05,0.0,19814440.4429,690.658113559,659.754827355,64830039.3617,1932.2532277,62608281.5143,67010775.5123,5157.34828283,5145.30401542,0.0
1.19641665971,1.12580920788,1.01962520891e-05,8075149.00997,2.12023243837e-05,0.0,9496221.96814,687.373261233,656.884171076,65469111.1954,1876.85103387,54556525.7398,66609522.1045,4966.32555446,4954.80891096,0.0
1.01065835049,0.858675049427,1.00313054578e-05,-84878165.8153,1.49615502822e-05,0.0,5871562.02393,677.891981252,644.999734338,67042985.6711,1639.19626876,61216853.9886,70735782.9309,4195.24281288,4186.76050824,0.0
1.07076783136,0.855466730858,9.7105845823e-06,-34519853.8819,1.63595931697e-05,0.0,5811155.68553,680.144424611,648.841926335,66967204.3646,1722.20556789,34749119.9703,70106785.5044,4444.75726798,4436.41735708,0.0
1.19270252652,0.735257954018,1.024467167e-05,7082218.50446,2.90998575397e-05,0.0,8548829.33088,687.479394244,656.661427057,65295493.4352,1872.99893793,53700245.2342,66372318.9226,4950.90818758,4939.3555886,0.0
1.06563165103,0.77901838042,1.00197072767e-05,-36213032.6692,1.70355837476e-05,0.0,5796058.45151,679.680194246,648.507428944,66917738.3073,1715.01449394,34646562.8202,70114535.2109,4423.43698343,4414.98673272,0.0
1.15126245848,0.961411757076,1.00659775509e-05,-4746000.74864,2.05430366541e-05,0.0,5528262.62852,684.578439338,653.951270166,66145638.8141,1824.01593042,47436316.5056,68151938.9991,4778.89046515,4768.6991612,0.0
1.20518266954,0.852218424469,1.0438442267e-05,10372781.3118,2.77814388274e-05,0.0,11671619.0053,687.945556444,657.354172936,65147860.0746,1886.97498464,56134681.0057,66654245.6769,5002.71326126,4990.79261774,0.0
1.03466183244,0.96978164333,1.03626725202e-05,-54746935.474,1.42934534733e-05,0.0,5827031.72951,677.904894289,646.51736803,66973018.1722,1671.9917495,39727047.2754,70950780.4399,4294.88126646,4286.25843533,0.0
1.02277558224,0.950153193717,1.01226575863e-05,-68037229.6187,1.41543541939e-05,0.0,5864582.14595,677.769435831,645.771486954,67064653.9888,1656.37284685,48027418.6113,70833634.7626,4245.54144188,4237.19675778,0.0
1.17853286824,0.955113442252,1.01828721418e-05,3277933.7363,2.29050855619e-05,0.0,5390862.91874,686.370079343,655.736702383,65673327.709,1856.21831749,51530215.5738,66926328.3652,4892.08993606,4880.98888567,0.0
1.12751963987,1.00447451973,1.06127372927e-05,-11843461.6367,1.95562508916e-05,0.0,5578717.71353,682.929654515,652.514319913,66303454.277,1794.17603232,43104532.7311,67355192.9953,4680.3340251,4670.60104542,0.0
1.02994911723,0.857575404038,9.86767077041e-06,-60889026.7324,1.48801109075e-05,0.0,5909393.05345,678.138931501,646.254129447,67221378.0022,1668.66495296,43203593.3918,71034977.3468,4275.31878562,4267.98478368,0.0
1.01964144819,1.10890950851,9.97253073175e-06,-72614804.5975,1.24416937282e-05,0.0,5943951.02742,677.71175518,645.599445722,67307126.6179,1654.80694814,51402429.08,70956834.3143,4232.53165144,4225.34478774,0.0
1.12313705036,1.01379622634,9.61112968878e-06,-14567093.3761,1.80245431902e-05,0.0,5635439.65195,683.265981,652.198346366,66471065.0078,1788.40624292,41761226.0921,68876784.7254,4662.14189604,4652.28278728,0.0
1.15620080313,0.873179480205,9.8885565969e-06,-5236188.17194,2.40121600422e-05,0.0,5543175.84556,685.19562164,654.366644929,66220434.8846,1832.67209066,47111700.0317,68597990.2181,4799.38953379,4789.79416865,0.0
1.217904833,1.00910762311,9.99834976374e-06,12460389.5658,2.48077436431e-05,0.0,13752241.4112,688.908310157,658.219162723,65162178.3381,1902.46946727,57955291.3409,66365966.7173,5055.52296178,5043.48961484,0.0
1.11121255282,1.04332403142,1.00848236255e-05,-17113099.6332,1.70752601018e-05,0.0,5640949.02837,682.261657948,651.471423072,66469682.618,1772.22095373,40188368.8413,69093673.7772,4612.64330676,4602.79130146,0.0
1.17059859587,1.09429970424,1.07960454153e-05,2328505.85996,2.06573976732e-05,0.0,5393277.91762,685.410128599,655.229783418,65701199.6466,1845.79808074,50656261.8635,66861455.6165,4859.15477146,4848.20888954,0.0
1.01343074769,0.807402155316,1.04345343359e-05,-74433987.7189,1.50374592968e-05,0.0,5870562.55798,677.379070512,645.180102522,67052197.2872,1644.1864405,52782646.0264,70559559.9872,4206.75103366,4198.63996923,0.0
0.994420191607,0.951162486214,9.91436578229e-06,-95606009.0297,1.36985840863e-05,0.0,5976187.16449,678.929913099,643.984061539,67331171.5885,1619.59349652,70445868.05,70674556.2723,4127.83821536,4120.58181862,0.0
1.06143609637,0.807686236448,1.02616737439e-05,-37535853.5243,1.66111267028e-05,0.0,5802902.96145,679.256619236,648.235053922,66928445.0549,1709.75361238,34618174.3071,69948707.5254,4406.02123603,4397.72961402,0.0
1.07642782251,0.905021880761,1.00250790802e-05,-30998569.5734,1.63499022473e-05,0.0,5787083.92397,680.154350205,649.150665992,66898110.8053,1729.57975528,35268493.425,69401669.7236,4468.25189124,4459.82453978,0.0
1.13902063241,0.823523035028,9.88655221309e-06,-10168657.0725,2.27731480866e-05,0.0,5570787.83757,684.205815578,653.26606836,66291215.9456,1809.92829163,44389143.1399,67880852.1097,4728.07464513,4718.32681936,0.0
0.927975371798,0.89473738425,1.03788024778e-05,-92246437.6139,1.39508735587e-05,0.0,6054881.25505,688.165308873,639.692257128,67480925.2927,1599.28685846,67488409.5739,67694975.3751,3852.02576833,3844.92609538,0.0
1.1548843471,0.994381832122,1.02438169968e-05,-5209576.3169,2.23038119558e-05,0.0,5544848.63874,684.893257258,654.330002552,66237761.7427,1831.06845097,46916329.21,68452131.6247,4793.92492481,4784.44049489,0.0
1.05448747769,0.727835244506,1.01518663677e-05,-42677614.0406,1.74758210581e-05,0.0,5783449.65226,679.068549185,647.765421661,66862982.1325,1699.00124595,35214515.489,70203213.1426,4377.17751989,4368.40716469,0.0
1.03690090099,0.858409911324,1.02957957903e-05,-53398085.0416,1.49343116538e-05,0.0,5835674.87559,678.068353744,646.649232165,67000585.4756,1675.97124104,39014615.171,70907751.2926,4304.17564001,4295.77771161,0.0
1.07619199299,1.00432230485,9.76905517602e-06,-32042783.9582,1.50849754776e-05,0.0,5804474.50055,680.280254621,649.132988101,66957541.0905,1729.19268288,35128373.4889,69767075.2403,4467.2729629,4458.84926223,0.0
1.13149510963,0.708235604668,9.70427517909e-06,-10875766.7237,2.36390722024e-05,0.0,5564864.84939,683.930119457,652.772314131,66265833.0289,1799.02046871,43923300.3882,67462058.2678,4696.83620007,4686.81341895,0.0
1.10879107161,0.974906952069,9.97623678211e-06,-17864365.5209,1.77201775002e-05,0.0,5642778.06711,682.248544319,651.329954931,66478002.229,1768.98611443,39839485.4019,68941733.4323,4602.59173825,4592.68591123,0.0
1.15388044712,0.824435599612,9.79542253047e-06,-4304940.95322,2.42227103469e-05,0.0,5527424.06327,685.124375583,654.216920771,66163816.916,1828.47198169,47998022.9592,68632888.7913,4789.757736,4779.8781562,0.0
1.16166456888,1.0246640065,1.03376128482e-05,-1804193.87342,2.24987963282e-05,0.0,5519088.11039,685.201906911,654.74111891,66125228.0286,1838.98274181,48676647.5903,68037454.4258,4822.06962542,4812.48361543,0.0
1.11390697953,1.14786362132,1.05457042017e-05,-15523769.347,1.63289253274e-05,0.0,5644040.43938,681.991393256,651.594573831,66480172.9118,1776.66666512,40885270.6292,69084987.9733,4623.82787203,4614.32267827,0.0
1.10222686367,0.74185937312,1.0029326367e-05,-21753270.5225,2.06835210625e-05,0.0,5698837.07886,681.953912942,650.967460384,66651563.6215,1763.62669356,37608159.5617,68492237.296,4575.34371109,4566.5129581,0.0
1.01209149767,0.885427233975,1.00665757774e-05,-82948030.2502,1.47473977575e-05,0.0,5868222.0902,677.818383952,645.095240052,67035581.6746,1641.10348099,59609696.1821,70617329.0396,4201.19180683,4192.68597772,0.0
1.10446478167,1.03273754075,9.67467589594e-06,-20637574.5722,1.65098328149e-05,0.0,5656413.95165,682.226732321,651.08568284,66508986.2128,1762.76212554,38553128.9175,68577039.1123,4584.63330871,4574.51751937,0.0
1.16391867963,0.812127011397,1.00070862821e-05,-394760.093828,2.41861857911e-05,0.0,5418813.63237,685.713891444,654.853049993,65788601.361,1838.26756915,49697201.9355,67647790.2907,4831.42643914,4820.47901596,0.0
1.08340619659,0.972164840968,9.34482076615e-06,-29682041.9093,1.53572397686e-05,0.0,5801357.39804,681.015888,649.612956851,66946749.4123,1738.55164925,35669847.1153,69537056.7653,4497.21912205,4488.58659726,0.0
1.02114559263,0.896118993526,9.65526189405e-06,-73791010.9154,1.43562676296e-05,0.0,5942395.65001,678.13286585,645.698153593,67302672.6524,1656.87016869,52309665.2721,71333191.1385,4238.77535501,4231.56709939,0.0
1.10415536145,1.02927270356,9.96913391263e-06,-21380612.5377,1.68873106172e-05,0.0,5719197.57346,681.968099185,651.091193889,66716911.181,1765.87325973,37806325.8643,68661969.4012,4583.34890538,4574.48769661,0.0
1.01067288744,1.0465689618,1.02233784766e-05,-82482513.6488,1.30133550725e-05,0.0,5949314.3097,677.397929816,645.02051475,67294818.7943,1642.62894551,59216840.7836,70741253.6207,4195.30315576,4188.24355213,0.0
1.13327735905,0.953455960948,1.01508783252e-05,-11510157.7646,2.09445564006e-05,0.0,5622965.59758,683.565719018,652.908975547,66448282.7162,1803.74341055,43446124.6337,67680252.5581,4704.23431742,4695.12661684,0.0
1.18239973328,1.05783777672,1.01117976719e-05,4616864.97492,2.13055447724e-05,0.0,6274129.00997,686.508664747,655.973198673,65787332.6375,1861.65007095,52469974.6729,67072094.298,4908.14129285,4897.40252635,0.0
0.997751110599,0.879157823396,1.04105061532e-05,-95385438.223,1.45960663401e-05,0.0,5892508.73888,677.982250915,644.176725935,67095332.3976,1622.23410011,70251925.4985,70504048.7336,4141.6648601,4133.47515598,0.0
1.04719696604,1.13730110405,9.70134155043e-06,-49168911.9156,1.26851134271e-05,0.0,5839235.2753,678.943168586,647.332613843,67021020.6334,1688.56226061,37264369.333,70997481.9865,4346.91460603,4338.08729501,0.0
0.989354886818,0.867830010253,1.01511544529e-05,-95077567.6623,1.4714550099e-05,0.0,5922781.67639,679.539620055,643.644291974,67170842.7797,1611.84989663,69980700.4931,70224563.4146,4106.81213518,4098.75613802,0.0
1.13431607442,0.928081313553,9.98966376919e-06,-10060505.5912,2.06919921962e-05,0.0,5593021.9314,683.756557515,652.965152904,66357941.4429,1803.38317429,44469800.3063,67797146.8128,4708.54602492,4698.90551247,0.0
0.987550819757,1.17544122142,1.00525565603e-05,-95307486.1242,1.1876618751e-05,0.0,5999495.8717,679.567855359,643.544231995,67401052.8845,1612.61356636,70182915.9166,70425349.2032,4099.32345281,4092.25069154,0.0
1.09040932016,0.905664995411,1.0331599745e-05,-25096954.0772,1.77188535802e-05,0.0,5736913.97712,680.892555289,650.142371888,66761660.2571,1748.23962901,36398150.5817,69075831.236,4526.28908798,4517.74225477,0.0
1.19074236228,1.06165358082,1.01714894746e-05,6492584.67607,2.17791126643e-05,0.0,8003630.78829,687.079791883,656.534836247,65553897.7205,1870.58821896,53439904.1279,66656738.2441,4942.77154582,4931.46809309,0.0
1.05246662409,1.00741971325,9.88529834016e-06,-45490259.8751,1.41940722922e-05,0.0,5810971.93899,679.095011408,647.661884166,66943395.4986,1695.70749793,35939566.8236,70509527.2954,4368.7889566,4359.87466632,0.0
1.08607681074,1.10088692132,1.01157749825e-05,-27103910.3965,1.47919290198e-05,0.0,5766838.63192,680.763516476,649.915003862,66851843.8075,1742.06797406,35944856.5214,69295519.4626,4508.30484138,4499.72756145,0.0
1.14897129717,0.852617241307,9.94173447356e-06,-7580727.93353,2.38347800282e-05,0.0,5570678.58003,684.683524843,653.881013075,66305161.6481,1823.90233495,45766319.3476,68583937.0667,4769.37985455,4759.99550484,0.0
1.04155855323,0.855126860994,1.00400601145e-05,-51558241.8493,1.53740123579e-05,0.0,5826908.421,678.506405865,646.95116877,66978405.2742,1681.80054341,38204877.7394,70828074.249,4323.50955446,4314.95052583,0.0
1.0072000352,0.759697067997,1.01101633619e-05,-87754926.4528,1.56461753981e-05,0.0,5871853.17462,677.902933096,644.78040328,67039915.9614,1634.66019245,63635627.6778,70702411.6776,4180.88734612,4172.46170039,0.0
1.09775533822,0.858047840691,1.00026519874e-05,-23258620.3777,1.85013117669e-05,0.0,5723469.1436,681.623999408,650.662908737,66734207.9619,1757.69086375,37034075.6148,69166113.7729,4556.78240895,4548.02210784,0.0
1.14404435545,0.992472995628,9.99802672153e-06,-8543220.74995,2.05310605691e-05,0.0,5545493.50571,684.178832681,653.427823603,66205750.2454,1815.20605591,45223588.886,68358726.9992,4748.92811947,4738.78852857,0.0
1.05008957464,0.919026650728,1.02832250927e-05,-45024487.1629,1.51406883945e-05,0.0,5798952.19292,678.698514203,647.505324673,66910538.9061,1692.92946498,35821341.0185,70395573.8073,4358.92182433,4350.13548996,0.0
1.00841628269,1.08486984242,1.03144371712e-05,-84471156.8426,1.30272552005e-05,0.0,5881753.2398,677.496332498,644.858165843,67077077.2136,1636.28398131,60869432.719,70616572.6317,4185.93598945,4177.5726145,0.0
1.03320881454,1.03448822033,9.95621654894e-06,-59291679.539,1.3465792791e-05,0.0,5859268.03514,678.197957295,646.436810279,67066578.6032,1670.59955777,42263890.4149,71113368.2511,4288.84978916,4280.42489918,0.0
1.0496440709,1.13893924592,1.03328269303e-05,-45086668.3589,1.29526714491e-05,0.0,5812675.72095,678.545066317,647.478032743,66952764.5324,1692.18121342,35815578.7241,70394721.8414,4357.07253831,4348.29349805,0.0
1.12461289472,0.672848447186,1.01586004939e-05,-13359706.8119,2.47506537594e-05,0.0,5624299.10824,683.141371491,652.328843367,66457278.6604,1792.77330943,42323636.3233,68178054.5542,4668.26812598,4659.29882721,0.0
1.01130984033,1.22785372782,9.82806990038e-06,-84061325.4944,1.14587309925e-05,0.0,5975994.48198,677.800601625,645.073526485,67370071.4799,1643.50344986,60536806.3851,71474517.8367,4197.94714721,4190.87828362,0.0
0.988857760295,0.998285492622,1.01159500022e-05,-95086844.9902,1.37504747272e-05,0.0,5933070.15203,679.667139243,643.613518765,67197808.5747,1611.89829749,69988834.3406,70232145.2809,4104.74856298,4096.7005199,0.0
1.15125778323,0.842839773156,9.74571720707e-06,-5473580.36274,2.3335944759e-05,0.0,5506553.46582,685.038376269,654.033091586,66102317.6432,1824.01001026,47182186.2842,68690058.347,4778.87105819,4768.51954922,0.0
1.0605383707,0.894504661776,9.67991828056e-06,-42254959.9747,1.56796520562e-05,0.0,5790502.10296,679.676194435,648.140901038,66892109.6798,1706.48341048,35157859.0874,69654540.7663,4402.29477678,4393.2451897,0.0
1.12666814496,0.988149927763,1.00047769965e-05,-13189760.4146,1.9676416888e-05,0.0,5653677.01885,683.198895321,652.465330125,66547445.5595,1795.12572936,42476904.2743,68229043.2165,4676.79946973,4667.79783475,0.0
1.13455062009,0.748418598787,9.82916572743e-06,-10922040.7398,2.3543824146e-05,0.0,5581363.69224,684.004746716,652.981931463,66316194.1494,1804.17044252,43862373.0594,67608938.8167,4709.51962399,4699.84639961,0.0
1.18294499821,0.765640300158,1.03247131609e-05,5202178.91459,2.7538271022e-05,0.0,6778635.95367,686.639331819,656.011211862,65609759.5142,1862.53723248,52684929.3468,66858566.0167,4910.40468757,4899.65642419,0.0
1.09703063912,0.938550539523,9.67401526619e-06,-24224829.8275,1.69141716205e-05,0.0,5719384.14337,681.758364886,650.570815853,66702422.4742,1755.37053279,36783227.1185,69317168.4029,4553.77418299,4544.53656562,0.0
1.24187227886,0.903421056413,9.80117297646e-06,17787385.0796,2.89234713794e-05,0.0,19285151.7487,690.6024122,659.719413519,64847276.3309,1930.78865088,62239741.7374,66967471.1717,5155.01182955,5142.66607145,0.0
1.20039711091,0.742788395953,1.0105340497e-05,9377064.72252,2.94838500096e-05,0.0,10777151.4346,687.91556827,657.135501545,65401127.3223,1883.39009235,55543207.5754,66722634.5514,4982.84840739,4971.69097761,0.0
1.07074833787,0.724497182825,9.88023366998e-06,-34460201.1136,1.80185553352e-05,0.0,5784109.61966,680.088032162,648.833625951,66877943.5047,1721.7566753,34757915.9977,69888223.4478,4444.6763505,4436.14738624,0.0
1.13179717915,0.952909747701,9.65744354385e-06,-11984591.3292,1.98478785733e-05,0.0,5618831.59795,683.811448518,652.793188468,66439278.2427,1800.46566738,43184983.7678,67498184.7851,4698.09009065,4688.46334892,0.0
1.11374398612,0.802953734405,1.05110367419e-05,-15516940.7284,2.08950987359e-05,0.0,5616460.4064,682.179706995,651.584012374,66393849.7516,1776.82469434,40837817.3582,69045567.6968,4623.15128638,4613.64879931,0.0
1.00600453379,1.12982338301,1.01299955441e-05,-88923341.5448,1.23657543584e-05,0.0,5896715.16835,677.755492998,644.703507484,67114729.042,1632.817075,64632124.0356,70815471.4458,4175.92481976,4167.51872491,0.0
1.09693450864,0.733981930844,9.79447000444e-06,-24092193.1562,2.00931742322e-05,0.0,5724629.82782,681.750938981,650.57909622,66731696.4324,1756.75040446,36817371.9811,69141261.357,4553.37514536,4544.62775194,0.0
1.18698876599,1.21860639645,9.88457850301e-06,5018056.6669,1.88522903718e-05,0.0,6677511.59155,686.861190478,656.271494856,65809460.4543,1867.07178457,52881979.8188,67108779.8487,4927.19036762,4916.25518089,0.0
1.17150178999,0.714931596806,1.03003678838e-05,2208035.56822,2.75121375131e-05,0.0,5392389.13726,686.014715025,655.316420337,65695862.6539,1848.57142378,50991981.0423,66973522.0358,4862.90393025,4852.24557414,0.0
1.07615176369,1.20334556125,1.02365769343e-05,-31455236.8594,1.34810815961e-05,0.0,5799749.41665,680.06660833,649.26828887,66951197.0595,1729.61412941,35077519.4803,69267864.5468,4467.10597108,4458.87555521,0.0
1.16244736019,1.07893040206,1.05773861375e-05,-122094.332758,2.00940368007e-05,0.0,5412933.73744,685.099463855,654.745442613,65748830.67,1835.26625895,49391694.2098,67374269.6027,4825.31899215,4814.2104921,0.0
1.03239648219,1.11935963386,1.01729713911e-05,-57593755.4393,1.25811259997e-05,0.0,5857002.84133,677.910653946,646.375055342,67057479.2617,1669.26554032,41250340.705,71000863.6291,4285.47779757,4276.97791401,0.0
0.959093823733,0.778489409411,9.99656852589e-06,-93850871.3351,1.53766696437e-05,0.0,6060339.61834,684.86103966,641.717703058,67561287.9141,1613.74075438,68900546.0062,69124209.6242,3981.19846232,3974.84462069,0.0
1.15207511598,0.99091538755,1.01100940348e-05,-6399657.52917,2.1941833573e-05,0.0,5563588.25352,684.733910172,654.10891158,66290074.4994,1827.59575968,46393908.7285,68653733.56,4782.26380643,4772.83132107,0.0
1.03281753528,0.908966878688,9.85007252676e-06,-59071998.1887,1.45056388703e-05,0.0,5905421.02177,678.229657535,646.43029967,67213292.0776,1672.46381736,42212675.3707,71056678.2052,4287.22558895,4279.85041581,0.0
1.09798029291,0.794541984117,9.87571931849e-06,-23551402.9848,1.9296449352e-05,0.0,5723072.37774,681.743737686,650.664574597,66730075.7604,1758.04436882,36976627.2708,69096708.6875,4557.71619587,4548.95235595,0.0
1.03393672637,0.85938898416,1.04295805637e-05,-54876940.2967,1.52021569309e-05,0.0,5819824.73879,677.860544894,646.474257562,66950696.2865,1671.10598156,39779109.0922,70883501.5805,4291.87135116,4283.26153902,0.0
1.24742769594,0.538746012655,1.00247366857e-05,19532550.601,4.3031599452e-05,0.0,21179403.0726,691.326903807,660.045109253,64445362.324,1938.13003068,63563177.9169,64528890.6686,5178.07236585,5165.71241376,0.0
1.11833176577,0.845481001387,1.02900533993e-05,-14764470.2181,2.05319882091e-05,0.0,5612726.59354,682.601643804,651.894080402,66385504.0477,1782.71527569,41270312.3015,68648952.9415,4642.19515971,4632.61573134,0.0
1.19634758674,0.953580699079,9.90088158302e-06,7367587.67025,2.38325173716e-05,0.0,8817987.26735,687.669971378,656.908341013,65540226.6551,1878.06126326,54147264.3343,66630461.9627,4966.03883256,4954.73540891,0.0
0.986364708178,0.904413328234,1.00913548717e-05,-95200383.6073,1.41149233354e-05,0.0,5986843.59292,679.735732847,643.467720479,67361054.9928,1612.12678225,70088643.1529,70330288.2556,4094.39990365,4087.34399606,0.0
1.18825059056,0.993647766538,1.0450236185e-05,6466102.6329,2.3239138859e-05,0.0,7914247.98663,686.794065713,656.379857619,65551427.8491,1867.96060042,53242351.0617,66548877.1897,4932.42820141,4921.37096131,0.0
1.1527141907,1.02233734823,9.97450920633e-06,-6554253.28565,2.12878296921e-05,0.0,5570933.62004,684.841287156,654.151776932,66311807.476,1828.43799689,46415933.7611,68712655.5725,4784.9166056,4775.47216354,0.0
1.05602117567,0.867968991784,9.58125139778e-06,-41496181.8476,1.50493614987e-05,0.0,5803366.24378,679.490085822,647.86592253,66907146.6755,1699.86481088,35001481.3006,70686401.2294,4383.54390021,4374.35992647,0.0
1.06749428871,0.975276586694,9.85881827083e-06,-36042441.9245,1.48856290947e-05,0.0,5810249.08264,679.823026872,648.627733754,66961938.7654,1717.30042228,34681797.2331,70177666.7439,4431.16879244,4422.6893865,0.0
1.13692529941,0.744063383566,1.0186486961e-05,-10264794.5613,2.46944895782e-05,0.0,5584571.68278,683.886071423,653.140271905,66328281.3692,1808.31484408,44162503.0389,67852831.521,4719.37691785,4710.10596051,0.0
1.15696624028,0.906476663909,9.9262567245e-06,-3189599.92949,2.1725402588e-05,0.0,5497111.69932,685.252418547,654.444318192,66045615.4393,1830.96024537,48238940.5692,68273978.4746,4802.5668634,4792.18497733,0.0
1.23414849736,1.05271932699,1.029516151e-05,15991647.3019,2.60654899532e-05,0.0,17567844.0689,689.718764487,659.207020796,64896065.3783,1920.94911957,60883694.9675,66695244.0333,5122.95041254,5110.60999757,0.0
1.16940603563,0.660389914027,9.83153675588e-06,868094.784209,2.78940704697e-05,0.0,5391527.34129,686.273356943,655.200868386,65731095.3453,1845.71216922,50450761.6399,67552568.6877,4854.2044539,4843.26821141,0.0
1.07450036179,0.935630288733,9.63108518866e-06,-33234161.5267,1.56390070949e-05,0.0,5809856.05888,680.340691666,649.049339142,66968999.8118,1727.02479943,34951202.1787,70002836.4461,4460.25100179,4451.85346956,0.0
1.14479953366,1.05652405076,1.0031743691e-05,-8567719.55071,2.00967396805e-05,0.0,5598754.72801,684.224341789,653.577444867,66388652.1016,1818.35893599,45152580.2091,68370431.5694,4752.06286422,4742.74697694,0.0
1.07568190161,1.12454547159,9.99719190816e-06,-31454761.5731,1.38247452729e-05,0.0,5804583.12108,680.037589545,649.0995264,66961276.4467,1728.43938911,35237571.0074,69604487.0918,4465.15557358,4456.73808872,0.0
1.00471959497,0.90140467955,1.01673806926e-05,-89957216.3009,1.44689960795e-05,0.0,5883448.27352,677.849173633,644.623660182,67072630.2148,1631.27743786,65526580.1201,70708752.1449,4170.59103872,4162.20721149,0.0
1.1669710776,1.1593997053,1.00539400273e-05,-839304.382427,2.01481433002e-05,0.0,5520812.8387,685.627364597,655.073629796,66142491.9231,1845.25705268,49465040.4008,67881057.5251,4844.09694312,4834.30164318,0.0
1.21469175717,1.01414751861,1.01497713737e-05,11902106.9716,2.4669768414e-05,0.0,13138133.1711,688.592810068,658.009037271,65247324.3653,1899.15726421,57477260.3902,66287375.9321,5042.18548401,5030.40875688,0.0
1.07219796058,0.971151956438,9.75370819865e-06,-33776929.0273,1.52000546362e-05,0.0,5812644.65972,680.133440246,648.924049839,66976385.1266,1723.98186236,34827142.6282,70022208.3907,4450.69373437,4442.33176498,0.0
1.18619621149,1.04493779499,1.03600528516e-05,5959064.32695,2.19743151575e-05,0.0,7465247.59501,686.674004673,656.237332798,65575609.4548,1865.03944741,53161320.9996,66702597.4256,4923.90047389,4912.76796002,0.0
1.04795895111,1.00683272083,9.94592259699e-06,-45216298.2233,1.38438067173e-05,0.0,5844658.63742,678.745125394,647.37410458,67032997.1155,1690.73671097,35956303.8707,70441992.596,4350.07760606,4341.72236648,0.0
1.07407263515,1.01792711497,1.00203376815e-05,-31651427.0957,1.49187978133e-05,0.0,5790133.21891,679.971322542,648.986919421,66905421.9378,1725.71961122,35168078.6864,69570382.1334,4458.47550851,4449.89457685,0.0
1.15402022658,1.0975509532,1.01201248113e-05,-4312124.53475,1.99287052978e-05,0.0,5537202.88448,684.859480873,654.266683873,66182292.5655,1828.3758542,47597628.0175,68503232.0548,4790.33796053,4780.44816492,0.0
1.04013318789,0.719963002134,1.03590650217e-05,-49777117.3762,1.64936567888e-05,0.0,5808380.65791,678.205365597,646.845338812,66919854.8721,1679.82057547,37401245.3543,70790309.7282,4317.59286293,4308.9675894,0.0
1.14270760689,0.819788530726,9.62801974205e-06,-9318198.39876,2.29544776116e-05,0.0,5577192.56508,684.565179611,653.492675003,66318715.4082,1814.91601246,44889547.6426,68142956.51,4743.3792762,4733.67420783,0.0
1.19042736137,0.678348452574,1.04375799201e-05,6942407.67347,3.06684269246e-05,0.0,8346965.01564,687.286717697,656.516629008,65254850.3131,1870.18019496,53443704.1966,66238220.6243,4941.46397705,4929.93945956,0.0
1.05750664281,1.18403649599,1.02754736209e-05,-39414318.3871,1.25875984985e-05,0.0,5833924.60227,678.894543648,647.98096293,67017047.9975,1704.25661972,34795208.5184,69735728.93,4389.7100743,4381.4805227,0.0
1.13984558359,0.986591065201,1.00983474736e-05,-9324506.45269,2.04736037549e-05,0.0,5544121.47084,684.031178523,653.279874863,66190537.4425,1809.52325447,44668822.0483,68073629.9185,4731.49901748,4721.32806551,0.0
1.10198223065,0.990015335152,1.0219571805e-05,-21638808.3786,1.75605994657e-05,0.0,5708481.98122,681.689012396,650.948322254,66686912.2831,1762.90662977,37671532.6212,68576359.7213,4574.32823943,4565.50145944,0.0
1.09926117599,0.786171739542,1.03036116317e-05,-20017584.9394,1.95699676983e-05,0.0,5647401.93172,681.590710384,650.759496585,66472983.5998,1757.05644359,38561161.9059,68363470.0951,4563.03314153,4553.3865046,0.0
1.12689158572,0.755446369547,9.48853821711e-06,-13543058.2673,2.20076878411e-05,0.0,5602344.82442,683.737291454,652.444774782,66371004.4166,1793.49523438,42308852.7417,68280136.626,4677.72697232,4667.77896336,0.0
0.980135970615,1.17711797942,9.7629838706e-06,-94939806.1026,1.18965827654e-05,0.0,6026893.40446,681.744309346,643.068972083,67469907.953,1615.57371351,69859009.2657,70097859.713,4068.54441402,4061.48910127,0.0
0.99582069247,0.805142481253,1.04039693157e-05,-95271211.6264,1.50889562817e-05,0.0,5894193.85675,678.186562226,644.054487043,67097076.6978,1619.68916609,70151353.8941,70506247.4962,4133.65169444,4125.49175184,0.0
1.0489449537,0.875291212086,9.92651473897e-06,-46040045.8823,1.52853244144e-05,0.0,5816774.82391,678.889174071,647.427944569,66953191.2916,1691.29610011,36139210.6589,70508958.9062,4354.17050281,4345.46017005,0.0
1.08644868821,1.10061371426,1.05269278458e-05,-25873259.9759,1.52176775631e-05,0.0,5752615.74398,680.465574232,649.908837902,66807494.0106,1742.86840961,36146680.2292,69097245.0857,4509.84850476,4501.36296789,0.0
1.07928975173,1.07555689326,1.03176093104e-05,-29033878.9669,1.48839333798e-05,0.0,5779058.63457,680.256765596,649.491971551,66887344.9121,1733.55075133,35574013.7953,69241010.8827,4480.13175943,4471.75655627,0.0
0.966843204579,0.831615510989,9.78130602924e-06,-94167763.0264,1.51875699303e-05,0.0,6035103.1069,684.410186342,642.212486747,67483685.8149,1616.73842528,69179497.4662,69408848.3698,4013.36614221,4006.53200212,0.0
1.16169703182,0.795234967678,1.02401919008e-05,-1806492.80789,2.45424361362e-05,0.0,5421638.96001,685.462818193,654.716743661,65808264.583,1836.01491838,48453850.8774,67447901.7354,4822.20437908,4811.40330084,0.0
1.08577943752,0.580479304854,1.00715856196e-05,-27189403.3802,2.18406133726e-05,0.0,5730206.28525,681.019063195,649.897447802,66738910.1343,1742.14210524,35909228.6608,69188564.033,4507.07044515,4498.49780206,0.0
1.05711662055,0.926652767517,9.79638294473e-06,-43477128.2782,1.52137314048e-05,0.0,5797146.13445,679.40842589,647.933966463,66908252.3391,1701.93630434,35412410.0373,70242270.5527,4388.0910919,4379.0983677,0.0
1.11016802142,0.868107069957,9.79831882837e-06,-19691636.8848,1.91494242891e-05,0.0,5692466.46405,682.487359295,651.447644135,66650867.8779,1773.53730789,38746006.325,68886306.4098,4608.30745691,4599.25033826,0.0
1.1597600061,0.994801298303,9.9744514099e-06,-2869176.8205,2.05312244729e-05,0.0,5462532.37107,685.379755373,654.603129696,65956158.3749,1833.3077159,48099190.0744,67732847.769,4814.16378532,4803.31995167,0.0
1.00362108703,1.22497840455,9.88262515773e-06,-94626258.1146,1.15751126706e-05,0.0,5988592.14586,678.092487409,644.578601294,67398644.8276,1632.95564233,69582488.473,70985123.7454,4166.03113226,4159.07068862,0.0
1.03558035501,0.841338299927,9.92884961839e-06,-57532926.6829,1.52949485165e-05,0.0,5843594.28212,678.379768444,646.586111613,67019543.3857,1673.8568552,41241075.4672,71044829.4811,4298.69405365,4290.23110533,0.0
1.09534154058,0.681350131855,1.01846123954e-05,-23633437.6855,2.12157599677e-05,0.0,5705795.22313,681.42929915,650.494718287,66664917.0067,1754.550321,36817721.0968,68886116.2618,4546.76273495,4538.03972326,0.0
1.03172395143,1.09007679498,1.04743800986e-05,-56832047.0813,1.27857869541e-05,0.0,5837189.14247,677.604383392,646.332891113,66993178.7787,1667.73457097,40830861.0862,70777156.889,4282.68612239,4274.0808849,0.0
1.08600011984,0.817281284606,9.97466574576e-06,-27486715.6655,1.81034166385e-05,0.0,5752973.06198,680.98608293,649.915098158,66807729.2471,1742.21146127,35914076.966,69290983.4542,4507.98649746,4499.41041344,0.0
1.02364723565,1.09655786874,1.02515996566e-05,-66245198.9613,1.28391772531e-05,0.0,5866845.94603,677.593881663,645.820938183,67075512.9243,1657.47450443,46760328.1185,70904674.715,4249.15967518,4240.80100656,0.0
1.05425721574,1.00033565197,9.70623784368e-06,-41975240.9367,1.37452208333e-05,0.0,5808766.61398,679.370407782,647.839286748,66922519.9599,1697.44011841,35128984.754,70618138.821,4376.22170254,4367.0674108,0.0
1.09840320488,1.0474002966,1.0180344201e-05,-22838358.4981,1.64337753083e-05,0.0,5725326.4126,681.469581898,650.718817875,66731630.1392,1758.1994532,37195929.7624,68698044.5997,4559.47170346,4550.7013205,0.0
1.09458287756,1.0534785526,1.01576219874e-05,-24090506.4865,1.60253831654e-05,0.0,5738055.36947,681.214393897,650.433189944,66764040.6863,1753.22534316,36752740.1466,69009645.1632,4543.61352475,4534.9024229,0.0
0.993867613836,1.00474565284,9.90081338402e-06,-95410163.3983,1.37688646909e-05,0.0,5978863.00037,679.655831155,643.949760537,67353461.9027,1619.58416806,70273321.101,70510804.0138,4125.54446503,4118.3735767,0.0
0.96794959807,0.884500443148,1.01293098837e-05,-94111703.5597,1.47484196066e-05,0.0,6022822.28793,683.401878812,642.282233925,67458413.0947,1614.61204144,69130162.248,69358528.7149,4017.95878159,4011.18984923,0.0
1.11446894586,0.762117879415,1.06022845988e-05,-15123485.8967,2.17419429709e-05,0.0,5602183.77327,682.200954242,651.639412356,66352591.3044,1777.7728195,41074712.7733,68746053.7749,4626.16059426,4616.64530749,0.0
1.0704053445,0.899089546705,1.01407962735e-05,-32822687.9231,1.61077239605e-05,0.0,5786793.38579,679.757187408,648.778261073,66889535.2431,1720.99500939,34971895.132,69648908.932,4443.25258502,4434.72782329,0.0
1.1907658778,1.10445655287,1.0129861713e-05,5813931.77153,2.11589465294e-05,0.0,7334894.25974,687.115140997,656.521263317,65501294.7708,1870.07065743,52964200.2829,66683031.8802,4942.86915875,4931.2418926,0.0
1.16793644528,1.08194256761,9.71441801425e-06,-1355471.51105,2.0909502807e-05,0.0,5520790.37202,685.95369015,655.139923161,66169999.0551,1846.64706299,49293396.4022,68044753.8074,4848.10418436,4838.18179242,0.0
1.15035657411,0.904942378161,9.86416203224e-06,-7381190.47917,2.2938653827e-05,0.0,5574353.0086,684.797032086,653.977260935,66316252.7877,1825.64075446,45913169.7402,68668294.4256,4775.13013913,4765.72356688,0.0
1.08456758821,0.780725968596,9.8570734081e-06,-28355752.8518,1.84027187191e-05,0.0,5759264.408,681.015290979,649.833665355,66823070.6234,1740.36658499,35772703.9286,69311128.4586,4502.04005866,4493.48630093,0.0
1.02221724194,0.901470570317,9.59055662684e-06,-73138087.5905,1.43365149682e-05,0.0,5942382.69066,678.221881113,645.771716778,67301350.4416,1658.28718215,51815611.0222,71102889.7696,4243.22377129,4236.00025817,0.0
1.00204264952,0.872020039671,1.03840261325e-05,-92448339.3601,1.4739533672e-05,0.0,5882183.49765,677.712176379,644.452446422,67069642.8443,1627.95407068,67677863.3141,70545826.744,4159.47903816,4151.21895979,0.0
0.97981297675,0.784872903381,9.98930425774e-06,-94906960.6402,1.53031277682e-05,0.0,6012070.88294,681.263028976,643.050764067,67432920.2396,1614.01088349,69830320.3682,70068866.6418,4067.20366649,4060.49150653,0.0
0.952314349982,1.03301872447,9.89524848541e-06,-93640829.8482,1.33279941814e-05,0.0,6091744.74062,685.91521656,641.281935363,67644286.8954,1612.54125367,68715590.3046,68936296.876,3953.05686678,3946.79403621,0.0
0.983450213697,1.0795378825,9.93582368986e-06,-94952605.5512,1.27756864812e-05,0.0,5954755.95616,680.747024007,643.266512426,67257356.9317,1611.37280651,69870588.9744,70112078.2072,4082.30183706,4074.26114887,0.0
1.27958189756,0.853315282935,9.90863752914e-06,25120714.403,3.57886046582e-05,0.0,26795967.2195,692.936246998,662.073208348,64373632.267,1975.04810196,67831836.1151,68778506.4742,5311.54445677,5299.08142153,0.0
1.11488462273,0.774099662076,9.74362431491e-06,-16652959.9238,2.07739137012e-05,0.0,5619352.73531,682.853150588,651.695570225,66416030.097,1777.32643999,40392033.955,69208580.4935,4627.88606895,4617.97197928,0.0
1.14428206099,1.05044980221,1.01381382397e-05,-8482130.18397,2.02734277353e-05,0.0,5595061.50607,684.128167996,653.543373588,66376951.4241,1817.65167695,45183581.2944,68358060.5606,4749.91483517,4740.60555134,0.0
1.12757329742,0.855428139054,9.97260358737e-06,-12517637.062,2.10319934076e-05,0.0,5590015.93811,683.403409884,652.50363131,66336965.714,1794.20532042,42866485.2705,67244342.9364,4680.55675759,4670.72268374,0.0
1.13104454907,1.11369583182,1.0027623121e-05,-11103696.0633,1.78002434503e-05,0.0,5623873.1073,683.419424119,652.755980684,66454651.8117,1799.24376993,43788406.8187,67647142.1073,4694.96592319,4685.48286283,0.0
1.09004636805,1.09901670467,1.00236502874e-05,-26029816.227,1.5032252118e-05,0.0,5759654.34791,681.025141309,650.141120953,66834733.8824,1747.26938957,36235872.9173,69287401.1991,4524.78247378,4516.1431995,0.0
1.07748032476,0.95835914717,1.02041888638e-05,-30962869.5447,1.6152468302e-05,0.0,5782897.07389,680.261981908,649.359355889,66901750.683,1731.52017189,35144122.4544,69243558.7728,4472.62082808,4464.37022426,0.0
1.07455001024,1.12259921295,9.57697070069e-06,-33449096.4954,1.3556301913e-05,0.0,5824153.86886,680.314595671,649.058928637,67012255.1059,1726.95229891,34965660.9787,70087320.6124,4460.45709251,4452.05879272,0.0
0.980834815696,0.968031422724,9.78587126214e-06,-94887949.9846,1.3997497024e-05,0.0,6012903.69606,681.873479734,643.114257602,67435175.4325,1617.09298247,69813478.7417,70051951.7977,4071.44531995,4064.46240257,0.0
1.12343780884,1.08108991877,1.00166541154e-05,-13630649.3905,1.74946021153e-05,0.0,5622767.10526,682.983262287,652.22913962,66431286.7615,1788.64340541,42244033.024,68113278.7825,4663.39034449,4653.62609271,0.0
0.980254921129,0.812249196163,9.83534152615e-06,-94860507.368,1.49369415522e-05,0.0,6004384.82982,681.672220445,643.075951378,67403437.9144,1615.06720246,69789260.1337,70028086.0983,4069.03817761,4061.9811451,0.0
1.20997169136,0.821390739687,9.95527093604e-06,10766779.2946,2.80676955917e-05,0.0,12083900.0503,688.536869026,657.66240121,65182993.644,1893.59952031,56602877.8285,66564085.2164,5022.59249084,5010.68390962,0.0
1.02751691164,0.805903869641,9.88900790527e-06,-65337642.3549,1.53965343892e-05,0.0,5915430.20681,678.068280965,646.092167181,67240609.134,1665.69090089,46182230.4826,70873746.2983,4265.22270022,4258.01431665,0.0
1.14715631182,0.762339986622,9.74765247301e-06,-6772621.14929,2.44766765002e-05,0.0,5521068.69047,684.661220371,653.644596648,66147727.6902,1819.18270584,46446768.1834,68606208.3861,4761.84585036,4751.65518297,0.0
1.09504801373,0.987813895816,1.01592769809e-05,-23939233.7619,1.69310761528e-05,0.0,5731422.51565,681.279778992,650.468431891,66743349.6384,1753.87699358,36793857.2921,68981291.2226,4545.54430499,4536.82665789,0.0
1.12718488394,1.13622151786,9.93723075288e-06,-13275274.8061,1.7476347575e-05,0.0,5667010.64351,683.207224805,652.50038181,66587638.7937,1795.67001674,42494895.586,68316857.0596,4678.94445323,4669.93468067,0.0
1.02833606013,0.930890208498,9.74742271565e-06,-63738901.0701,1.42592436482e-05,0.0,5876971.34323,678.222972323,646.129146767,67102248.8056,1664.13278776,45104571.6582,71047282.8504,4268.6229856,4260.37358481,0.0
1.09274829583,0.996388287391,1.00184441674e-05,-25102730.5475,1.65426265544e-05,0.0,5744746.33584,681.207592463,650.293205934,66792358.7631,1750.8928728,36452267.5563,69172533.3572,4535.99817599,4527.31660004,0.0
1.11746214603,1.16034247163,1.04969202272e-05,-14683513.9239,1.6440644812e-05,0.0,5632589.88737,682.257352889,651.83740861,66449259.0804,1781.20366029,41398982.7036,68546182.6776,4638.58536817,4629.02042268,0.0
1.16570877155,0.886846116548,1.0036679041e-05,137136.052478,2.29678100611e-05,0.0,5420286.34742,685.74217892,654.963012775,65796897.8435,1840.29509672,49997926.9453,67621027.3003,4838.8571107,4827.88335801,0.0
1.07449161015,1.02682113956,1.00819763097e-05,-31304966.2051,1.48754994418e-05,0.0,5787140.03136,679.948958866,649.015800593,66898401.5092,1726.26538216,35237194.7406,69489212.0066,4460.21467373,4451.62714647,0.0
1.08005352995,1.01395961431,1.0019406095e-05,-29495149.7456,1.53679142928e-05,0.0,5780830.52763,680.524790195,649.528535242,66884430.8121,1734.26125913,35588337.2508,69327018.1197,4483.30220282,4474.8184604,0.0
1.06501283831,0.620182381852,9.50246180715e-06,-37892861.8981,1.85024634228e-05,0.0,5809874.82091,680.100616124,648.468399238,66950184.287,1714.32545616,34694780.4673,70125085.3114,4420.86829182,4412.42894733,0.0
1.13323072954,0.702344405242,9.880556024e-06,-11151653.7733,2.42965472384e-05,0.0,5577966.34476,683.919280476,652.89365933,66303725.254,1802.52142228,43698676.1054,67521984.3477,4704.04075832,4694.38943585,0.0
1.20275585843,0.927059485599,1.02942937328e-05,9057652.41385,2.56266800748e-05,0.0,10416057.8672,687.852892978,657.234432367,65249145.961,1884.37188805,55175482.8477,66673965.1755,4992.63956834,4980.77142605,0.0
0.946552198019,0.976157833684,1.02009625301e-05,-93249408.5605,1.35424470337e-05,0.0,6074925.78439,685.972907024,640.90414892,67582448.272,1607.58944711,68371017.8222,68588657.0652,3929.13817398,3922.66851253,0.0
1.19757197992,0.978810750925,9.89278987825e-06,7449927.85885,2.34347514343e-05,0.0,8921603.35141,687.761490284,656.963598622,65429112.0585,1878.46604537,54085532.0052,66564864.8229,4971.12128865,4959.37058732,0.0
1.01323410328,0.850938975579,9.87684276177e-06,-81074239.6302,1.45541918454e-05,0.0,5951711.1307,677.837414819,645.183169336,67298192.7591,1646.30911647,58064628.9139,70950192.8963,4205.93476272,4198.83872,0.0
1.00433424729,1.0504868334,9.40348172598e-06,-96089547.4909,1.28879109341e-05,0.0,5939225.34976,679.071524183,644.608715575,67222527.2842,1630.9397908,70871292.7738,70981273.7765,4168.9914605,4160.82850233,0.0
0.965086728562,0.724851937549,1.04872615128e-05,-93933437.2518,1.56621077348e-05,0.0,6004430.0723,682.767266471,642.094575246,67396707.4109,1609.72545315,68973238.2176,69198198.149,4006.07501026,3999.31654029,0.0
0.998105591464,1.13208530687,9.80677894638e-06,-95864238.9271,1.22539054277e-05,0.0,6000639.50112,678.737185677,644.228087865,67426500.7576,1625.60765544,70673156.6831,70942380.6723,4143.13631017,4136.25278847,0.0
1.13421296612,1.18217988157,1.019409704e-05,-10854321.6575,1.72105205767e-05,0.0,5588823.00784,683.420584214,652.86767957,66330353.2365,1802.4316412,43790374.6524,67762215.0356,4708.11802236,4698.17021636,0.0
1.24508106309,0.96335096748,1.05217363546e-05,19303877.9882,2.97322500549e-05,0.0,21126370.007,690.343993821,659.896046177,64751097.1495,1933.50377059,63505661.4405,64751097.1495,5168.33149289,5156.16979293,0.0
1.27617906249,0.853646201722,9.74488792797e-06,24427688.2076,3.47785007355e-05,0.0,26275475.4699,692.839314543,661.901087801,64462163.1357,1971.51333742,67388912.3921,68368645.805,5297.4192884,5285.01129585,0.0
1.23581314292,0.74160695837,1.01638303673e-05,17176030.7114,3.35060721828e-05,0.0,18712876.6406,690.035999552,659.314314656,64959655.4992,1925.11536491,61828647.3915,66801813.8282,5129.86035626,5118.26257366,0.0
0.998132809534,0.80759873251,9.84725864281e-06,-95783161.3615,1.49306512144e-05,0.0,5983489.47056,678.763592453,644.228891219,67375568.0291,1625.82135651,70601964.5849,70947010.269,4143.24929238,4136.36809197,0.0
1.13387526248,1.16515233199,9.92247776762e-06,-10440139.9543,1.71414027325e-05,0.0,5625876.32958,683.636054598,652.939769048,66461330.6437,1802.918142,44290811.6967,67811131.9915,4706.71621455,4697.18581468,0.0
1.12166901427,1.01182993984,9.77350163073e-06,-14507220.2189,1.81758347782e-05,0.0,5657295.48958,683.032318829,652.110912386,66544927.1392,1787.4342914,41584669.533,69031848.3602,4656.04807823,4646.61378787,0.0
1.07500470616,0.926335697365,9.58588872254e-06,-33167804.3212,1.57437875914e-05,0.0,5806834.50241,680.529281283,649.166518443,66959659.5211,1727.69078864,34942930.0298,69983796.1516,4462.34453527,4453.93920466,0.0
1.28828673029,1.12697132059,1.03592545091e-05,26441299.2699,3.01256006071e-05,0.0,27917005.4385,693.078647243,662.563800601,64026782.1152,1980.74790699,67970812.878,69049367.4729,5347.67821743,5334.22232252,0.0
1.00522771522,1.15015701938,1.01993608191e-05,-89259155.7787,1.21700837398e-05,0.0,5918658.949,677.683803972,644.65727962,67184195.3471,1632.98616094,64920504.4473,70834279.4088,4172.70024588,4164.71956813,0.0
1.19999132857,1.00472782592,1.02258778288e-05,9322168.24657,2.3721370025e-05,0.0,10681701.5031,687.599145205,657.105209808,65482040.6956,1882.24372453,55492707.1674,66811020.9027,4981.16400489,4970.00002073,0.0
1.17375321364,0.793331265519,9.67236188575e-06,1313935.98523,2.51035239523e-05,0.0,5386217.9005,686.549890982,655.468565636,65707025.2656,1850.52952256,50686393.4182,67502397.673,4872.24958982,4861.02549951,0.0
0.97190689552,0.917584904802,9.73400947718e-06,-94458696.2568,1.43201913976e-05,0.0,6024645.19842,683.410646561,642.53757209,67453081.2933,1615.58963048,69435523.2706,69669615.4875,4034.3855233,4027.317342,0.0
1.05795425469,1.08147970018,9.75728559292e-06,-41897173.9903,1.3397249386e-05,0.0,5825672.95689,679.359854714,647.986134409,66992627.6527,1703.69060247,35198074.4998,70141085.8397,4391.56811122,4382.89015015,0.0
1.14270528178,1.2601554781,1.02979126262e-05,-8181811.92981,1.69801113866e-05,0.0,5551499.57041,683.879064484,653.420595354,66224551.0449,1812.80264563,45238387.0188,68426953.7164,4743.36962467,4733.17493479,0.0
1.13113952502,1.02487492431,1.01042328216e-05,-11680382.5128,1.90608993805e-05,0.0,5589863.3423,683.365727443,652.668744812,66325544.9027,1798.71892005,43290610.364,67473386.246,4695.36016836,4685.46531209,0.0
1.05246441532,0.9988600481,9.47228884388e-06,-45160040.1388,1.396528467e-05,0.0,5827568.16892,679.350637048,647.661352342,66982643.9813,1695.16035653,35966640.6755,70666951.5693,4368.77978799,4359.83302769,0.0
1.23326666656,1.06804158986,1.0385236392e-05,16075028.1514,2.60132983557e-05,0.0,17672597.3323,689.600324064,659.139716631,64854503.9283,1919.20045684,60929106.8058,66648968.9722,5119.28993289,5106.85371359,0.0
1.02799481663,1.15585483567,1.02476256706e-05,-60971621.3979,1.21811142768e-05,0.0,5865515.33762,677.689821366,646.105074039,67077226.7515,1663.39987699,43276823.0708,70912647.7469,4267.20648383,4258.77760722,0.0
1.04181736417,1.00901409596,9.67457721056e-06,-53113263.8791,1.39572757433e-05,0.0,5833458.66984,678.775739657,646.982270936,66996856.4398,1680.90405317,38980720.7409,70865155.5266,4324.58387867,4315.67127011,0.0
1.21247982935,0.873647438968,1.02011375593e-05,11567951.2467,2.73874452167e-05,0.0,12801028.0294,688.533217745,657.853600717,65169689.3612,1896.46304928,57183309.2283,66177239.7127,5033.00377163,5021.15788139,0.0
1.04532193239,1.16814637608,9.64641756585e-06,-50647979.6999,1.22286382324e-05,0.0,5892849.16646,678.804965386,647.233938781,67187950.6926,1688.52530715,37895769.0335,71230925.8113,4339.13134135,4331.39116491,0.0
0.999626134607,0.79973143598,1.04385855798e-05,-95575844.4629,1.51843203152e-05,0.0,5882685.09384,677.801888885,644.298583396,67068277.4537,1624.78232843,70419529.6456,70459208.1416,4149.44808475,4141.22703491,0.0
1.08373919587,0.631236809599,1.03808323245e-05,-27111786.7263,2.11090836041e-05,0.0,5733661.09687,680.644552296,649.765115618,66741959.0711,1739.74195391,35866211.6683,69098258.6618,4498.60140206,4490.15694701,0.0
1.0095174167,1.0334804533,1.02616994121e-05,-78749450.1894,1.27368234765e-05,0.0,5918289.04884,677.283486657,644.936561301,67177133.3262,1639.17216084,56184007.0277,70676206.9422,4190.50679672,4182.77206738,0.0
1.1207881597,1.2076552859,9.96860292904e-06,-14636414.9734,1.58169899146e-05,0.0,5671283.63801,682.75750733,652.054852235,66581753.5832,1786.30080355,41511980.3412,69006289.6152,4652.39165091,4643.07192765,0.0
1.03512276724,1.2330508766,1.01734187709e-05,-55183684.6443,1.17177912235e-05,0.0,5857420.80253,677.993181016,646.562485601,67060788.5618,1672.81478864,39942498.2919,71050663.5035,4296.79460681,4288.25181925,0.0
1.14592981366,0.733239809385,9.79905574944e-06,-7270927.46773,2.51711608142e-05,0.0,5549914.40676,684.516072882,653.563706001,66242578.3099,1818.7759601,46172647.2627,68508654.1511,4756.7546565,4746.99939934,0.0
0.989274675536,0.834081305436,1.01231816657e-05,-95073108.3158,1.49791947473e-05,0.0,5923008.47729,679.643556866,643.639617455,67168887.0477,1611.98197054,69976698.7079,70222427.5696,4106.47917815,4098.42446459,0.0
1.25997244086,0.945413239534,9.80182175008e-06,21324311.0615,3.02813196052e-05,0.0,23151367.192,691.721026874,660.839133724,64620428.0697,1951.68586706,65081820.452,65894126.0308,5230.14560201,5217.55001354,0.0
1.0617121446,0.917341116132,1.01270242136e-05,-36170147.8511,1.51559435269e-05,0.0,5774508.43374,679.465385305,648.319545678,66832773.5183,1707.75072392,34565726.7782,70017827.1242,4407.16711223,4398.06585719,0.0
1.17732421148,0.651375130566,1.00164116501e-05,2886824.38597,2.93760724979e-05,0.0,5345627.97135,686.66709441,655.668857543,65588236.2311,1855.46712834,51400208.4032,66802721.6001,4887.07280185,4875.99342672,0.0
1.30265792683,1.30036229465,9.6793962893e-06,28078926.7016,2.66250636143e-05,0.0,29478948.6219,694.180386537,663.534285163,64161481.9399,1999.00456415,69013472.2147,70185939.7613,5407.33305427,5394.04149919,0.0
1.14253370304,1.1371865135,9.85952848266e-06,-8019529.07591,1.8016160267e-05,0.0,5571759.73575,684.072495881,653.34928789,66297642.1667,1812.8038685,45794303.2326,68419200.6836,4742.65740132,4732.5474918,0.0
1.02929504775,0.958047729786,9.90912270657e-06,-61142770.0791,1.39919650782e-05,0.0,5914266.86457,678.047876434,646.211625517,67235269.4598,1667.7472177,43356992.7962,71051231.881,4272.60374321,4265.27894499,0.0
0.987061331622,1.11254826248,9.97532375708e-06,-95101457.0702,1.24716963066e-05,0.0,5947048.12239,680.079236373,643.498379555,67239552.1203,1611.58969332,70001605.2853,70244892.0034,4097.29158756,4089.19283641,0.0
1.21827608678,1.22874500623,9.82750919277e-06,12122210.7084,2.07447341926e-05,0.0,13390348.7008,688.860085695,658.241301238,65318455.5504,1903.33676933,57775365.1677,66430368.0223,5057.06403622,5045.15900096,0.0
1.04090577951,0.99336703686,1.02310626791e-05,-50032671.21,1.40518512466e-05,0.0,5827529.67717,678.242716279,646.892483394,66978650.4104,1680.65881783,37586453.8687,70882262.4671,4320.79989075,4312.16342704,0.0
1.18167883251,1.08038549601,9.71860959545e-06,3539249.74409,2.03641649006e-05,0.0,5658831.49809,686.713466183,655.949525998,65872194.0147,1860.98331607,52054518.1949,67141045.1108,4905.14883375,4894.32593452,0.0
1.04440338304,1.21007424492,9.98455848782e-06,-49576513.4893,1.22259771804e-05,0.0,5843884.59605,678.551630673,647.14281307,67036117.9583,1685.32070421,37283253.1856,71082512.2931,4335.318443,4326.71346026,0.0
1.14083492022,1.02934810365,9.91640249855e-06,-8854151.00299,2.00688216997e-05,0.0,5607598.77743,684.099944484,653.365592602,66417249.1583,1812.77321498,45268883.2837,68221552.7814,4735.60575383,4726.24872515,0.0
1.14472087782,1.09737223098,9.70183198777e-06,-8098478.25259,1.83649605304e-05,0.0,5540827.08902,684.472441835,653.562250059,66198496.1592,1814.8035747,45758614.4286,68453989.5324,4751.73636383,4741.19743887,0.0
1.07914986846,0.812152201279,9.69470597003e-06,-30293634.9107,1.72502651355e-05,0.0,5767651.69168,680.594683982,649.325287548,66841996.5836,1731.9894191,35347815.0878,69396737.2904,4479.55110398,4470.70017745,0.0
1.06081084481,0.731784440346,1.06264900332e-05,-35362790.87,1.74685340076e-05,0.0,5781710.83676,678.953236812,648.194530555,66864941.4557,1708.43890038,34591008.8975,69850277.3642,4403.42581681,4395.0525837,0.0
1.01302664699,0.712646338253,1.03092719369e-05,-75412282.458,1.56533414459e-05,0.0,5888653.96221,677.486603578,645.149430218,67101935.921,1644.37970262,53521503.3639,70524826.6261,4205.07361166,4197.27778084,0.0
1.14606949498,0.639536505487,9.99430704441e-06,-7078496.01196,2.8005922178e-05,0.0,5545390.81184,684.584228185,653.675910254,66216961.0989,1819.86475935,46193012.1126,68478755.1026,4757.33447366,4747.89473681,0.0
1.05729342324,1.13386438011,1.01779228352e-05,-40278372.3424,1.32952118036e-05,0.0,5819653.91014,678.988816813,647.955220606,66978134.8979,1703.19231202,34900077.9083,69741799.5105,4388.82499987,4380.34181376,0.0
1.17700421597,0.965589725426,9.95097284439e-06,2521955.87125,2.24241333844e-05,0.0,5431298.98986,686.372090593,655.662815604,65853542.7464,1855.67645619,51346785.597,67117969.4154,4885.74450049,4875.09567968,0.0
1.06645938065,1.10983494441,9.95419212274e-06,-35489791.8842,1.32795496718e-05,0.0,5782474.28951,679.785397014,648.628896285,66863848.7419,1714.00385119,34619209.6843,70165022.6938,4426.87288908,4417.69250888,0.0
1.15593725184,0.851643904569,1.03807455091e-05,-3009250.0294,2.31633904438e-05,0.0,5429093.98607,685.001592684,654.350771418,65816875.8714,1828.14884741,47918721.0892,67785921.3065,4798.29553239,4787.40528968,0.0
1.11407135299,0.898556972121,9.84913559289e-06,-16704667.3207,1.90979997045e-05,0.0,5674927.784,682.597142921,651.658635932,66594442.8138,1777.94204597,40465377.2437,69244121.688,4624.51018626,4615.30037509,0.0
1.1478925398,0.891687605218,9.64699019625e-06,-6829603.91155,2.21798655257e-05,0.0,5549875.84406,684.781420008,653.780763219,66229178.6374,1820.53867643,46541537.5079,68670809.1727,4764.90193271,4754.90523028,0.0
1.29564320206,0.94658008786,1.00426603484e-05,27539742.6824,3.41985776312e-05,0.0,28939891.546,693.842812884,663.053545443,63955531.2361,1990.41585552,68599838.7607,69728634.6253,5378.21493175,5364.85808635,0.0
1.23285138497,0.86148099664,1.02560052532e-05,16127172.1247,2.99643378302e-05,0.0,17674792.918,689.742181806,659.165448957,65041403.6749,1921.41421615,61035599.9002,66713308.5022,5117.56609901,5105.93453,0.0
1.14152859528,1.00753359918,9.81555512971e-06,-8623502.94482,1.99779133491e-05,0.0,5533093.51557,684.292602873,653.37770052,66173697.3552,1810.72236141,45456260.7081,68234352.3048,4738.48519901,4727.98620816,0.0
1.01674697627,1.10584401139,1.03987226034e-05,-71863986.1046,1.26416341856e-05,0.0,5879489.07972,677.34394259,645.387212364,67099423.8114,1648.42179841,50826685.0185,70681614.9697,4220.5166985,4212.35320999,0.0
1.16674210934,1.07537421245,9.71951444244e-06,-1683927.35805,2.09402123127e-05,0.0,5524078.72925,685.882773912,655.064402536,66177098.1122,1845.16584991,49183855.4134,68122167.8085,4843.14649587,4833.24387571,0.0
1.06731945118,0.933679393815,1.01199041001e-05,-35079453.2252,1.54552319144e-05,0.0,5797733.0961,679.639251646,648.617684481,66917157.4185,1717.10361818,34689686.571,69957613.1233,4430.44304185,4421.96637433,0.0
1.17068316413,1.11734071372,1.01658071657e-05,1481651.06502,1.95366954108e-05,0.0,5437705.41936,685.783296583,655.270995109,65850476.8971,1846.5640068,50625021.0636,67284999.7422,4859.5058143,4848.65144734,0.0
1.10362129181,0.752893578814,1.00202796011e-05,-21359024.9855,2.06219856736e-05,0.0,5695925.57754,682.037356966,651.055189396,66644942.958,1765.43865792,37780169.6483,68571982.262,4581.1319823,4572.2792121,0.0
1.00356030405,0.883482113648,9.80108375913e-06,-95534476.4947,1.43321230419e-05,0.0,5927475.30077,678.489424311,644.554738574,67199731.657,1630.99642141,70389294.818,70797765.4195,4165.77882211,4157.82267365,0.0
1.14075049278,1.03265679305,1.00043203741e-05,-7863316.02322,1.99682812491e-05,0.0,5590437.14505,683.993070869,653.32888616,66345868.1697,1811.7529629,45997010.2509,68396993.9581,4735.25529553,4725.71628336,0.0
1.13456213139,0.997523973025,1.01150015951e-05,-10839123.9522,1.98236114436e-05,0.0,5574062.67652,683.598289155,652.891245457,66282835.9123,1803.10996354,43803096.364,67719369.3036,4709.5674074,4699.61367042,0.0
0.955545465837,1.02726578744,1.01422607947e-05,-93519873.1952,1.30623132602e-05,0.0,6011926.85747,684.999196511,641.47001337,67394720.8531,1608.58835699,68609198.3461,68831495.24,3966.46922869,3958.94485713,0.0
1.2166747498,0.914598378289,9.86383372511e-06,11984918.6698,2.63308698107e-05,0.0,13240986.5722,688.947675359,658.133610481,65232443.1697,1902.13475668,57609934.573,66285017.5993,5050.41688642,5038.62448733,0.0
1.21500519522,1.00925185454,9.74084368187e-06,11482059.8648,2.42126209185e-05,0.0,12784678.6719,688.822039179,658.008325656,65290183.1936,1899.92141386,57226928.4639,66319306.2674,5043.48656536,5031.64195735,0.0
1.0238596896,1.28172275696,9.89298657736e-06,-68223469.431,1.12203958335e-05,0.0,5943849.49321,677.819033391,645.86867565,67315489.3612,1660.32368169,48194844.255,71043519.5539,4250.04157153,4242.79464752,0.0
1.14652132815,0.799157528586,9.91157238276e-06,-8298044.37467,2.45350731199e-05,0.0,5576481.20377,684.547107564,653.694049161,66315354.0757,1820.87799895,45341885.2371,68391646.9259,4759.21003315,4749.86660573,0.0
1.06958265649,1.06443846449,1.01212763776e-05,-33309281.1466,1.42040920111e-05,0.0,5800729.03471,679.673284273,648.741015557,66930407.5672,1719.78526799,34911925.8872,69766512.0539,4439.83760709,4431.32575653,0.0
1.14133681594,0.913989315146,1.00393818452e-05,-9150770.97703,2.15574832378e-05,0.0,5542867.32078,684.180080268,653.367015955,66193519.7951,1811.87676961,44865690.15,68143261.6413,4737.68912297,4727.5943446,0.0
1.081544076,0.90083706564,9.99162641544e-06,-29052838.3669,1.67288603813e-05,0.0,5770443.09016,680.686284776,649.632609591,66854444.3354,1736.30223386,35665890.6614,69304466.7694,4489.48945948,4480.98274543,0.0
1.18833025852,1.00402051324,1.00022504883e-05,5519583.83759,2.26228697318e-05,0.0,7120574.10772,687.006043015,656.361157379,65716375.1067,1869.1502464,53079568.4368,66965383.8252,4932.75890312,4921.90890919,0.0
1.25419155827,1.10347009894,1.02000909837e-05,20309188.543,2.70540448898e-05,0.0,22116313.8183,691.031173514,660.455805118,64633010.8238,1943.5463494,64328370.4201,65084554.1548,5206.14915838,5193.42056731,0.0
1.1213869898,0.997170952822,9.94160368133e-06,-14381604.6311,1.85656828845e-05,0.0,5602497.35347,682.984797397,652.077166231,66359856.0,1785.220631,41641017.1265,68269436.9647,4654.87739466,4644.75353104,0.0
1.16815381699,0.892686250412,9.94698979266e-06,-447528.8269,2.48622468811e-05,0.0,5494360.0571,685.914893789,655.148517257,66081902.8229,1847.04329757,49752885.9758,67803802.2808,4849.00649433,4839.19206005,0.0
1.11021533554,1.05255568594,1.00301612287e-05,-16333545.3559,1.66783796347e-05,0.0,5695749.53545,682.155501055,651.427126582,66632225.4267,1772.61842924,40623937.5189,69197733.5527,4608.50385783,4599.37515868,0.0
1.05905297786,0.882697453422,1.02878981017e-05,-38558972.6693,1.56757130169e-05,0.0,5812130.7688,679.079453892,648.080634811,66952815.9251,1706.5302852,34690370.8322,69801326.8446,4396.1289111,4387.87407456,0.0
1.21342756238,0.897826173209,1.05242810316e-05,12460251.5743,2.75190409121e-05,0.0,13662744.9667,688.356850632,657.945692379,65218428.3751,1898.17753655,57890272.2906,66352658.7896,5036.93781144,5025.54798745,0.0
1.0589072835,0.979987886554,9.88468618578e-06,-40913084.0984,1.45587007259e-05,0.0,5811504.5883,679.35948178,648.050534052,66952937.4864,1705.08932785,34980795.5749,69704671.1872,4395.52413381,4386.83081596,0.0
1.14041677096,0.780256912811,1.00020615934e-05,-7883203.62352,2.40218822098e-05,0.0,5566930.86365,684.117464607,653.31051378,66276396.5463,1811.53865659,45930307.9908,68305052.2508,4733.87001626,4724.30570157,0.0
1.11458153347,0.67103860723,1.03112437604e-05,-15775810.1645,2.31882533139e-05,0.0,5607969.18873,682.439795254,651.639515625,66365464.3237,1778.16310323,40882929.6041,69128648.8607,4626.62794543,4617.10993644,0.0
1.05111991217,0.986663647124,9.776001937e-06,-44795449.2833,1.40287910848e-05,0.0,5828440.41556,679.068529126,647.576638328,66990555.7647,1694.20609159,35756354.56,70617255.1892,4363.19875542,4354.45272803,0.0
1.10202172873,0.878621027393,9.92406146625e-06,-22125460.3483,1.85566433559e-05,0.0,5716169.65409,681.943538089,650.956145543,66716729.6992,1763.23983285,37505531.4546,68502438.931,4574.49219596,4565.66468004,0.0
1.08040275976,0.910161074935,1.00532718624e-05,-29243612.5785,1.65817457464e-05,0.0,5771611.07142,680.56764944,649.55500082,66857047.6818,1734.79752071,35597882.7436,69292359.4754,4484.75185576,4476.26287211,0.0
0.988847045795,0.759116190867,1.03331489234e-05,-94997854.2591,1.53504483497e-05,0.0,5912814.35596,679.172085546,643.608210384,67139963.9041,1610.72023768,69910593.9598,70154233.7201,4104.7040871,4096.65621541,0.0
1.02886159876,0.841322904946,1.06461111107e-05,-58743484.7641,1.50800273767e-05,0.0,5852683.40697,677.440912299,646.157226756,67045690.1854,1666.11358724,41907520.4661,70651983.375,4270.80449645,4262.94126,0.0
0.982116251224,0.910180968008,9.57915886219e-06,-94975452.1931,1.45792779579e-05,0.0,6014712.98856,682.280877122,643.19816505,67440132.3676,1619.45091794,69890626.2884,70129622.3307,4076.76455883,4069.76306656,0.0
1.08216510398,1.05325168442,1.01178616334e-05,-28451689.5816,1.5088221257e-05,0.0,5773850.0694,680.574421641,649.678781713,66868188.0342,1736.98458316,35715853.1169,69291823.4149,4492.06734662,4483.55097851,0.0
1.25648583195,0.973468614011,1.03712038694e-05,20974519.3483,3.08379679701e-05,0.0,22982889.349,691.235404288,660.614752731,64499849.7389,1946.16177602,64788616.6814,65648284.4256,5215.67268842,5202.91609442,0.0
1.18567730228,0.978956435694,9.99756549393e-06,4947661.18678,2.28911012601e-05,0.0,6570961.23998,686.848380378,656.186327987,65742053.2686,1866.03003723,52712483.2096,67022014.7261,4921.74648176,4910.96171831,0.0
1.06058479632,1.14502707882,9.94411604709e-06,-39810308.2382,1.29989760721e-05,0.0,5815932.81564,679.349697903,648.173136007,66970407.2196,1707.19168095,34848553.0022,69821622.2831,4402.48748952,4393.7671141,0.0
1.17061862983,0.667523317468,9.88520874582e-06,1250587.20872,2.79297812919e-05,0.0,5384643.61594,686.31132386,655.276041595,65694622.1402,1847.14809228,50632798.3326,67464153.8241,4859.23793242,4848.28005393,0.0
1.09717381246,0.642884194636,9.95646221245e-06,-23720651.1879,2.19205704804e-05,0.0,5706267.2244,681.721521444,650.613190227,66679933.1097,1757.00694989,36876087.1079,68991055.4538,4554.36849552,4545.6166926,0.0
1.1549824956,0.925429102001,9.40739989143e-06,-5415239.19468,2.19728028174e-05,0.0,5546608.11636,685.398071076,654.288498808,66243215.7579,1829.89433932,47447460.8045,68836503.4231,4794.33233924,4784.30752941,0.0
1.17473565459,0.941341102016,9.63631701968e-06,1383447.97779,2.22462095869e-05,0.0,5405945.99143,686.50684609,655.527580748,65769447.9862,1851.54680388,50787526.2191,67345368.6524,4876.3277022,4865.09877643,0.0
1.08828469054,0.943596134213,9.63851529588e-06,-27377510.0714,1.63044420913e-05,0.0,5767526.65611,681.298374544,650.062872922,66856026.9942,1744.8943954,36026832.1064,69429535.4779,4517.46975043,4508.76055926,0.0
1.18065200795,0.87863549149,1.04378180142e-05,4199677.62178,2.48892635884e-05,0.0,5927293.33443,686.38722267,655.854332263,65589059.4014,1858.96844207,51929375.5301,66825344.1964,4900.886485,4889.85347653,0.0
1.15673481974,0.880296737265,9.86141901752e-06,-5306206.85571,2.38342615558e-05,0.0,5543655.58104,685.236055141,654.400305221,66220959.3303,1833.48852484,47056538.0411,68582116.7039,4801.60623674,4792.00236193,0.0
1.09967992823,1.0855866691,1.00297950083e-05,-22885851.9868,1.59318645499e-05,0.0,5730901.37416,681.632187097,650.802145643,66747158.3791,1759.83391975,37229812.5202,68772079.977,4564.77138208,4555.98089789,0.0
1.13798467316,0.865329121715,9.89575434405e-06,-10404631.9313,2.19786823235e-05,0.0,5578230.36492,684.111709393,653.199185706,66312108.528,1808.55904095,44247889.7578,67821590.5459,4723.77437829,4714.0437961,0.0
1.06223259088,1.10998388714,1.01452455668e-05,-37339059.3597,1.3347718002e-05,0.0,5820514.00802,679.266234601,648.284018262,66988436.5309,1710.29471961,34643210.549,70049741.5013,4409.32748474,4400.93033247,0.0
1.12735941018,0.709248550341,1.03570050689e-05,-11992985.9115,2.38491218795e-05,0.0,5559384.47094,683.15359683,652.415060775,66231872.108,1794.18083658,42974034.4866,67194397.0935,4679.66891166,4669.83803709,0.0
1.08042372709,0.938738297637,9.92416648369e-06,-29569814.0409,1.61758292322e-05,0.0,5778652.25888,680.641025023,649.549385433,66876976.587,1734.80545086,35536725.2128,69337339.386,4484.83889115,4476.34958191,0.0
1.05285890986,1.16196064198,1.00222215751e-05,-41736805.3883,1.26122725934e-05,0.0,5836897.02457,678.95197417,647.754127007,67019284.6471,1696.98445237,35128978.1594,70654190.6726,4370.41733483,4361.98537187,0.0
0.920158069121,0.877860075415,9.76815499911e-06,-92195464.3374,1.45334224921e-05,0.0,6161812.52897,690.851585584,639.209969182,67805677.7924,1606.5804703,67443440.7261,67805677.7924,3819.57614492,3813.76748215,0.0
1.23295071309,1.02678140782,9.907720459e-06,15778979.3604,2.55923942408e-05,0.0,17256977.9321,689.879160839,659.193233017,65038400.1787,1920.30998561,60752255.6842,66769897.4401,5117.97841004,5105.88051442,0.0
1.147643913,0.989231632314,1.00783889244e-05,-7644473.19708,2.1536734036e-05,0.0,5580321.01549,684.43979258,653.791287527,66335905.4092,1822.0012335,45649876.0518,68553425.7752,4763.86988286,4754.50828088,0.0
1.08361078397,1.00682672326,9.93566170829e-06,-28507154.4402,1.56521762152e-05,0.0,5774321.8826,680.808060916,649.77350172,66869032.6065,1738.92976582,35759390.2945,69337961.6434,4498.06836426,4489.52950522,0.0
0.943023077765,1.03946764249,9.90660955145e-06,-93268211.1596,1.30586188762e-05,0.0,6113990.58723,687.060610539,640.683410671,67695316.0121,1609.49071868,68387450.5666,68603628.2451,3914.4887958,3908.35243401,0.0
1.18094526288,1.08186200301,9.80065798112e-06,3113722.62076,2.03746894689e-05,0.0,5406543.09075,686.659029444,655.897056966,65776740.6825,1859.36916913,51705737.3667,67053922.2911,4902.10378621,4890.97266849,0.0
1.14701471214,0.736954517571,9.98309975746e-06,-8016235.80676,2.59415452887e-05,0.0,5564354.46759,684.569601594,653.725192904,66282595.0874,1821.53207398,45481311.3057,68412813.1032,4761.25807009,4751.90674489,0.0
1.10014014866,1.12211967194,9.83873008608e-06,-23037328.3237,1.5297693894e-05,0.0,5743261.73476,681.763421492,650.822988682,66795473.2573,1760.5780181,37200538.1463,69131986.4588,4566.68175709,4557.88391034,0.0
1.09178587164,0.790412325372,1.03356466109e-05,-24612839.5041,1.9364560902e-05,0.0,5724374.10931,681.028766415,650.237976884,66725523.5747,1750.13020836,36538404.5273,68976487.2723,4532.00315318,4523.43497348,0.0
1.1312221625,1.26267393382,9.87013804389e-06,-11906352.9675,1.58381650964e-05,0.0,5636356.18012,683.488901236,652.755269198,66480541.2904,1799.34670657,43320273.9149,67550270.4917,4695.70319654,4686.08598018,0.0
1.11103260154,0.895594738893,9.98199720292e-06,-17272156.7425,1.89488836462e-05,0.0,5678183.56199,682.345941055,651.480720259,66602268.8121,1773.98599457,40102836.6409,69076653.2514,4611.89632899,4602.73565,0.0
1.0795025165,1.13715545922,1.01196265082e-05,-29428709.8225,1.39793975484e-05,0.0,5786289.50537,680.371687102,649.494671405,66901898.7221,1733.43627217,35565241.5763,69324185.3709,4481.01494599,4472.53993694,0.0
1.08810457029,1.05713069528,9.79554183412e-06,-27373734.0615,1.52503181628e-05,0.0,5771626.07019,681.127275683,650.049426451,66865270.0565,1744.76688137,36027718.62,69398565.3225,4516.72207127,4508.11314576,0.0
1.09205967329,0.771687693965,9.82959686982e-06,-25633779.7639,1.90916341022e-05,0.0,5740706.73873,681.419925041,650.26397463,66774792.2269,1750.32838977,36378941.4307,69293204.1533,4533.13970383,4524.46880774,0.0
1.08966483642,1.08546159518,1.03532534841e-05,-25309096.313,1.55174635935e-05,0.0,5750173.5925,680.759070139,650.095600136,66802372.2296,1747.11693976,36351513.7638,69133444.1199,4523.19873598,4514.66343853,0.0
1.0798835655,0.987481721026,1.0046994423e-05,-29466197.9071,1.56927315839e-05,0.0,5778221.70279,680.507780321,649.517932361,66876622.9115,1734.0581394,35551735.0732,69313617.7565,4482.59668039,4474.11575742,0.0
1.11842398639,0.841822868296,1.03993574443e-05,-14552982.5298,2.06984245506e-05,0.0,5606811.30275,682.54300402,651.90043528,66370014.3071,1782.78945914,41460834.1996,68438677.9925,4642.5779675,4632.99700275,0.0
0.939946148287,0.984818295553,1.02306819728e-05,-93064884.7104,1.32206159116e-05,0.0,6105360.13775,686.521676967,640.483122921,67666897.8748,1604.92947199,68208512.1157,68423142.785,3901.71646154,3895.61943609,0.0
1.13706804582,0.88695381456,9.9368726102e-06,-10587185.3801,2.15897001229e-05,0.0,5581218.43935,684.015569921,653.138792361,66321877.4942,1807.34722255,44135732.4845,67768591.4989,4719.9694582,4710.25412314,0.0
0.980735686681,1.22679667803,9.97969454174e-06,-95023997.6292,1.16998938583e-05,0.0,6031018.96064,680.994055413,643.110520663,67493147.1562,1614.05629618,69933429.6985,70172524.6471,4071.03383541,4064.30887267,0.0
1.18511037531,0.975175015972,1.00499083689e-05,4895908.77595,2.29839913539e-05,0.0,6518197.27784,686.784640313,656.14973789,65739472.2957,1865.29203601,52659136.0125,67011362.3992,4919.39316791,4908.61828725,0.0
1.12193312043,0.950044563436,9.90322397794e-06,-14415316.8419,1.9259588685e-05,0.0,5650494.08642,682.991458492,652.129192684,66518169.3597,1788.03794377,41674276.4967,68847330.7322,4657.1443829,4647.80696576,0.0
1.19858900206,0.908177601127,1.03076626319e-05,8205228.75721,2.5640816042e-05,0.0,9572496.29924,687.630102386,657.002072917,65272148.0021,1879.45437433,54507554.2231,66502325.1554,4975.34294755,4963.57241226,0.0
1.20701068379,0.951110299944,1.0040472436e-05,10177378.3218,2.51113753383e-05,0.0,11505562.8552,688.189535079,657.482915678,65283267.1753,1889.75565551,56111178.2193,66958135.2914,5010.30134841,4998.47491607,0.0
1.09329870827,0.56808803788,1.00485945042e-05,-24729919.5201,2.30029472162e-05,0.0,5706801.92066,681.434024272,650.328932998,66678302.1732,1752.00965943,36522950.9103,69005918.3077,4538.28293803,4529.59273441,0.0
1.24113963379,0.698469301048,9.43309643689e-06,17448340.5493,3.37234983223e-05,0.0,18942720.1481,690.888240247,659.656847529,64868502.2569,1931.54787165,62048748.4246,66896128.2016,5151.97061986,5139.83187073,0.0
1.04141181586,0.7269188666,9.64715525794e-06,-53448688.1105,1.67044171588e-05,0.0,5816538.30065,678.901662973,646.951656423,66942683.9965,1680.57533008,39162320.5707,70951688.4292,4322.90044763,4313.99459823,0.0
1.02121621645,0.715512083385,9.97237546419e-06,-70591240.0172,1.58208195381e-05,0.0,5920785.56324,677.852610081,645.694102587,67239754.0739,1657.09539051,49894193.1772,70739778.505,4239.06851448,4231.85925379,0.0
0.971693921703,1.2175609692,1.0096226906e-05,-94598943.2963,1.18071161226e-05,0.0,6048796.21256,682.116422918,642.529214123,67539632.8508,1612.08727507,69559079.9063,69792023.622,4033.50146899,4026.98245495,0.0
1.07550705413,1.03713301511,1.00437495339e-05,-31051472.927,1.4799432553e-05,0.0,5786635.56406,680.033284645,649.085176026,66898475.465,1727.59123308,35304951.2929,69456235.1686,4464.42978169,4455.82626049,0.0
0.965321095685,0.983252060446,9.98290008623e-06,-94133811.9629,1.40029691006e-05,0.0,6054380.81441,684.019074518,642.118626339,67552158.9837,1615.55781082,69149627.3056,69376873.9128,4007.04786819,4000.60978865,0.0
1.04688678586,1.17344640645,9.81151463391e-06,-48162843.5479,1.23645289818e-05,0.0,5875211.91217,678.721639492,647.318725064,67131544.9877,1689.99074761,36899995.9085,70767225.4754,4345.6270481,4337.67967245,0.0
1.13510616346,1.09247232742,9.66047792323e-06,-11316556.0457,1.8009783762e-05,0.0,5627210.02097,683.943801976,653.019504895,66460341.2256,1804.85520428,43630005.6301,67707907.2589,4711.82568452,4702.24763899,0.0
1.18410648244,1.02009249796,9.85487903814e-06,3911219.20623,2.1807565931e-05,0.0,5714231.47207,686.881665591,656.07212037,65638604.0257,1862.44068819,52077210.2541,66948503.9094,4915.22600861,4903.72153207,0.0
1.13864201218,1.06220055795,9.95774295888e-06,-8836940.67561,1.89875366234e-05,0.0,5563120.82612,683.985390302,653.219579888,66262093.2566,1807.6117393,45277068.5105,68127305.1605,4726.50299256,4716.35830802,0.0
0.955549962183,0.713381674204,9.99942880208e-06,-93695612.4675,1.57946022709e-05,0.0,6065622.15031,685.340104906,641.489563362,67569999.8915,1612.7054661,68763874.9198,68986151.9053,3966.48789302,3960.18177561,0.0
0.946774338214,1.04253282812,9.84875333739e-06,-93430612.2407,1.3153046026e-05,0.0,6107919.02182,686.753869056,640.925349087,67681473.6073,1611.3227826,68530407.9562,68748485.0793,3930.06027793,3923.87171691,0.0
1.01074613934,1.11646452756,9.81968476674e-06,-84839662.4249,1.22941320934e-05,0.0,5972845.98218,677.842714957,645.027644043,67358252.6939,1642.79276216,61185922.4245,70943641.8294,4195.6072244,4188.54631432,0.0
1.16103114369,0.982856947146,1.02137823007e-05,-1850551.1995,2.11897565772e-05,0.0,5480779.86682,685.258976411,654.685500786,66013061.3956,1836.07473991,48752972.0066,67839556.9407,4819.44027746,4809.08025985,0.0
1.08793336054,1.14673970562,1.03262454324e-05,-26001242.7918,1.46827075993e-05,0.0,5760188.35478,680.677658104,650.006095527,66829286.6698,1744.80983492,36188373.4341,69193314.5481,4516.0113796,4507.50288659,0.0
1.08727709861,0.873698471686,9.78104567176e-06,-27684806.48,1.73271217714e-05,0.0,5761527.45627,681.174033395,649.99980325,66833102.6486,1743.83961806,35966372.9547,69365907.6334,4513.28723633,4504.69123025,0.0
1.0857840361,1.02217758484,1.01089738829e-05,-27204548.433,1.57221858458e-05,0.0,5762239.88336,680.78576785,649.896674307,66837810.7771,1741.75292642,35931775.7113,69282010.0769,4507.08953385,4498.51681907,0.0
1.10631024374,0.889318432251,9.82680430293e-06,-18461164.7983,1.85606731746e-05,0.0,5727134.9033,682.147349504,651.217071764,66741500.8739,1769.02198137,39564551.2223,68973065.8689,4592.29382176,4583.62883733,0.0
1.10440605511,1.06212106035,9.81017059171e-06,-21387138.8485,1.62481291707e-05,0.0,5724233.06048,682.080235915,651.110005133,66738055.7061,1765.94876322,37892274.4175,68669041.4655,4584.38953476,4575.42394406,0.0
1.02210686832,0.908091544154,9.92059744855e-06,-70056735.0287,1.42371940867e-05,0.0,5929561.91385,677.86413002,645.753321738,67268093.9739,1658.17318066,49508549.4635,70832680.6766,4242.7656104,4235.54366934,0.0
1.07335118208,1.04734011858,9.87785410416e-06,-32878989.6264,1.4465960204e-05,0.0,5810377.62847,680.042302141,648.966127094,66972107.7385,1725.43191786,34956455.6002,69855819.8393,4455.48075681,4447.10098255,0.0
1.23262662163,0.895098022537,1.01015275773e-05,15946259.9918,2.88534889997e-05,0.0,17441929.2025,689.810569846,659.174632937,65078120.2034,1921.26756136,60859723.1868,66734336.6419,5116.63310639,5104.97676207,0.0
1.12892202537,1.03551327319,9.78867736514e-06,-12526417.3599,1.84604114901e-05,0.0,5631352.31999,683.494439762,652.602614584,66462581.602,1796.68019776,42755411.469,67862172.4466,4686.15532731,4676.60166386,0.0
1.11049193188,0.864797663935,9.86050546411e-06,-17618412.4896,1.91040619472e-05,0.0,5633269.25362,682.478506834,651.434374327,66447998.2272,1771.3178013,39995045.4685,68996995.7213,4609.65200923,4599.71684941,0.0
1.22233440566,1.05997451698,9.74487740569e-06,13467634.4072,2.36971617738e-05,0.0,14793266.4061,689.212987641,658.519996802,65340691.099,1909.22460911,58895315.3115,66639466.9974,5073.91011789,5062.40566749,0.0
1.08523250619,1.15967826132,9.71422776839e-06,-28623183.0566,1.38535641191e-05,0.0,5789510.44412,680.991869828,649.878619797,66926106.349,1740.93815182,35809109.9499,69441606.2596,4504.80013319,4496.23601555,0.0
1.15611581301,0.682572601021,9.89072526328e-06,-5161879.90281,2.81491271487e-05,0.0,5522013.27985,685.313514193,654.360942731,66154804.7053,1832.82097981,47065795.4316,68527519.9511,4799.0367398,4789.44275536,0.0
1.15380707123,1.15959031872,9.69374751138e-06,-5242854.73727,1.84136266733e-05,0.0,5561738.80472,685.011787993,654.214508247,66280924.6123,1828.0213521,47396184.8867,68801021.3635,4789.45315268,4779.47448751,0.0
1.04038522081,1.15396515319,9.53328632139e-06,-54724527.9717,1.25429007506e-05,0.0,5851485.81616,678.768016268,646.882204096,67048987.1397,1678.86163964,39844860.9256,71433915.5284,4318.63905158,4309.75030301,0.0
1.00462501828,0.852813920956,9.88549870123e-06,-89231387.0491,1.3976415151e-05,0.0,5940807.74996,677.924148963,644.629855292,67230447.7828,1632.81480233,64904859.1108,70985994.665,4170.19845088,4162.53774415,0.0
1.02858489091,1.01031764181,1.02028982717e-05,-60709407.1565,1.35249939698e-05,0.0,5856925.59108,677.809431593,646.143201747,67051123.7601,1664.28393797,43128541.8636,70823583.5078,4269.65588217,4261.21750056,0.0
0.989792578787,0.736170424831,1.00422733444e-05,-95124830.1236,1.55630281287e-05,0.0,5917076.82011,679.65295864,643.673017128,67150864.4494,1612.09034458,70022326.8987,70267477.9705,4108.62899454,4100.4862156,0.0
1.0801168078,0.80455103776,1.02459928236e-05,-28656193.0781,1.80211554338e-05,0.0,5745098.62587,680.475284507,649.542490268,66767862.1768,1733.83095917,35515271.0701,69168292.2475,4483.56486918,4474.88858865,0.0
1.06770162649,0.891831618966,1.0134600274e-05,-34833058.9202,1.59394591056e-05,0.0,5793520.90163,679.6667496,648.642948497,66905358.5313,1717.63667546,34701443.2419,69899038.5039,4432.02945156,4423.5467977,0.0
1.10365780151,0.918626152312,9.72951459419e-06,-20512987.143,1.77557065424e-05,0.0,5649096.89895,682.198362411,651.034816618,66485381.5186,1761.92703047,38556488.5945,68516211.3921,4581.28353407,4571.18181642,0.0
1.18769991309,0.52264479741,1.02575120312e-05,6276943.26044,3.53040465151e-05,0.0,7745181.93115,687.317458877,656.334849244,65335260.3305,1868.50964681,53202284.2324,66484381.8701,4930.14233924,4919.09463916,0.0
1.13204421082,0.931573331522,9.8668060373e-06,-11568194.3557,2.03872821583e-05,0.0,5606067.92063,683.711103775,652.812418674,66388476.4911,1800.7302812,43446337.473,67516922.8352,4699.11551911,4689.48468405,0.0
1.18383750897,0.95341703389,1.02749355727e-05,5143247.65215,2.34049886436e-05,0.0,6722702.94084,686.628814124,656.060927814,65578525.9475,1862.26977978,52609502.4909,66751878.5445,4914.10949973,4902.91862783,0.0
1.03624330153,1.12240876666,1.01686988313e-05,-54184712.7511,1.26478414365e-05,0.0,5848925.94101,678.065782118,646.61789789,67037376.2779,1674.36445701,39440700.4812,71150121.7267,4301.44594465,4292.88517001,0.0
1.15622284428,0.720757353582,9.73359190905e-06,-4528096.68673,2.65192833395e-05,0.0,5501927.2496,685.426193209,654.361547807,66097222.9164,1831.69993549,47578881.835,68495193.2397,4799.48102661,4789.43317128,0.0
1.11356697651,0.930568879049,9.90459333572e-06,-16555043.5944,1.86400351642e-05,0.0,5625972.00185,682.573019176,651.604646602,66432989.7007,1775.20795345,40524925.9636,69169813.3548,4622.41651949,4612.42735026,0.0
1.22839362526,1.02521822943,1.01728718968e-05,15180465.9845,2.57757198678e-05,0.0,16605360.36,689.416639319,658.911072681,65140736.0004,1915.64427061,60205183.939,66744324.1239,5099.06193845,5087.39154313,0.0
1.04835220992,1.0413181513,9.94338618921e-06,-46177472.4025,1.36757608213e-05,0.0,5827968.99249,678.783232494,647.39270669,66987259.5495,1690.39279232,36064430.5118,70481338.0449,4351.71002338,4343.00933048,0.0
1.1393615538,0.85261403601,1.01105794194e-05,-9313713.01071,2.24935510205e-05,0.0,5531978.54381,684.07695639,653.253133792,66152897.7794,1809.06789173,44651909.7883,68006157.6264,4729.48980982,4719.32858848,0.0
1.17001025168,1.11655717444,9.88717600222e-06,864056.655535,1.8856112118e-05,0.0,5450660.98125,685.91148543,655.240276268,65894652.3748,1845.75128958,50456556.0663,67613456.3154,4856.71255472,4845.77572359,0.0
1.21033211971,1.10738229648,9.76395548908e-06,10429752.0495,2.20991713107e-05,0.0,11770864.1091,688.433127238,657.693118909,65371261.2683,1893.80629274,56417668.3894,66990146.577,5024.08862892,5012.1937666,0.0
1.10987865196,0.880626991781,9.95567400788e-06,-17568485.8946,1.89307739661e-05,0.0,5632159.76213,682.367596669,651.393786689,66446320.9978,1770.48164078,40003484.0405,68973784.8127,4607.10628429,4597.18081868,0.0
1.18271263054,0.918343611325,1.00511092851e-05,4548037.27191,2.36942377701e-05,0.0,6173288.69597,686.705368957,655.984796182,65632198.8166,1861.19731772,52387009.7297,66960516.3797,4909.44012937,4898.26803208,0.0
1.00590734565,0.838823751769,1.01111233795e-05,-89083140.7946,1.50011409137e-05,0.0,5879343.0162,677.911309568,644.696099471,67060925.7419,1632.88888642,64766792.7362,70792755.4876,4175.52139179,4167.11688552,0.0
1.1616820891,1.09455637642,1.03527950916e-05,-1791357.89433,2.12954502317e-05,0.0,5525216.04367,685.153714312,654.74191319,66144505.3592,1838.90885866,48672908.483,68040436.1333,4822.14235185,4812.55605851,0.0
1.07324235916,1.19126036317,9.97568422364e-06,-32199304.9475,1.31068609694e-05,0.0,5804737.35701,679.895907255,648.939655911,66947456.8507,1724.51478012,35109238.8674,69695531.0893,4455.02903287,4446.46044059,0.0
1.06258499902,1.00702255194,1.02974918538e-05,-36932475.1973,1.46150112995e-05,0.0,5810480.78111,679.218352881,648.308997502,66954525.8753,1711.14095277,34628108.5018,70041570.9856,4410.79033093,4402.48095062,0.0
1.10719666693,0.852151008569,9.95403256887e-06,-18351253.6401,1.90352947164e-05,0.0,5638824.93651,682.23803726,651.237199107,66459804.9136,1767.04347523,39524783.9555,68825279.9745,4595.97336443,4586.0941203,0.0
1.00463927936,0.91656300623,1.00066017707e-05,-91352503.8928,1.44004905019e-05,0.0,5890681.12691,678.13107558,644.61848032,67092192.7842,1631.122934,66704519.5406,70781645.2023,4170.25764862,4161.87385839,0.0
1.11589390424,1.11025015426,1.03290700029e-05,-15407367.4178,1.67819474993e-05,0.0,5644790.1217,682.274813465,651.724760121,66481274.2421,1779.32758066,40965318.018,69089323.3197,4632.0755965,4622.53583161,0.0
1.05601456856,0.983770234738,9.81003328699e-06,-43992082.1801,1.45786039032e-05,0.0,5803353.10397,679.323756889,647.870065946,66925672.2753,1700.42896113,35535828.4186,70168863.6438,4383.51647409,4374.54203338,0.0
1.00229247611,0.927699982,1.03170735785e-05,-93325931.434,1.4365087838e-05,0.0,5886846.44715,677.806403434,644.468510445,67083370.6866,1628.24017186,68449774.9886,70591919.6456,4160.51606833,4152.25195082,0.0
1.171700133,1.04309838686,9.72322640894e-06,759866.349803,2.03656368848e-05,0.0,5425256.51353,686.20019906,655.33968964,65825777.0734,1847.56319681,50399464.1663,67662198.7371,4863.72725208,4852.54042831,0.0
1.1104242313,0.994820381356,9.8430477267e-06,-17653269.2921,1.75173831663e-05,0.0,5645004.7944,682.422414093,651.431689092,66484477.2809,1771.10426578,39890226.118,69020247.1059,4609.37098413,4599.43687225,0.0
1.20856426275,0.895658285875,1.00959203387e-05,10609399.128,2.64297961621e-05,0.0,11900492.8784,688.29523506,657.573689209,65226589.5218,1891.64966406,56454294.0494,66604243.5574,5016.75025468,5004.89501691,0.0
1.0363990687,1.1152810122,9.77179556756e-06,-58123989.3358,1.27931300471e-05,0.0,5863820.09303,678.448170124,646.639167439,67084174.9412,1674.73024104,41595335.1176,71193334.4208,4302.09253417,4293.61659533,0.0
0.978860122823,0.940839691523,1.00900800059e-05,-94738033.0808,1.39989907954e-05,0.0,6004723.65707,681.325252872,642.985218985,67412001.9963,1613.63486907,69681472.3837,69917909.8121,4063.24836984,4056.29608738,0.0
0.933192840782,0.929659675037,1.05013838171e-05,-92427821.8747,1.38139608051e-05,0.0,6038043.33898,687.20445125,640.027284277,67440316.0358,1599.81590244,67648070.147,67857198.9983,3873.68348209,3866.50435491,0.0
1.15787505701,0.829940822018,1.01698369353e-05,-2717613.06898,2.3479651306e-05,0.0,5478968.99901,685.19305011,654.492414421,66003448.3202,1832.40648678,48349137.3129,67999615.1569,4806.33936165,4796.03344549,0.0
1.1555359254,0.915139251398,9.72479347711e-06,-4951238.92279,2.2933981207e-05,0.0,5558017.76273,685.211281011,654.329711834,66281152.7858,1831.72601277,47497318.3127,68729841.8644,4796.62962634,4787.04822896,0.0
1.10551821574,1.00775319882,9.86700244958e-06,-18687587.3329,1.71204635925e-05,0.0,5735718.49284,682.030963736,651.170045423,66767672.2121,1767.87745162,39563221.2208,68958852.9546,4589.00611354,4580.35244541,0.0
1.11367379425,1.03496407117,9.85000117915e-06,-16865519.7655,1.7304993473e-05,0.0,5686607.96305,682.516762009,651.63976453,66629616.3899,1777.29561609,40417103.3671,69248030.2151,4622.85991993,4613.65561786,0.0
1.05082589132,0.930870191604,1.00172025752e-05,-44624509.7399,1.48730024278e-05,0.0,5812076.31882,678.898966155,647.555889762,66944765.1025,1693.78127301,35718222.2581,70479987.0995,4361.97827487,4353.23732367,0.0
0.964728487687,0.706586537054,1.01960491168e-05,-93935341.6893,1.60083104477e-05,0.0,6018415.5128,683.711086818,642.074472579,67443026.1674,1613.1407689,68974940.1013,69201575.6314,4004.58795239,3997.86444109,0.0
1.01886813224,0.669585058848,1.00003729765e-05,-73163760.2862,1.6196070289e-05,0.0,5922456.28603,677.819793918,645.546728503,67237195.094,1654.02610531,51810461.5252,70849314.769,4229.32161693,4222.14574076,0.0
1.23085754912,0.896505952324,9.88788242364e-06,15278648.397,2.82760150624e-05,0.0,16753604.3069,689.913780301,659.049980678,64907929.4438,1917.36008831,60266739.641,66438553.1903,5109.2896864,5096.89112863,0.0
1.06361128081,1.07340740681,9.95665385492e-06,-37453242.5047,1.36836399735e-05,0.0,5822433.65387,679.501391228,648.375958697,66993905.889,1712.134995,34675899.618,70113111.8744,4415.05042664,4406.63175367,0.0
1.0387795186,0.926152906963,9.73360326336e-06,-55801966.7372,1.45389278329e-05,0.0,5895697.23441,678.54030042,646.801990149,67191248.0609,1680.39486639,40367571.3374,71172873.3586,4311.97378171,4304.51345767,0.0
1.08757969485,1.06804303819,9.73636588518e-06,-27533266.4917,1.49705509257e-05,0.0,5775487.19813,681.136617413,650.018786722,66883589.4598,1743.98607047,36005041.3903,69426217.8217,4514.54331332,4505.89383541,0.0
1.14121488402,0.998228421226,1.04525375994e-05,-8631319.29209,2.12649079383e-05,0.0,5582247.7111,683.764615706,653.340561127,66337384.9924,1813.53460128,44933678.6656,68229167.2461,4737.18298357,4727.89624886,0.0
1.24477395287,1.04785378091,1.02524204815e-05,18773148.7866,2.72159409435e-05,0.0,20493010.6275,690.39471648,659.888497326,64873665.067,1933.93372838,63151625.7131,65592868.6925,5167.05667836,5154.97678815,0.0
1.14978491506,1.04132403832,9.93407175386e-06,-7417463.74872,2.06667910048e-05,0.0,5585075.93809,684.645129853,653.939236663,66350903.9222,1824.734573,45853266.4433,68682356.581,4772.75718241,4763.35978328,0.0
1.04869666208,0.774136662321,9.91933245606e-06,-44888643.0996,1.60882176344e-05,0.0,5830419.15722,678.8853249,647.419341015,66990395.5292,1691.86548522,35852809.6941,70477600.5464,4353.13984429,4344.77301359,0.0
1.15080792359,0.936411352487,1.03038475551e-05,-4321978.84623,2.11536301822e-05,0.0,5515394.07414,684.409640304,653.913567602,66111175.4991,1823.3368007,47489018.514,68012678.9868,4777.00369082,4766.81851302,0.0
1.00873944371,0.898701665187,9.92107096088e-06,-86236936.575,1.40897978117e-05,0.0,5963050.59704,677.813336943,644.904253815,67326417.5276,1640.22810819,62353466.9888,70879513.4798,4187.27743084,4180.24480305,0.0
1.09616765936,1.15718873443,9.52776251683e-06,-25057888.9885,1.44260519366e-05,0.0,5764256.77166,681.674878863,650.508940314,66856328.3737,1755.05013126,36641386.2184,69379354.3759,4550.191954,4541.35813077,0.0
1.15434268356,0.994799602232,9.64952984318e-06,-5075352.5599,2.10587841714e-05,0.0,5543873.25246,685.176670773,654.248368534,66223750.7898,1828.8763168,47482545.2504,68742758.666,4791.67647946,4781.66389671,0.0
1.05726719137,0.800236780323,9.3578158468e-06,-42019158.3314,1.58235431657e-05,0.0,5837404.82772,679.722681805,647.962952926,67018561.322,1703.29461942,35204451.3374,70865406.9326,4388.71611138,4380.21243259,0.0
0.96013408984,1.07338633128,9.88515133195e-06,-93964592.2049,1.31040751764e-05,0.0,6075422.95437,684.930185223,641.785377997,67608173.4573,1615.01345072,69000612.1888,69225144.8158,3985.51660693,3979.14872675,0.0
1.02195393312,1.14806261705,9.73531416393e-06,-72078060.9875,1.21733746075e-05,0.0,5949429.65676,677.975357167,645.74250225,67325943.0993,1657.83195735,51007432.906,71079098.9149,4242.13077638,4234.91101337,0.0
1.01035796191,0.825813180543,9.9343037311e-06,-84112320.1512,1.46825562259e-05,0.0,5955710.04275,677.787284298,645.004655385,67306577.8047,1642.44871612,60574862.1634,70826151.3245,4193.99589989,4186.94046455,0.0
1.08002118971,1.17020860745,9.69507455596e-06,-30709938.9573,1.34314583431e-05,0.0,5808534.82011,680.492369783,649.388841639,66976285.3723,1734.09653742,35450131.6125,69445457.0207,4483.16795849,4474.68489915,0.0
1.18851950274,0.925192670524,9.77145056466e-06,5162831.99823,2.36341634125e-05,0.0,6768534.90713,687.235976211,656.366096181,65664152.1855,1868.92758913,52954481.3248,66944536.4078,4933.54445587,4922.36557512,0.0
1.16544201633,0.887101910602,1.01143719059e-05,208756.606832,2.3032523941e-05,0.0,5417228.88566,685.677233704,654.944979623,65788056.0482,1839.90599178,49995273.2705,67572399.7908,4837.74980979,4826.78084022,0.0
1.2189033139,0.916410803296,1.00243206555e-05,12805223.2016,2.67271668404e-05,0.0,14067313.57,689.029474346,658.28186555,65100709.055,1903.69550317,58190148.2928,66370729.2379,5059.667656,5047.61576823,0.0
1.2362633187,0.925973065434,9.89529302019e-06,16694993.7346,2.79503384132e-05,0.0,18193223.6239,690.114963801,659.35838764,64965754.705,1924.37176109,61396522.8393,66859861.3112,5131.72903592,5119.62689776,0.0
1.15815718544,0.894051139541,9.33119212112e-06,-4599924.82998,2.26608902402e-05,0.0,5528405.5253,685.679860476,654.488386953,66183375.9494,1833.6372491,47796935.4282,68685551.0577,4807.51047676,4797.32412714,0.0
1.03600113995,0.890867576481,9.99348642811e-06,-56686925.0828,1.48396744851e-05,0.0,5843544.80169,678.32405357,646.616975118,67020782.5395,1674.40174845,40750471.922,70960001.968,4300.44073193,4291.96981969,0.0
1.16817776537,0.860166594898,9.86266041877e-06,-247312.202809,2.36453458124e-05,0.0,5414393.40268,686.055337379,655.122229374,65800190.7222,1843.8385316,49718323.2834,67509626.1602,4849.10590405,4838.06385006,0.0
1.13417418168,1.23648552286,9.7907860443e-06,-11255738.5397,1.62737149152e-05,0.0,5628392.21479,683.744186891,652.955747654,66458866.283,1803.17756266,43688371.1,67704224.9883,4707.95702815,4698.29005231,0.0
1.05913394672,0.923136311555,1.02229733871e-05,-38817141.1922,1.52471217503e-05,0.0,5816602.06902,679.118999205,648.085334962,66965966.6779,1706.5940617,34724264.7642,69798152.0576,4396.46501283,4388.21038313,0.0
1.22364351342,0.956743459327,1.00418891474e-05,13604012.1705,2.64650974809e-05,0.0,14910076.0259,689.306310012,658.586925316,65048966.539,1909.29167922,58909473.5718,66456911.7444,5079.34422421,5067.20109781,0.0
1.03640507957,0.913126274923,1.03715608058e-05,-52951190.7436,1.48435781404e-05,0.0,5819403.71859,677.977950922,646.616218986,66953616.4629,1674.34170203,38789301.3044,70832083.8614,4302.1174853,4293.4661871,0.0
1.0741105348,0.976231919942,1.01959458775e-05,-32427209.1189,1.5722664668e-05,0.0,5797070.06965,679.86912527,648.996340428,66939238.528,1727.11702489,34944051.4444,69555770.7362,4458.63282995,4450.43339139,0.0
1.0916960014,0.985732182501,9.9881627615e-06,-25566715.4212,1.65567823516e-05,0.0,5748219.07045,681.176243411,650.229287115,66801626.0882,1749.51602022,36370555.555,69229001.3174,4531.63010181,4522.96501074,0.0
1.05745532432,1.06199851755,9.53626051616e-06,-41270817.0354,1.32284755288e-05,0.0,5846728.21494,679.478176679,647.96441863,67050640.7333,1703.39263593,35079166.8747,70691919.2066,4389.49705125,4380.99039545,0.0
1.18028888982,1.05668301406,1.07075468421e-05,4326440.66036,2.1964747064e-05,0.0,5848813.17381,686.117904749,655.823991026,65501364.5912,1856.97278842,51778055.0085,66663766.6864,4899.37918164,4887.95804692,0.0
1.06372618955,0.793364471579,1.04660163824e-05,-35714309.0493,1.70022164731e-05,0.0,5788371.07132,679.234245714,648.384850594,66892387.4165,1712.78541463,34595762.1423,69850617.9919,4415.52741282,4407.20166788,0.0
1.10574631661,0.969798968822,9.95170278512e-06,-20945265.1602,1.78097260685e-05,0.0,5710486.07613,682.094720832,651.18487048,66693269.0649,1768.01246223,38007442.8028,68720893.2602,4589.95296025,4581.06659418,0.0
1.20012848194,1.11567186932,1.02867184769e-05,8368704.88969,2.18312574441e-05,0.0,9730618.16371,687.571779085,657.094825169,65346671.1855,1880.97189114,54674345.0488,66638815.9714,4981.73332853,4969.93399944,0.0
1.0035748417,1.11627674649,1.04674271407e-05,-87733084.1492,1.26289863686e-05,0.0,5889783.79684,677.375286153,644.545635098,67096818.1034,1629.84898046,63581395.056,70598982.7042,4165.8391679,4157.55430481,0.0
1.19260646639,0.676350766274,9.89002933701e-06,6148154.80442,3.03976122924e-05,0.0,7699113.65474,687.75637809,656.631554489,65327533.1875,1873.36796513,53276115.5535,66562239.1364,4950.50944198,4938.8282555,0.0
1.11790074858,0.981213695011,9.809298135e-06,-17386184.608,1.84808895834e-05,0.0,5675513.04794,682.817062047,651.881012434,66597870.4941,1783.45017364,40107830.6528,69316551.8276,4640.40600736,4631.22409688,0.0
1.05549898027,0.915925038,9.87052104853e-06,-42648773.5434,1.50406233393e-05,0.0,5816232.82059,679.232941824,647.840413995,66960966.5304,1700.59781277,35283971.8949,70559443.8518,4381.3762671,4372.73781875,0.0
1.07696832886,0.870194084663,1.06250667932e-05,-29435197.3069,1.74325935223e-05,0.0,5761682.54742,679.987825845,649.348470675,66828722.1409,1730.86635269,35308752.4235,69081304.0331,4470.4955331,4462.25119581,0.0
1.03621763582,1.00839169695,9.88954102869e-06,-57156740.7016,1.37979086574e-05,0.0,5853445.9928,678.377131423,646.628573488,67050374.63,1674.5908824,41041748.6623,71070484.3818,4301.33940629,4292.86501474,0.0
1.18084118319,0.888723505514,9.70800720033e-06,3408194.99184,2.3718751139e-05,0.0,5607579.09162,686.802509403,655.902304154,65811652.2983,1860.26258669,51965061.8987,67082379.3913,4901.67175142,4890.86353595,0.0
1.15120009486,0.768663493237,9.61750909265e-06,-6032324.96274,2.47072672472e-05,0.0,5534899.05818,685.110969827,654.031034583,66194005.9725,1825.23975701,46933485.3249,68795195.1842,4778.63159376,4768.69668491,0.0
1.07474634165,1.2156007045,9.72694278203e-06,-32845797.2421,1.27591469427e-05,0.0,5823022.97022,680.16068936,649.051951625,67010805.4269,1727.14042039,34998347.4224,69938327.0466,4461.27206419,4452.87072889,0.0
1.00897819617,0.619736565161,9.76509298586e-06,-87382900.1515,1.67294784522e-05,0.0,5953224.19627,678.14303358,644.92261228,67295821.7854,1640.68646469,63320417.2939,70896764.8889,4188.2684923,4181.23250209,0.0
1.07121977515,1.04182881451,1.0032896138e-05,-32895300.9211,1.44912657426e-05,0.0,5798714.83522,679.823163338,648.832937978,66925611.8754,1721.95463485,34991084.6746,69730299.1411,4446.63328665,4438.09573547,0.0
1.07023024341,1.07165382364,9.98922896685e-06,-34336947.2147,1.40466144476e-05,0.0,5804681.17928,679.832260878,648.798991331,66941464.1697,1720.81126797,34800888.2538,69890296.5645,4442.52574039,4434.00343513,0.0
0.954070069208,1.00995423945,1.00525937078e-05,-93672225.1274,1.34931536442e-05,0.0,6080546.73398,685.253681128,641.393884576,67612823.0149,1611.42759768,68743220.7053,68964936.6605,3960.34485728,3954.05862303,0.0
1.11941507857,0.972351528369,1.01441581744e-05,-13806755.7244,1.91547899741e-05,0.0,5677164.77551,682.603029331,651.975536469,66603701.9418,1785.53923136,42002673.0675,68924801.572,4646.69199114,4637.82332878,0.0
1.19998940547,0.912496547654,1.03752414346e-05,8579190.61188,2.57730470445e-05,0.0,9929026.8561,687.664477937,657.080984325,65270072.3028,1881.0413647,54768897.9468,66543645.4686,4981.15602211,4969.35947817,0.0
1.16906390423,0.927863414108,9.98670155319e-06,878960.825119,2.24625935897e-05,0.0,5414826.38053,685.945668095,655.173522637,65781370.418,1844.41250135,50376906.7803,67544198.5338,4852.78426646,4841.75028414,0.0
1.14680522442,1.07324625596,1.00052930486e-05,-7971291.12765,1.99521005752e-05,0.0,5587477.57468,684.372192715,653.712675585,66347504.3045,1820.55151726,45621261.6323,68543461.5092,4760.38848657,4750.93388498,0.0
0.879432142196,1.07924691129,9.9896532213e-06,-90441857.039,1.11854098291e-05,0.0,6199824.24389,694.310393522,636.569348573,67842328.7726,1583.61843227,65899876.8798,67842328.7726,3650.52282226,3644.17457449,0.0
1.09779089454,1.08393653069,1.01649218064e-05,-23076859.0963,1.58982055693e-05,0.0,5730599.39555,681.423856147,650.67626946,66745801.8513,1757.37491004,37126741.5866,68867469.8832,4556.93000324,4548.16925407,0.0
1.11506365728,1.0584502344,1.00135162761e-05,-16109178.6796,1.72451183173e-05,0.0,5676694.82732,682.443692676,651.693905386,66589780.9148,1779.03431476,40762331.1702,69382103.222,4628.62924137,4619.40237349,0.0
1.12292945548,0.920518692151,1.02229916685e-05,-13508995.2292,1.98881217537e-05,0.0,5601293.35829,682.917406303,652.19465226,66350454.0641,1788.28796276,42187785.5012,67843561.761,4661.2801697,4651.52406589,0.0
1.030490256,0.756929859982,9.93215083939e-06,-60172374.5554,1.57920474402e-05,0.0,5900901.29308,678.126121608,646.289347895,67197942.7043,1669.45126882,42895398.4056,70926626.4979,4277.56505266,4270.2232911,0.0
1.09461547922,0.998007964479,1.00319644603e-05,-24447332.9332,1.66863160998e-05,0.0,5738969.43479,681.318825072,650.423553043,66778367.4192,1753.31681886,36657516.6027,69074206.4578,4543.74885424,4535.03799612,0.0
1.11364425046,1.12099644986,9.92643358051e-06,-16721112.9595,1.62354748575e-05,0.0,5690048.26534,682.415314406,651.630680812,66641932.8815,1777.1714915,40480289.9051,69282017.1927,4622.73728366,4613.53438453,0.0
1.08407929958,1.12469807481,1.03259583989e-05,-27313345.8508,1.46615158093e-05,0.0,5769220.0471,680.496908893,649.788287888,66851236.169,1739.78855045,35907489.7278,69243425.5134,4500.01317256,4491.56421855,0.0
1.05761125418,1.04451374323,9.63722910454e-06,-44014486.4226,1.39129628608e-05,0.0,5810431.07629,679.511239657,647.972506647,66947318.6511,1702.44234806,35578732.0638,70398985.4309,4390.1443161,4381.1433809,0.0
1.08046352014,0.830855330545,1.01169633987e-05,-29024142.9418,1.75984145707e-05,0.0,5763437.91911,680.564249717,649.56342719,66833238.8913,1734.93322438,35620998.8352,69251130.0702,4485.0040721,4476.51414492,0.0
1.03792949716,0.690696822009,9.82869756723e-06,-55845030.8341,1.67862896827e-05,0.0,5882115.20742,678.504922938,646.75002932,67150147.4397,1679.40697765,40366776.9702,71086377.0114,4308.44534271,4300.99799508,0.0
1.26394793273,0.793263376665,9.79517066409e-06,22405961.6084,3.4965644064e-05,0.0,24311961.6541,692.070179762,661.115465396,64619727.0059,1957.64412775,65958338.5688,66827623.6185,5246.64786876,5234.45627313,0.0
1.18470778674,0.970773698302,1.00785073344e-05,4868226.5766,2.30666270146e-05,0.0,6492796.58892,686.746562287,656.123368023,65734353.9918,1864.7407757,52605958.3697,67001978.0126,4917.72202276,4906.94059924,0.0
1.18604310101,1.02742386924,9.58918688657e-06,4270597.25398,2.12912620566e-05,0.0,6030385.54994,687.125873885,656.207164348,65719472.1236,1865.41050636,52444204.9709,67076332.2024,4923.26491229,4911.93080478,0.0
1.03961436186,0.799356237793,1.02408212756e-05,-51702646.4309,1.54397710415e-05,0.0,5844368.86107,678.208579858,646.827713593,67030218.7613,1680.36353981,38241279.303,70742746.2159,4315.43921608,4307.32159825,0.0
1.08166242327,1.01166141613,1.01402005264e-05,-28538806.2216,1.55831889543e-05,0.0,5771165.71629,680.551713595,649.649918195,66860011.4403,1736.36115633,35682822.9874,69272993.6229,4489.98071899,4481.47216555,0.0
1.13664003431,1.00586046269,9.69278472616e-06,-10846453.4475,1.94813399811e-05,0.0,5612739.68955,684.064769612,653.118279081,66418619.1498,1806.90416043,43933384.2109,67782209.2375,4718.19278242,4708.58947275,0.0
1.04796264361,1.05922837799,1.0064751187e-05,-47334804.2677,1.36615094528e-05,0.0,5823970.12493,678.71426921,647.372295156,66983219.1121,1690.15569659,36531886.2734,70324652.8234,4350.09293363,4341.43031623,0.0
0.960597546717,1.08924214158,1.00356244718e-05,-93954211.9969,1.28762686706e-05,0.0,6069240.62147,684.421409287,641.814301748,67592006.8852,1613.48555737,68991479.693,69216252.648,3987.44041642,3981.06627751,0.0
1.11112604556,1.21794200567,9.79438199212e-06,-19485303.6473,1.49618345063e-05,0.0,5714972.13436,682.38927601,651.505190913,66721859.9024,1774.4752545,38900491.4267,69005722.1962,4612.28421512,4603.21116424,0.0
1.20259892894,0.969227055118,1.0157665423e-05,8790419.22796,2.45912320187e-05,0.0,10161837.6878,687.899885323,657.239791745,65296208.2321,1884.30587958,55013323.9415,66684538.4595,4991.98815403,4980.13636663,0.0
1.11208344277,1.29282825207,9.59932156858e-06,-19704626.2717,1.41364211921e-05,0.0,5724867.88459,682.556321065,651.572897961,66750029.4782,1775.73072859,38871339.1198,69052001.1805,4616.25837094,4607.16996798,0.0
1.14636757497,0.809698179017,9.77867821354e-06,-7227735.2218,2.37038600657e-05,0.0,5554902.89715,684.623899368,653.677577645,66258072.5626,1819.24213403,46260469.4659,68544116.8296,4758.5718037,4748.80928576,0.0
1.16473457631,0.742071756659,9.97381171175e-06,-425395.321625,2.56938761515e-05,0.0,5407423.28248,685.849663761,654.904459245,65773354.2203,1839.52379089,49670077.0624,67614322.7922,4834.81322626,4823.85537836,0.0
1.147688899,0.82239904718,9.91529774792e-06,-7995668.69025,2.42243539437e-05,0.0,5573663.30339,684.607434099,653.772296966,66312210.4093,1822.31997364,45518057.7904,68469708.8437,4764.05661975,4754.6944982,0.0
1.12688034613,1.13171597038,9.74316696801e-06,-13435640.2411,1.68998792596e-05,0.0,5602424.23288,683.388357264,652.450312623,66366112.346,1792.10825732,42259477.1336,67928832.7787,4677.68031679,4667.46071604,0.0
1.01553014294,1.10259933038,9.68738508552e-06,-80221857.2919,1.24745493493e-05,0.0,5965447.93919,677.966175695,645.326011676,67352634.4892,1649.20449088,57382369.6575,70900644.2989,4215.46562334,4208.33709209,0.0
1.00784310589,1.02527969448,1.0044740316e-05,-87756983.1062,1.34287591689e-05,0.0,5888428.3122,677.879349893,644.822416451,67090564.1757,1635.32535668,63641226.1509,70760419.1474,4183.55673255,4175.12056269,0.0
1.01832312928,1.03648519062,1.01536905513e-05,-71908444.5778,1.32955096269e-05,0.0,5878577.25533,677.648864835,645.49191423,67095379.1431,1650.36984276,50857218.3769,70872277.7255,4227.05930964,4218.78591097,0.0
1.06623598533,0.75857016217,1.00143756112e-05,-35153691.4536,1.7385244582e-05,0.0,5793735.95739,679.71131846,648.546526122,66910760.6042,1715.61055089,34676653.3794,70067812.8812,4425.9455751,4417.4861643,0.0
0.939561323195,0.886096632727,1.04111083875e-05,-92687094.7373,1.43869585798e-05,0.0,6023567.28389,686.721738188,640.437714598,67412135.4982,1603.31232823,67876305.0835,68087988.2915,3900.11905258,3892.84244925,0.0
1.01466705136,1.03885166104,9.8264427404e-06,-79915901.3779,1.30082420646e-05,0.0,5958588.78024,677.830054744,645.268797014,67327885.0669,1648.11570154,57129966.0759,70831718.1731,4211.8829302,4204.76661896,0.0
1.12482191548,0.942871831262,1.00838059268e-05,-13556852.8847,2.0211973143e-05,0.0,5652639.86244,683.048216665,652.340747912,66542353.633,1792.75766782,42272562.468,68354322.8162,4669.13577116,4660.16222839,0.0
0.988510986636,0.817618158648,1.00361418407e-05,-95088250.1116,1.49517378443e-05,0.0,5923833.16234,679.818807163,643.58978845,67171846.6629,1611.41123836,69990041.3343,70234160.4344,4103.30910553,4095.18699791,0.0
0.989625913888,1.01452892746,1.04051104051e-05,-95060871.4883,1.34472941867e-05,0.0,5920376.07591,678.788395869,643.658281915,67167908.6394,1611.36803819,69966007.3426,70214901.6976,4107.93716855,4099.87683358,0.0
1.06227816938,0.741476106474,1.0173615656e-05,-37110938.245,1.72794641145e-05,0.0,5796340.25801,679.39116727,648.28722994,66904559.3004,1710.62311951,34618902.3733,69980712.9155,4409.5166811,4401.11881773,0.0
1.02748933432,0.783055682077,1.01400908323e-05,-63550721.0618,1.57000485972e-05,0.0,5843828.86692,677.924428963,646.057597583,67009107.4751,1662.79027024,44933205.1124,70868371.4895,4265.10822676,4256.68780371,0.0
1.13669794407,1.0202243436,1.06472695239e-05,-9111341.23738,2.01763485731e-05,0.0,5542380.48745,683.313599957,652.972981341,66162700.0092,1805.59286952,44493214.4438,68023017.4719,4718.43316583,4708.44311911,0.0
1.11477953514,0.812331352869,1.01456586926e-05,-15727545.3869,2.05295681414e-05,0.0,5630439.95686,682.468881706,651.658010708,66447986.6836,1777.96271181,40760676.7202,69339011.4464,4627.44985037,4617.92899985,0.0
1.21499765295,0.734436490827,1.00884119862e-05,12293202.4944,3.11061931239e-05,0.0,13612844.8668,688.932012056,658.025206351,65007072.7377,1899.20764792,57714885.9879,66155180.6566,5043.4552574,5031.39623549,0.0
1.0225986754,1.01345753838,1.0088630076e-05,-68493310.1788,1.36077491511e-05,0.0,5870045.20865,677.781353202,645.764237824,67080421.4649,1656.0866253,48360229.7931,70783589.0374,4244.80710159,4236.46525457,0.0
0.984981944431,0.95997390334,1.01649783745e-05,-94908810.0747,1.39844334701e-05,0.0,5938632.95732,680.123491742,643.364674199,67209046.132,1610.72946351,69832132.6418,70072986.0104,4088.66005133,4080.67391236,0.0
1.2017589377,0.706317301987,9.83448660153e-06,8346033.42567,3.02605148429e-05,0.0,9829449.56564,688.322631311,657.212371714,65229041.3565,1884.27803543,54735869.8932,66514445.3348,4988.50135039,4976.63800753,0.0
1.13517132391,1.04036643034,9.92994691597e-06,-11061955.5163,1.90941410283e-05,0.0,5602464.56367,683.822835706,653.019099725,66382641.8801,1804.77289283,43729097.7258,67674018.6528,4712.09616555,4702.41235007,0.0
1.13287736853,0.942633768104,9.82666211723e-06,-11414072.5137,2.02704332364e-05,0.0,5605895.3707,683.787582247,652.868501722,66388707.2784,1801.79887551,43495386.5701,67558462.4406,4702.57395677,4692.9284945,0.0
1.10622951522,0.862038889622,1.02911983968e-05,-18158699.4184,1.92131749584e-05,0.0,5660782.55776,681.893976535,651.179675422,66535890.8605,1766.99607284,39628844.5185,68828799.8991,4591.95871768,4582.67912208,0.0
1.02469181767,0.625016759049,9.92122193088e-06,-66729669.1061,1.69606150707e-05,0.0,5907221.04397,678.015353744,645.907845318,67205821.597,1661.81098257,47128366.7626,70897395.1589,4253.49573515,4246.23693796,0.0
1.24073649991,0.810296406276,1.00798694463e-05,17923958.3802,3.17437357822e-05,0.0,19529162.3055,690.430702462,659.650638973,64847265.7719,1929.99327928,62410930.5921,66989657.0585,5150.29721113,5138.28449494,0.0
1.0307014329,1.02157967273,1.03990626086e-05,-59259243.5902,1.36595149931e-05,0.0,5820220.70707,677.708002748,646.25964422,66946984.1171,1665.65177869,42165702.2787,70605368.9545,4278.44164797,4269.54339917,0.0
1.17413847602,1.0515846416,1.01457929473e-05,2326032.84993,2.08159304984e-05,0.0,5417645.34962,686.046913422,655.478188282,65796137.7329,1850.89354774,51114281.2284,67038161.3382,4873.84881396,4862.93318457,0.0
1.1563114396,1.05341315921,9.88877493894e-06,-5237725.16583,2.08502560738e-05,0.0,5560393.9968,685.093553036,654.373751545,66271370.7822,1832.60703629,47120382.8714,68649232.9772,4799.84878578,4790.25162317,0.0
1.15463003736,1.09483173475,1.0056360866e-05,-3917971.02424,1.87243510941e-05,0.0,5529617.151,684.707645089,654.156430824,66154013.9543,1828.08406016,47851245.1434,68118256.4501,4792.86928508,4782.61887821,0.0
1.01060250591,0.97480452068,1.00190069736e-05,-80864845.7463,1.37261402432e-05,0.0,5897406.54278,677.791993191,644.99945341,67113635.2103,1639.74365336,57902619.0082,70823294.4767,4195.01100203,4186.8309046,0.0
1.17225008304,1.04668488828,1.05841211921e-05,2660700.70618,2.12364746092e-05,0.0,5401993.0108,685.656602442,655.343051674,65708031.3294,1848.20417428,51086274.0783,66953236.7633,4866.0100947,4855.14111602,0.0
1.07470909846,1.22114165636,9.99422421862e-06,-30912674.8258,1.27514621587e-05,0.0,5803063.53019,679.910225213,649.036847895,66940560.2655,1726.10697086,35434858.9026,69495406.0079,4461.11746771,4452.53673864,0.0
0.923319602177,0.999950714235,9.85161872289e-06,-92315639.0618,1.37322270288e-05,0.0,6154602.4143,690.210674853,639.41309861,67791732.8684,1606.75492146,67549072.8992,67791732.8684,3832.69966864,3826.84998567,0.0
1.07414722484,1.141976786,1.0333929151e-05,-30780489.5885,1.38572159433e-05,0.0,5785310.45231,679.893076547,649.129473352,66887930.728,1726.06027979,35230891.2543,69273051.9385,4458.78513031,4450.29641053,0.0
1.16833993367,0.865775715542,1.01903767359e-05,887081.853165,2.38155715597e-05,0.0,5431930.98512,685.788467419,655.138908217,65842174.9137,1844.67765741,50277084.9668,67452552.2671,4849.77906466,4839.17450499,0.0
1.06862344137,0.943033327772,9.67431982522e-06,-34506858.0212,1.50757933924e-05,0.0,5805826.02806,680.014235468,648.697616071,66937956.7607,1718.0198535,34839491.3813,70175559.3898,4435.85590513,4427.17360466,0.0
0.947571049394,0.903294241022,1.0136989481e-05,-93379721.0939,1.40408628577e-05,0.0,6088420.08199,685.864264241,640.974924651,67627117.8602,1608.52208037,68485724.0209,68703941.5335,3933.36742603,3927.16818705,0.0
1.16551586556,0.843922029594,1.05034637779e-05,-305650.621055,2.58122053772e-05,0.0,5423123.96413,685.503075533,654.959138574,65804834.9088,1841.82176871,49375431.9233,67354469.107,4838.05635794,4827.65174587,0.0
1.14333414203,0.971799045753,9.85058811309e-06,-7992856.02638,2.07542662136e-05,0.0,5577771.5952,684.310327359,653.490168268,66325871.1515,1815.16969579,45817990.914,68403025.3999,4745.98002357,4736.26933332,0.0
1.11761430581,0.915459625807,1.05000010764e-05,-14539454.2383,1.968665508e-05,0.0,5611575.88797,682.385741005,651.847204799,66384811.4879,1781.63603617,41396257.3318,68431218.65,4639.21698342,4629.64950445,0.0
1.03841902726,0.994024030548,1.03283755967e-05,-51891856.4939,1.38204307763e-05,0.0,5838557.94015,678.079219149,646.76868866,67014461.3756,1677.90694632,38304384.9272,70781961.0312,4310.47738216,4302.05660978,0.0
0.934630325981,0.851968510349,9.61052901105e-06,-92939893.6935,1.451951779e-05,0.0,6120575.0627,689.166785239,640.139258241,67680826.4905,1609.61788688,68098469.7177,68308928.7781,3879.65048315,3873.31623489,0.0
1.13833762415,0.888717039305,9.4945252269e-06,-10760378.5571,2.07700323906e-05,0.0,5553655.60783,684.424277874,653.211086014,66238470.82,1807.27438193,43971173.0725,67723075.471,4725.23947785,4714.81096632,0.0
1.16619526668,0.833739080089,9.79161039726e-06,-448645.285087,2.3720369903e-05,0.0,5424552.22462,685.975369239,654.999616659,65824072.4821,1841.31184991,49769213.2241,67733839.2256,4840.87655199,4829.89251308,0.0
1.13923612643,0.935804025223,1.0119057614e-05,-9824357.184,2.12461311012e-05,0.0,5568898.91484,683.988891089,653.261561445,66290301.7811,1809.9564251,44538220.4295,68002823.5316,4728.96916081,4719.21767626,0.0
1.11949532153,0.746241319347,9.96665379648e-06,-14746891.0209,2.1955070731e-05,0.0,5583355.93459,682.984050285,651.950639086,66298238.0199,1783.06250401,41411005.8437,68575806.3684,4647.02507967,4636.93318188,0.0
1.14021118057,0.831548080809,1.02914785011e-05,-8797583.32355,2.31616895359e-05,0.0,5522515.14836,683.993041452,653.281144926,66133618.0098,1810.31373566,44819873.7023,68114780.3741,4733.01661055,4722.91570098,0.0
1.14320018759,0.806706137698,1.0230776329e-05,-8291274.33352,2.43290317609e-05,0.0,5564918.89997,684.130826761,653.469828749,66277072.4173,1816.11593305,45189798.5272,68277731.0771,4745.42397869,4736.02747653,0.0
1.10686111865,0.94009356338,1.01830769286e-05,-18262188.8496,1.81916176533e-05,0.0,5669853.8362,681.966906657,651.221381603,66564509.9617,1767.74389115,39606656.9361,68870532.9914,4594.58050352,4585.29056132,0.0
0.968216940096,0.741364639464,9.88637686856e-06,-94261598.2928,1.56844892925e-05,0.0,6009664.86595,683.595538023,642.296881644,67397781.8384,1613.13068557,69262085.1912,69491546.2719,4019.06851834,4011.9450746,0.0
1.20324110697,0.660514993216,9.58299014417e-06,8778386.07567,3.14395924939e-05,0.0,10239837.1017,688.489204021,657.329821172,65459959.0362,1888.11711521,55262096.3545,66778115.9133,4994.65383503,4983.54961812,0.0
1.06479980421,0.918040697426,1.01670958065e-05,-36029535.983,1.54974310612e-05,0.0,5801317.60581,679.469109435,648.453093143,66923864.142,1713.81417402,34640783.1199,70059160.0515,4419.98398728,4411.54674392,0.0
1.07107748998,0.948169697179,9.85359314031e-06,-33987821.6597,1.55476793258e-05,0.0,5809139.86194,680.015338122,648.8545367,66958536.7932,1722.5025366,34798459.1929,69984396.7395,4446.04266091,4437.69774043,0.0
1.08835772022,0.874325531258,1.00622496758e-05,-26391840.4575,1.76136302103e-05,0.0,5746742.24232,681.016294897,650.04891299,66793443.0575,1745.2412053,36070542.3456,69243928.6167,4517.77289663,4509.16001706,0.0
0.945025247769,0.929446265667,9.88199788246e-06,-93334818.49,1.40145455505e-05,0.0,6105302.85606,686.930979508,640.812476009,67671609.4421,1610.52787458,68446109.2098,68663205.4604,3922.79980349,3916.63681899,0.0
1.10470493981,1.17574798039,9.52510863042e-06,-22070172.1959,1.47487649239e-05,0.0,5743408.78066,682.240734784,651.128256965,66791245.6218,1766.30521447,37666481.4095,68772555.4089,4585.63020515,4576.65892746,0.0
1.04681549522,1.19224729786,9.98200697061e-06,-49484141.1687,1.2426514902e-05,0.0,5881321.38254,678.601850137,647.32087755,67164060.5467,1691.02735493,37419503.6757,70683471.8115,4345.33112066,4337.75509114,0.0
1.0693085228,1.07987734328,9.71150197369e-06,-35206510.3781,1.38040302293e-05,0.0,5828973.18334,679.976132937,648.749383839,67018855.3431,1720.13068917,34726726.2852,70244725.0995,4438.69967814,4430.38225107,0.0
1.02445502092,0.987478615077,9.68648309831e-06,-69436845.4108,1.36464252404e-05,0.0,5936578.96456,678.127946532,645.902838945,67291670.0584,1661.22908662,49070633.423,71009253.0454,4252.51279184,4245.25737422,0.0
1.12441443171,0.866314483214,1.04178856039e-05,-13221640.3979,2.15868289059e-05,0.0,5633242.33642,682.859614527,652.315664838,66470290.0456,1792.36447547,42377813.3711,67929084.7831,4667.44430603,4658.47721308,0.0
1.02183907086,1.05998431614,1.01748681143e-05,-68532876.4748,1.31397929747e-05,0.0,5871554.02727,677.654589537,645.71430017,67084159.1909,1655.05745739,48383143.0556,70739719.4135,4241.65398314,4233.32431354,0.0
1.13791389694,1.08274297017,1.04900415464e-05,-9621956.76835,1.96681668873e-05,0.0,5602163.14083,683.528816289,653.165631962,66398582.8993,1809.40378468,44361918.2059,68043425.7553,4723.4805862,4714.29940984,0.0
1.15126074502,1.0098997959,9.6751817498e-06,-5990532.44692,2.05369635396e-05,0.0,5559802.34905,684.814773198,653.951409854,66272839.2256,1824.98223425,47016272.1938,68888078.7998,4778.88335258,4768.94742662,0.0
1.10227724049,0.843197167847,9.52946770501e-06,-22442106.892,1.81681696192e-05,0.0,5681847.64794,682.275841597,650.940330302,66584101.0387,1761.36510164,37388974.1725,68871104.071,4575.55282527,4565.86163175,0.0
1.12963701459,0.887328128445,9.60806864618e-06,-12617613.4338,2.05195736901e-05,0.0,5623385.21288,683.73288481,652.647523939,66448359.6422,1797.77370646,42776964.9633,67985542.0277,4689.12324756,4679.53227022,0.0
1.08341519086,0.922881950646,1.00881677073e-05,-28071052.5665,1.66784600987e-05,0.0,5762620.06766,680.716572923,649.754558618,66835503.2314,1738.73154699,35775038.5011,69272778.1925,4497.25645726,4488.72064255,0.0
0.971399030934,0.968419538917,9.55853473742e-06,-94472757.9671,1.41028370268e-05,0.0,6029223.83898,683.95766309,642.504892205,67464092.9429,1617.09186242,69447948.6634,69680952.6822,4032.27737741,4025.13617319,0.0
1.0769513395,1.03142129989,1.00834088733e-05,-30425980.223,1.49786451028e-05,0.0,5776742.3255,680.280980196,649.312475604,66870678.9876,1729.4948394,35383243.899,69319602.7275,4470.42501026,4461.79871965,0.0
1.07995004019,0.883852490303,9.70088030304e-06,-30643535.4999,1.66141068388e-05,0.0,5789714.13963,680.602021986,649.384509053,66917846.1996,1734.22188538,35407730.7925,69382129.6309,4482.87261683,4474.39066199,0.0
1.08204497834,1.10383000705,9.73896492269e-06,-29746065.4656,1.42679523608e-05,0.0,5797441.52492,680.610760459,649.525956258,66946229.4215,1736.7999596,35659784.1995,69438286.4991,4491.56870509,4483.05420472,0.0
1.19237675034,0.831936855705,1.02433037973e-05,7106016.78934,2.65685794197e-05,0.0,8545804.38298,687.308586593,656.65505077,65471170.198,1873.44807183,53751409.3293,66482265.8919,4949.55589066,4938.43882647,0.0
1.00470482744,1.0483079742,1.00837701867e-05,-89869017.3863,1.2850223488e-05,0.0,5967510.53868,677.662799565,644.645725334,67334484.1879,1634.39557391,65445236.5905,70949668.8244,4170.5297387,4163.46694025,0.0
1.02840089068,0.671947165689,9.36784237638e-06,-67644662.73,1.66706861596e-05,0.0,5923013.5099,678.648401103,646.159947847,67254256.115,1666.58099613,47806206.703,71199800.887,4268.89209721,4261.58027665,0.0
1.07680628739,1.30608590512,9.94392615737e-06,-31231829.472,1.22403543916e-05,0.0,5813199.70044,680.085823082,649.176029251,66989548.7561,1729.80186696,35285771.1852,69643083.5886,4469.82289896,4461.38968727,0.0
1.09701071358,0.705966862468,1.0035471828e-05,-23481588.6916,2.08663947079e-05,0.0,5708578.69406,681.625584465,650.60849741,66688243.791,1756.60344519,36957738.8868,68982822.6798,4553.69147207,4544.94265804,0.0
1.05111860798,1.07999399023,1.0219430069e-05,-44782471.4485,1.35446659427e-05,0.0,5809764.12768,678.729938289,647.568946636,66944864.2427,1694.16706554,35724480.7384,70439841.2093,4363.19334173,4354.39014995,0.0
0.971519550072,1.01087900317,9.79689575281e-06,-94646040.118,1.35025510226e-05,0.0,6049658.36251,682.891582739,642.519277454,67531620.496,1613.95884475,69600358.0578,69834230.5258,4032.77765235,4026.18117441,0.0
1.11877788489,0.984934442828,1.01797540907e-05,-14449442.3671,1.86228304002e-05,0.0,5624703.71744,682.620514678,651.91412556,66433179.3929,1782.6991777,41636606.1313,68670288.1316,4644.04700018,4634.3602732,0.0
1.06098405952,1.05740949967,1.02217514421e-05,-38734865.4833,1.4043788341e-05,0.0,5802108.752,679.198533723,648.198197424,66926042.354,1708.09831675,34723941.9969,69828522.8617,4404.14483107,4395.50957996,0.0
1.08207928022,1.1303013789,9.61685628506e-06,-30120307.3188,1.39136664684e-05,0.0,5804069.53152,680.681516555,649.525945808,66964383.3372,1736.82425224,35601317.2077,69469324.8795,4491.71109219,4483.19605851,0.0
1.11810661877,1.22807763624,9.76615505445e-06,-17496659.2595,1.53290798715e-05,0.0,5695087.29031,682.761672768,651.899324923,66656859.0006,1783.51137508,40093139.2094,69375700.3372,4641.26057451,4632.07534778,0.0
1.10676761192,0.896090798188,1.01566110378e-05,-18338175.6638,1.87016617851e-05,0.0,5667807.91789,682.002704048,651.217519177,66557481.2558,1767.66784988,39571180.8264,68850385.1196,4594.19235708,4584.90394696,0.0
1.09833423953,0.885510569538,9.69467696898e-06,-23805045.4306,1.78429595867e-05,0.0,5731906.81137,681.832484877,650.676763008,66749071.0691,1758.08942153,36944107.8457,69226855.2101,4559.18542829,4550.31722454,0.0
1.15701009381,1.03866894086,9.89090925034e-06,-3461252.11797,1.94960365735e-05,0.0,5517938.63397,684.99699811,654.308926162,66110206.5096,1831.00996289,48151932.5437,68364875.361,4802.74889941,4792.36647607,0.0
1.12851012775,0.969262171049,9.54153941301e-06,-13059420.9465,1.9109304002e-05,0.0,5614268.69354,683.685488507,652.549958011,66411659.5499,1795.31016933,42515525.6526,67878396.619,4684.44554029,4674.46988278,0.0
1.17726387406,0.941077245787,1.04416608029e-05,3385711.44896,2.34111076357e-05,0.0,5458829.96462,686.126883655,655.645023641,65651674.5038,1854.73653073,51493194.1389,66889124.2864,4886.82234122,4875.8496574,0.0
1.08144240805,0.901189530901,1.01838439881e-05,-28451640.2854,1.68513196687e-05,0.0,5762705.5144,680.54557871,649.630892009,66833332.9514,1736.15204072,35657964.8745,69236352.5079,4489.06743582,4480.5623018,0.0
1.15316778302,1.30410617218,1.0172102114e-05,-6038422.77148,1.7490097477e-05,0.0,5582597.57724,684.61222517,654.175515488,66351448.7595,1828.63758103,46571035.0961,68665252.0476,4786.79946732,4777.34942009,0.0
1.16005175651,0.727136304683,9.75455312807e-06,-3347359.57205,2.68488321378e-05,0.0,5485086.13711,685.717302536,654.645538155,66031229.896,1836.47239089,48171429.5659,68188131.8345,4815.37484127,4805.26232912,0.0
1.03171506939,0.743117204912,9.55156022776e-06,-62251068.4273,1.60220750479e-05,0.0,5848556.49846,678.617268302,646.347491862,67022180.6704,1667.82961268,44122095.3203,71017454.5131,4282.64925304,4273.94559439,0.0
1.16783420393,1.04357068463,9.92701894887e-06,-818266.841467,2.19709484793e-05,0.0,5512989.49182,685.822814834,655.130034497,66138013.7411,1846.56678077,49551385.3286,67886552.9302,4847.67978051,4837.87032141,0.0
1.08739575116,0.977931549105,9.57370727423e-06,-27898774.8869,1.58375124452e-05,0.0,5775067.59274,681.283087914,650.012310728,66876447.1761,1743.70242916,35965136.1536,69458342.9836,4513.77976307,4505.08458097,0.0
1.2696217533,0.788577506037,1.01240034911e-05,23388880.7075,3.53536641081e-05,0.0,25228096.9172,692.316685768,661.476139317,64319688.9449,1961.89797251,66494626.7115,67393537.0024,5270.19989795,5257.4679727,0.0
1.12255424531,0.836639408575,1.02436655692e-05,-13830995.7,2.09742472881e-05,0.0,5599067.71946,682.907965834,652.172641416,66350369.527,1788.0486636,41895172.0643,67971619.3986,4659.72267228,4650.07273542,0.0
0.990493140095,0.799921609078,9.6700325172e-06,-95281001.6731,1.55412207857e-05,0.0,5985512.88109,680.852295544,643.735165734,67365180.2812,1620.31451927,70159524.4782,70402946.2424,4111.53702453,4104.41495463,0.0
1.00824683561,0.866424485297,9.57016705054e-06,-92377125.0943,1.48379229561e-05,0.0,5892184.26517,678.641572217,644.852206933,67096549.7655,1635.62554998,67616230.9976,70868859.5886,4185.23261462,4176.70941289,0.0
1.18478985269,1.02755862332,1.03529216142e-05,4924851.67506,2.22393570402e-05,0.0,6495617.20571,686.585818972,656.126716867,65649831.8894,1864.11706583,52435876.7515,66824587.8292,4918.06267852,4907.06287575,0.0
1.14817092158,0.931848251142,1.01369341455e-05,-7384735.71096,2.25964516113e-05,0.0,5570807.38062,684.476633987,653.835814838,66308359.9041,1822.69774823,45749532.2837,68592566.6604,4766.05749548,4756.68765178,0.0
1.08653886186,0.762226103129,1.05280117262e-05,-25745989.2142,1.94529397009e-05,0.0,5729355.59383,680.607376697,649.912284179,66735443.8126,1743.25392537,36143398.7002,69013118.3763,4510.22281558,4501.73588516,0.0
1.10671680292,0.969619406632,9.93221743369e-06,-18561703.0661,1.75479208871e-05,0.0,5651489.94792,682.168971585,651.210613315,66499794.6002,1766.31620431,39409754.372,68827164.2218,4593.98144892,4584.11134814,0.0
1.14237607849,0.918624473463,9.86676052132e-06,-7962573.21479,2.13517482657e-05,0.0,5550150.01242,684.186944701,653.338930576,66231997.0992,1812.8630023,45770889.7408,68345961.2231,4742.00310181,4731.89588929,0.0
1.1234299554,1.18432086516,9.62800300833e-06,-14379100.3167,1.58326673283e-05,0.0,5648371.38458,683.185297708,652.217470876,66512045.8865,1788.60157398,41781262.0811,68860394.4914,4663.35774487,4653.49365782,0.0
1.13247663736,0.908631011853,1.02966906592e-05,-11424577.4744,2.16906959405e-05,0.0,5615414.71886,683.441715483,652.856722361,66426515.9191,1802.71064631,43446133.4827,67660896.2578,4700.91052168,4691.81632304,0.0
1.1173337133,1.03162143751,9.9606055126e-06,-15567402.0643,1.77703551901e-05,0.0,5669510.32101,682.623121017,651.83064187,66570394.0923,1782.00282103,41025192.9934,69362645.9264,4638.05224391,4628.78863709,0.0
1.11334921694,0.8633071282,1.0009433241e-05,-16547230.0246,1.96237911619e-05,0.0,5666943.69113,682.455707956,651.602365179,66556781.2297,1777.00644266,40515244.4131,69217532.2463,4621.51259952,4612.31447387,0.0
0.99004941635,0.855839504084,1.0378926688e-05,-95055395.7115,1.46536524819e-05,0.0,5912191.56928,678.859258103,643.686993083,67143025.396,1612.01065818,69961209.3536,70209723.7755,4109.69512727,4101.62801221,0.0
1.15293724381,1.1670409394,1.02834826023e-05,-5747649.39888,1.93678044695e-05,0.0,5566128.55915,684.655128373,654.208266491,66301391.5295,1828.40998757,46636228.5847,68563625.7813,4785.84249906,4776.39447095,0.0
1.13959328285,0.848721295162,1.00505536344e-05,-9908377.00139,2.3047717939e-05,0.0,5598306.82678,684.060633421,653.300394662,66376128.6303,1811.97244062,44389734.0304,68019788.1246,4730.45171711,4721.21724649,0.0
0.999841493306,1.1839593477,9.98295231466e-06,-95668222.8714,1.19050698852e-05,0.0,5920449.20771,678.445257611,644.314646025,67176273.4595,1624.52793185,70500774.9479,70788749.2848,4150.34203871,4142.03876935,0.0
1.06092235645,1.11406393023,1.03004118019e-05,-37698496.1311,1.33933572563e-05,0.0,5821162.22611,679.081689092,648.199943928,66984418.4959,1708.84843446,34659700.011,69981497.9582,4403.88870162,4395.60501531,0.0
1.02814078954,0.698232282164,1.00648581931e-05,-63534602.4101,1.65147330647e-05,0.0,5839758.58414,678.051988744,646.10050942,66997037.0984,1663.70630588,44919936.562,70891113.6325,4267.81241738,4259.38150518,0.0
1.06468628746,0.890169383318,9.71018921688e-06,-37904667.5945,1.55778921238e-05,0.0,5817406.79632,679.816081913,648.445510012,66976081.9739,1713.64775183,34707675.3214,70129614.1365,4419.51277925,4411.07731029,0.0
1.03382981268,0.844214907853,1.01169563683e-05,-56694141.0179,1.51198120397e-05,0.0,5839249.30404,678.133383113,646.472400539,67004835.3065,1671.35320194,40744793.4666,70921307.5357,4291.42755243,4282.90568897,0.0
0.993268344454,0.976537007529,9.81286292438e-06,-95331422.8576,1.41044869065e-05,0.0,5931164.69451,679.834595214,643.896995018,67198040.5862,1616.38384081,70204169.9775,70449418.5588,4123.05689783,4114.9379726,0.0
1.08706719253,0.9801036707,9.4975453613e-06,-28244484.8749,1.57409890478e-05,0.0,5779241.68846,681.318947391,649.994923459,66888005.3604,1743.2703698,35926081.4225,69480435.3127,4512.41591619,4503.72590963,0.0
1.09771161875,1.12304148266,1.01936350995e-05,-23009123.5464,1.54323828542e-05,0.0,5732404.45484,681.383339972,650.671634837,66751972.3186,1757.23505621,37121420.7089,68842353.22,4556.60092943,4547.84142724,0.0
1.1381157037,0.628407544408,9.76241188116e-06,-9477316.2883,2.62045356869e-05,0.0,5535793.7893,684.267458398,653.119992669,66179508.9717,1807.98449726,44845315.2484,67865002.2827,4724.31828606,4714.28171353,0.0
1.05832417126,1.01310694685,1.02555032506e-05,-39055025.254,1.43071794423e-05,0.0,5822741.17846,679.017131244,648.033718359,66983525.2293,1705.4643345,34745761.3265,69763348.5524,4393.1036349,4384.86003469,0.0
1.03396117865,0.856803209562,1.02471968914e-05,-55527731.9573,1.50028553342e-05,0.0,5834965.56206,678.018627345,646.483210418,66990740.0131,1671.5257159,40117753.702,70872447.5968,4291.97285258,4283.44766958,0.0
1.09497793519,1.23154613536,1.02454392273e-05,-23748914.7985,1.41144435841e-05,0.0,5744491.73928,681.123903399,650.471264973,66785359.4491,1753.59030701,36842106.9044,68983602.116,4545.25340897,4536.53686195,0.0
0.976547730742,0.880337358388,1.01031186245e-05,-94630810.1781,1.4390834355e-05,0.0,6007412.25073,681.641516398,642.83647129,67415993.7153,1613.03654255,69587046.4879,69822233.1356,4053.64963031,4046.73037475,0.0
1.01260542335,0.791776706522,9.6601810944e-06,-83985462.5861,1.51060981421e-05,0.0,5958973.63579,678.148922883,645.159380939,67317240.8924,1645.42883395,60473907.767,71422201.4593,4203.32511233,4196.23795426,0.0
1.09146889649,0.950829547391,9.82678371779e-06,-25884397.8626,1.67061920314e-05,0.0,5756086.51818,681.311255516,650.233560084,66821179.3348,1749.39643013,36319586.9649,69348658.5828,4530.68738933,4522.02574522,0.0
0.994144076878,0.922228537792,1.01521963138e-05,-95285797.4514,1.43710788209e-05,0.0,5913681.07637,678.889597344,643.951352387,67150903.5439,1617.30030152,70164045.0366,70392411.675,4126.69206312,4118.55907391,0.0
1.09464755564,0.835404023931,9.49811434679e-06,-25580181.6253,1.80208698205e-05,0.0,5747233.91164,681.761050737,650.423988121,66800290.2199,1753.32881286,36480451.2015,69373835.7764,4543.88200346,4535.07226964,0.0
0.95127031323,0.787910566366,1.02865477076e-05,-93392998.1489,1.48673208346e-05,0.0,6052916.13204,685.195448301,641.207431827,67523309.2698,1608.28569115,68497480.1594,68717159.4412,3948.72307022,3942.18791779,0.0
1.16820773477,1.01978012859,1.05725101451e-05,1685321.45632,2.13936374464e-05,0.0,5415097.43708,685.436648095,655.099914326,65744017.2963,1843.31838374,50512838.5619,66843127.4006,4849.23030703,4838.43282815,0.0
1.04690813555,1.02970213402,9.58003857449e-06,-49757783.8947,1.36528151402e-05,0.0,5837873.92023,679.063910815,647.310375598,67018203.2397,1688.23847669,37500759.4781,71256711.4558,4345.71567067,4336.8931171,0.0
1.0647625322,0.885381588674,9.8148182756e-06,-36929975.5665,1.55849763576e-05,0.0,5775699.67611,679.761748471,648.434643828,66841274.049,1711.59166007,34740058.6642,70064594.992,4419.82927116,4410.65961897,0.0
1.12993443728,0.972156925919,1.00658216666e-05,-11147862.3656,1.98663104725e-05,0.0,5611845.54679,683.390782452,652.682311449,66399671.1626,1797.69478908,43773012.7368,67609394.8079,4690.35784915,4680.88611604,0.0
1.17262866275,0.959824529833,9.85353390589e-06,256778.843484,2.39151299212e-05,0.0,5498500.40734,686.202317609,655.435320547,66083855.6248,1853.04263576,50221382.9634,67776963.2162,4867.58157908,4857.80362604,0.0
1.24582402208,1.11135069222,9.99034553993e-06,18942034.6248,2.54496563078e-05,0.0,20558055.5436,690.522928532,659.959370441,64968336.6767,1935.56773349,63240365.026,66136710.5094,5171.41551565,5159.42929659,0.0
1.13182817092,0.800526691254,9.93596869733e-06,-10718571.4531,2.23640204607e-05,0.0,5592613.75328,683.697085665,652.804594389,66350453.2183,1800.35327311,43988878.334,67586495.8858,4698.21873749,4688.62020389,0.0
1.11495039288,0.932194061481,1.01717683696e-05,-15698746.077,1.89182903684e-05,0.0,5639703.46021,682.395979767,651.668520654,66478585.887,1778.04366705,40875851.5368,69286298.1422,4628.15908084,4618.63630398,0.0
1.10856896891,1.10152468302,9.72575206341e-06,-20559695.0647,1.61128105853e-05,0.0,5715994.58995,682.35291053,651.358865689,66719692.3079,1771.20683794,38316382.0656,68856731.4367,4601.66978995,4592.637801,0.0
1.09203309522,0.984212320682,9.51926204048e-06,-26454762.9335,1.60926191985e-05,0.0,5764835.16747,681.558926551,650.286227247,66851062.1943,1749.7701879,36285842.6123,69461359.6108,4533.02937826,4524.26101368,0.0
1.21586805828,0.736778542378,1.03717167995e-05,12686813.0536,3.15900496306e-05,0.0,13911700.8297,688.817675343,658.088322317,64993991.865,1900.50522816,58025478.401,66218269.0083,5047.06830992,5035.18984763,0.0
1.05894285514,1.22728117424,9.89806305306e-06,-40926133.3295,1.22377465358e-05,0.0,5826043.47114,679.256644524,648.05410587,66997801.8398,1704.96671069,35042835.8759,69753027.315,4395.67179169,4386.97790044,0.0
1.16229471355,1.21247922656,1.01473906077e-05,-4426087.19593,1.91015600903e-05,0.0,5448814.86569,685.401137191,654.75642649,65909091.5607,1836.60428157,47022683.134,67813107.6835,4824.68535595,4813.69834272,0.0
1.21206511923,0.806203818459,1.03808429937e-05,11744788.647,2.92766234483e-05,0.0,12978218.1503,688.481879747,657.836517389,65090211.121,1895.94808912,57273051.1196,66118508.4231,5031.28230992,5019.4715119,0.0
1.03002361792,0.863353640932,1.0428625999e-05,-59576482.7419,1.51164045512e-05,0.0,5810204.74998,677.723757617,646.217000789,66915481.5895,1664.87631848,42353732.1655,70557817.659,4275.62803799,4266.74116524,0.0
1.00530418467,1.11201709066,1.00107343886e-05,-90624106.4953,1.25533274218e-05,0.0,5901859.08179,677.993106855,644.660802504,67127468.9737,1631.86551707,66085153.1858,70821380.4583,4173.01767057,4164.62302053,0.0
0.983006472732,1.03476947378,1.02217273903e-05,-94832930.7892,1.32674815793e-05,0.0,5946367.73597,680.215557341,643.237642231,67229038.0138,1609.7032036,69765298.1287,70004893.5244,4080.45986831,4072.50500887,0.0
1.15951113113,0.867291064519,9.71867144638e-06,-4606099.22596,2.38154572606e-05,0.0,5506039.33941,685.555666037,654.564272052,66110370.97,1835.64640207,47281368.612,68350613.8519,4813.13070532,4802.99916662,0.0
1.16609426833,1.05748914472,9.89049584682e-06,-114233.241502,1.98890737993e-05,0.0,5447516.38666,685.736324538,654.9908296,65896752.7112,1840.63733916,49964975.305,67777810.0093,4840.45730784,4829.47664143,0.0
1.10996792893,0.977758544857,1.01727205817e-05,-17396292.3024,1.80238392227e-05,0.0,5663194.08398,682.124924178,651.403949941,66548924.8922,1771.73035762,40027362.4031,69059352.0894,4607.47687299,4598.13596912,0.0
1.06833022983,0.863966384984,9.91762702699e-06,-35395597.5731,1.6179267456e-05,0.0,5798662.82171,679.870336892,648.682179098,66929122.3699,1718.47869093,34687899.7665,70065240.146,4434.63878402,4426.14628005,0.0
1.11970012536,0.896697077315,9.86709708508e-06,-15068707.8743,1.97113735242e-05,0.0,5655419.94995,682.901329465,651.983475498,66529932.5556,1785.20878279,41299671.0539,69177283.2122,4647.87522037,4638.57318666,0.0
1.02877909471,0.948024062414,1.00485525233e-05,-62550953.7893,1.41528590769e-05,0.0,5860306.23875,678.000557367,646.158173592,67062558.0489,1664.77164939,44288071.9862,70988642.2197,4270.46202214,4262.10684297,0.0
1.02979042811,1.11928242629,1.03170519514e-05,-60187581.8875,1.27652604157e-05,0.0,5852382.2986,677.712494845,646.215064595,67040726.19,1665.66264653,42781238.4002,70965929.5433,4274.66006708,4266.20257023,0.0
1.1329345506,1.01002894262,9.93690280647e-06,-11047711.6438,1.96575383258e-05,0.0,5632671.88917,683.638545784,652.889033408,66483112.2402,1802.73834521,43916939.1263,67745321.2227,4702.81131954,4693.60708646,0.0
1.08983186741,1.12105379902,9.96916467322e-06,-26238840.0297,1.47279165703e-05,0.0,5763978.61144,681.048728363,650.133988352,66847732.8909,1746.96794111,36189054.9431,69313489.975,4523.89208162,4515.25616196,0.0
1.2493743276,0.826081041579,9.87813073078e-06,19709518.7786,3.18221884607e-05,0.0,21308198.999,691.039420487,660.175915254,64783700.8788,1940.14567307,63814704.9875,64855517.3213,5186.15283387,5174.04308503,0.0
1.02644423935,0.809253901107,1.01249567843e-05,-64400407.9505,1.54244003304e-05,0.0,5848467.75501,677.902669831,646.001602255,67019922.9365,1661.34947994,45495288.3563,70830909.9923,4260.77003754,4252.34618419,0.0
1.11506772945,1.14891617422,9.87791516858e-06,-16442121.8743,1.59724813819e-05,0.0,5689681.05964,682.507726023,651.708985779,66642021.2153,1778.98680242,40646954.2649,69370208.1144,4628.64614495,4619.41927393,0.0
0.975758195201,0.938220042459,9.92608952738e-06,-94778540.072,1.41126847713e-05,0.0,6030803.98163,681.966902218,642.790781393,67482707.2482,1613.69069018,69717110.7379,69953120.9843,4050.37226828,4043.71733296,0.0
0.963452455918,0.920539378113,9.94509221985e-06,-94056655.5438,1.44716357894e-05,0.0,6057680.61748,684.399568704,641.998608548,67558697.6993,1615.49397449,69081724.0454,69307796.083,3999.29114452,3992.87839293,0.0
1.11425715691,0.814083710511,9.28970740468e-06,-19889857.1163,2.00360395669e-05,0.0,5709427.75568,683.096507737,651.71998005,66712558.6988,1779.73842003,38676667.8651,69052878.0626,4625.28145833,4616.36066613,0.0
1.1476809863,0.755686776614,9.91842028509e-06,-7484168.37545,2.48734973939e-05,0.0,5507385.07881,684.748794222,653.767926891,66092551.4614,1820.16167634,45724087.0896,68496282.2379,4764.02377413,4753.82188295,0.0
1.16176281341,0.938612735874,9.77209917058e-06,-2780054.30711,2.32163418298e-05,0.0,5531812.4478,685.620484517,654.759588595,66186367.9286,1839.27841148,48610226.8065,68445901.165,4822.47743846,4812.76740232,0.0
1.14579250969,1.08631986161,1.02951646674e-05,-7728778.76537,1.99968477662e-05,0.0,5585254.5122,684.131742175,653.668547068,66352013.237,1819.43472594,45524804.4513,68512985.711,4756.18470772,4746.8529418,0.0
1.08805775217,0.881806974833,9.73470037401e-06,-27161579.3224,1.70784815273e-05,0.0,5759595.3102,681.241465333,650.044181068,66832894.0888,1744.64290763,36037310.1361,69381439.2277,4516.52772926,4507.82211536,0.0
1.11949034973,0.713157886296,1.02496601516e-05,-14544624.752,2.2715216484e-05,0.0,5595687.60375,682.785892248,651.96950743,66334593.6395,1784.30420798,41410996.5487,68475350.3289,4647.00444173,4637.40472319,0.0
0.956994560551,0.726681314574,1.03400898129e-05,-93642106.148,1.5538247687e-05,0.0,6030085.63144,684.243226265,641.574992875,67459696.8913,1608.94897461,68716767.0379,68938130.4794,3972.48442085,3965.83985004,0.0
1.02701372593,0.936424158603,1.01633021546e-05,-63864195.2611,1.43593365378e-05,0.0,5852631.69621,677.832194584,646.028252978,67036091.0276,1662.06449756,45140228.9371,70865221.4468,4263.13397634,4254.72120777,0.0
1.15309801859,1.03377342915,9.7077121489e-06,-5454244.29066,2.03745330013e-05,0.0,5554585.97261,685.029088919,654.170686266,66261039.0023,1827.42531883,47237908.008,68796151.0398,4786.50987517,4776.59581768,0.0
0.995866723762,0.779919163201,1.00817073148e-05,-95371005.3091,1.52949825585e-05,0.0,5902753.52341,678.777666469,644.059572886,67116790.9472,1619.51809548,70239145.9743,70603508.6165,4133.84277034,4125.60152952,0.0
1.11656239499,1.1300764925,1.05001839342e-05,-14888995.3279,1.67346483423e-05,0.0,5633055.70829,682.210181064,651.777593246,66449796.6974,1780.08188318,41223367.9553,68699578.4087,4634.8505016,4625.29961555,0.0
1.05492587723,0.881078291225,1.0273543586e-05,-42558444.9863,1.55827211874e-05,0.0,5794573.305,678.936177362,647.795417539,66898116.1354,1699.90886483,35155950.0011,70205441.5266,4378.99731638,4370.31115154,0.0
1.10898478254,1.10038167717,1.00697863085e-05,-19604042.4519,1.64292482962e-05,0.0,5699107.23881,682.126967339,651.366785479,66660843.277,1771.64207554,38751348.4585,68893859.0634,4603.39583232,4594.35626507,0.0
1.13816160583,0.953320007814,1.01265196592e-05,-10102054.9233,2.12060544891e-05,0.0,5602099.84823,683.883790048,653.214878814,66383292.6226,1809.69079272,44262108.7775,67966968.7237,4724.5088258,4715.21806541,0.0
1.00969787194,1.06548079094,1.01303345967e-05,-85058990.0977,1.30128492519e-05,0.0,5883392.31385,677.679925916,644.93992793,67079537.3203,1637.79169759,61366144.7981,70704552.8955,4191.25586642,4182.78931296,0.0
1.10405103484,0.878735964052,1.04647070644e-05,-18110247.1369,1.87885538401e-05,0.0,5657093.14422,681.642777724,651.038100119,66519421.1974,1763.92513415,39533802.9895,68751256.4231,4582.91584562,4573.57416108,0.0
1.09076414587,0.86080492907,1.00632550756e-05,-25567603.0129,1.79788861467e-05,0.0,5738831.23106,681.128300065,650.173608046,66772752.8901,1748.39925243,36264830.8038,69184309.1046,4527.76196951,4519.11146587,0.0
1.19823290592,0.926529897794,9.60318351985e-06,7337946.45589,2.41033694213e-05,0.0,8871551.38259,687.981945688,657.029825445,65564591.8446,1880.66360181,54285533.3554,66723335.0892,4973.86479247,4962.50023598,0.0
1.23710378206,0.976219086412,1.01222915472e-05,17217582.8711,2.78534778063e-05,0.0,18796117.2026,689.797540288,659.298418926,65076819.0581,1926.22033593,61957164.7868,66959086.2018,5135.21779933,5123.59691279,0.0
1.26285206914,1.01247087237,9.70678002358e-06,21787460.8718,2.8644591334e-05,0.0,23700662.8561,691.887544725,661.031566181,64629800.0701,1954.79237113,65447341.4606,66295065.9083,5242.098939,5229.45801729,0.0
1.21004940976,0.771203616134,1.00844535284e-05,10985455.6003,2.95528760532e-05,0.0,12287811.0404,688.514707844,657.672454682,65141299.2395,1893.93427933,56716484.3758,66307392.2005,5022.91509991,5011.11411268,0.0
1.00428170341,0.901194545193,1.01232141324e-05,-90596467.448,1.44790576599e-05,0.0,5886299.55937,677.946837379,644.594951879,67079938.1864,1630.68422346,66058632.3808,70710674.2601,4168.77335085,4160.39539852,0.0
1.2796819108,0.912807927544,1.03311009333e-05,25152891.6193,3.55342276559e-05,0.0,26789403.8682,692.778622311,662.034870794,64090937.7602,1972.70744032,67512186.0715,68456143.4574,5311.95961173,5298.81166798,0.0
1.21947755118,0.867140865951,9.65706345871e-06,12465391.2653,2.73271353114e-05,0.0,13734050.6355,689.301946503,658.319732016,65176818.0691,1905.35052403,58020771.8515,66310515.1932,5062.05131495,5050.08590978,0.0
1.04139400987,1.03766021957,1.04699134751e-05,-49538457.2271,1.38751505167e-05,0.0,5811758.92875,678.086167751,646.950885882,66936507.2534,1680.88146151,37329061.2922,70711149.1851,4322.82653497,4314.09492654,0.0
1.14160227342,1.04731480539,1.00850019613e-05,-9054440.26094,1.95275607974e-05,0.0,5556027.17478,683.971442052,653.293689163,66235754.5518,1812.02226098,44914310.2606,68220592.3713,4738.79103697,4728.69331654,0.0
1.12421964861,1.07136784352,1.02796699947e-05,-13431114.6603,1.78731080966e-05,0.0,5612207.89705,682.872377294,652.281538827,66394590.3182,1789.91817953,42229432.4617,67300425.0346,4666.63576138,4656.9579825,0.0
0.969453933789,0.903063409432,9.93540479377e-06,-94328316.1938,1.4463407436e-05,0.0,6012355.77749,683.223278167,642.376148745,67408800.1137,1612.81714544,69320810.0368,69550946.2502,4024.20327916,4017.06162263,0.0
1.1543235348,1.06892678614,9.75816148838e-06,-3690169.9286,1.86105506995e-05,0.0,5507750.06766,684.910430727,654.134650923,66087041.6027,1826.3100489,48211109.4429,68466868.311,4791.59699295,4780.85235567,0.0
1.19792115592,0.863149459157,9.9290769993e-06,7485440.00692,2.60473342741e-05,0.0,8980394.14233,687.86997281,656.982737573,65361299.5958,1879.14750417,54148057.1696,66496514.6587,4972.57071822,4960.80569903,0.0
1.15938709149,0.967007404112,9.92734204857e-06,-2747522.75675,2.09006096223e-05,0.0,5494578.33881,685.358674858,654.590438554,66041691.7391,1834.0089835,48470238.0065,68103520.436,4812.61581677,4802.19238426,0.0
1.15891608097,0.988209391705,1.00650290046e-05,-4318479.34706,2.25998144821e-05,0.0,5539160.91785,685.252420481,654.580881766,66220850.1875,1836.14932981,47479060.6334,68420088.2521,4810.66065211,4801.11611195,0.0
1.04811781943,0.857422118718,1.00884166605e-05,-45729433.263,1.54580454022e-05,0.0,5811478.43106,678.729825451,647.378065141,66938148.6716,1690.23415414,36105679.2846,70455243.5684,4350.73706845,4342.04018629,0.0
1.19871847618,1.14173714737,1.00137463109e-05,8746156.46293,2.09233150931e-05,0.0,10151166.3526,687.562905685,657.041283059,65594378.8358,1880.73597913,55162278.0512,66844989.4951,4975.88039462,4964.75302422,0.0
1.14176891337,0.649461472167,9.91232072344e-06,-9535793.71164,2.70499711106e-05,0.0,5575487.63399,684.397180349,653.427747423,66307484.0325,1815.05882861,44609781.3295,68038990.8427,4739.4827594,4730.21519355,0.0
1.18149591505,0.988248161351,1.03757988714e-05,4393569.46735,2.29494429927e-05,0.0,5951750.51903,686.433410004,655.898077257,65502884.7619,1858.67032822,52067461.5655,66782007.8479,4904.38954337,4892.92171969,0.0
1.29964659733,1.12642822507,9.48242979391e-06,27411421.7403,2.87021789064e-05,0.0,28910466.7031,694.191518904,663.300142494,64067490.8709,1995.44920503,68661957.5347,69770740.8031,5394.83302552,5381.23071796,0.0
1.03934603548,0.964296718462,1.01426942338e-05,-52410933.2227,1.40924906055e-05,0.0,5841902.4465,678.292341515,646.830917769,67023143.6174,1679.15582707,38566030.673,70928226.0726,4314.32539328,4305.8884361,0.0
1.02736306721,0.969550234793,9.81884592125e-06,-64478556.3748,1.38517399377e-05,0.0,5922926.09355,678.068809118,646.083900165,67258593.9646,1665.14340827,45609992.2454,70934908.3259,4264.58409199,4257.28712427,0.0
1.24640296294,1.17936202267,9.91011007849e-06,18719005.7762,2.3895613627e-05,0.0,20291359.9098,690.589733703,659.989193627,64902885.8743,1935.48120067,63018592.1151,65940256.5916,5173.81869916,5161.47028717,0.0
1.10082491747,1.11056235582,9.96843801293e-06,-22434699.2969,1.55784447193e-05,0.0,5735113.00182,681.731985958,650.876339952,66759010.393,1761.46604782,37398451.156,68724233.1013,4569.52423242,4560.7155928,0.0
1.12125635405,0.986765758309,9.87518387398e-06,-14542208.3623,1.86340654887e-05,0.0,5605043.48465,683.016691347,652.066646879,66366221.4628,1785.07482289,41571844.0933,68439312.7336,4654.33512566,4644.21257138,0.0
1.11243680098,0.852643293027,1.02802427347e-05,-16078708.1256,1.9818445333e-05,0.0,5635883.71018,682.223735137,651.51694965,66464578.9038,1774.86200535,40560225.7796,69241661.0161,4617.72516087,4608.24321553,0.0
1.13395176041,0.835252010173,1.07474851822e-05,-10019975.6279,2.35116870038e-05,0.0,5582185.33219,683.251737498,652.924756463,66296781.3396,1804.49199391,43998398.8093,67809562.3513,4707.03375746,4697.91538454,0.0
1.05434059257,0.899225330198,9.8388166932e-06,-44686060.0992,1.5376692631e-05,0.0,5800757.58877,679.263849119,647.772105735,66914371.3155,1698.27876408,35701732.6941,70403995.404,4376.56779976,4367.62110252,0.0
1.21171351976,1.08432142089,9.92002813828e-06,11302882.406,2.26534013411e-05,0.0,12579396.8167,688.400607495,657.794528846,65411764.6152,1896.26071273,57048296.3017,66663337.7968,5029.82282052,5018.34517582,0.0
1.08961846593,0.872127047667,1.02060225355e-05,-25549374.4759,1.78535011155e-05,0.0,5737360.33766,680.956459818,650.100346542,66766919.0292,1746.89427833,36280970.5517,69111802.1056,4523.00625208,4514.37291949,0.0
1.18845711346,1.00780721129,9.97320866273e-06,5357443.38922,2.24789502468e-05,0.0,6924866.93041,687.094742433,656.351188449,65545097.8467,1867.47159607,52840744.0645,66831444.9207,4933.28547797,4921.70245319,0.0
1.09436751835,1.02906860249,1.00432872642e-05,-24513926.5617,1.62483457645e-05,0.0,5741583.87383,681.28160938,650.407541012,66786656.1287,1752.96981766,36657761.4293,69083730.2071,4542.71956867,4534.01260153,0.0
1.10717545719,0.985200483833,9.67353947463e-06,-19726254.1987,1.73796810672e-05,0.0,5642817.30541,682.405306061,651.244836548,66472013.0623,1766.34369218,39000629.2422,68721827.5903,4595.8853228,4585.72269792,0.0
1.08962182705,0.916216412948,1.01146663966e-05,-25844520.826,1.72551130148e-05,0.0,5743871.76109,681.013850922,650.109704521,66787195.5151,1746.85740763,36242247.9748,69200513.3721,4523.02020408,4514.38756878,0.0
1.15664788102,1.22425996165,9.71641855433e-06,-4745463.72961,1.7829469656e-05,0.0,5554289.89477,685.152484425,654.38943117,66260203.8294,1831.60831001,47582579.077,68665852.2913,4801.24535411,4791.19032957,0.0
1.06012664728,0.745992994426,9.87978657156e-06,-38529935.5697,1.67404893006e-05,0.0,5779624.68708,679.536044426,648.134107974,66842032.634,1705.9302917,34634814.3488,69797050.9869,4400.58571286,4391.51083886,0.0
1.1377467458,0.961948107359,9.73062112015e-06,-10104925.7915,2.06627050846e-05,0.0,5628534.00478,684.083382333,653.199111572,66478936.7883,1809.32515726,44559904.3743,68000596.0799,4722.78674182,4713.58611664,0.0
1.12238226804,0.976108354776,1.0114378626e-05,-14185114.6363,1.95482039049e-05,0.0,5661630.74029,682.857823786,652.17988405,66567126.2905,1789.57818002,41892780.0827,68637657.4994,4659.00879463,4650.07453738,0.0
1.09971418074,1.04221038121,1.01290343712e-05,-22546115.91,1.65755646013e-05,0.0,5723411.82147,681.586768744,650.804128659,66726311.518,1759.91549385,37278962.7031,68550224.5561,4564.91356425,4556.12254052,0.0
1.17656261545,0.937447084713,9.80387026529e-06,2172164.30322,2.25951511008e-05,0.0,5405130.03327,686.497111906,655.632359596,65764586.2945,1854.19581707,51199573.0951,67011606.6544,4883.91141673,4872.8456911,0.0
1.0913364116,0.991967922492,9.7508037894e-06,-26071854.563,1.61816226989e-05,0.0,5768852.44852,681.347910192,650.239136807,66870601.661,1749.52788449,36365087.8546,69439122.1159,4530.13744455,4521.57565943,0.0
1.02427835084,0.9186755346,9.99329452783e-06,-66925819.833,1.43023404819e-05,0.0,5870974.16922,677.946486813,645.875076449,67086403.3023,1658.74135649,47250368.7842,70943871.4302,4251.77943434,4243.49605214,0.0
0.998648252304,0.677776599721,1.00003187321e-05,-95466811.7646,1.62953677604e-05,0.0,5892205.94317,678.73837182,644.238388316,67087403.6179,1623.28519626,70323577.1394,70714356.7622,4145.38889531,4137.10381114,0.0
1.11404089041,1.03262013332,1.01877901313e-05,-16022322.7539,1.74536162653e-05,0.0,5649767.35208,682.275583863,651.611080563,66509387.1465,1776.69620607,40729447.1644,69373110.0524,4624.38373609,4614.87509842,0.0
1.06315416663,1.00658699361,9.87986182964e-06,-37962822.381,1.43367035311e-05,0.0,5822137.88253,679.561393628,648.346877646,66990772.8256,1711.56648591,34702589.13,70074816.3357,4413.15294568,4404.74141054,0.0
1.25475321701,0.865869262806,1.00960804812e-05,20800555.6271,3.233482888e-05,0.0,22644271.2434,691.242085278,660.505453078,64698593.7471,1946.13256929,64747638.3223,65530524.0905,5208.48060381,5196.33825514,0.0
1.04293222573,0.935015731339,1.00639243473e-05,-50136930.1223,1.46783321784e-05,0.0,5827718.68384,678.51022576,647.034237083,66984607.4052,1683.5715788,37514565.4178,70938649.554,4329.21166901,4320.6304631,0.0
1.01620962349,0.989162107324,1.02685458921e-05,-73320603.8474,1.37419129965e-05,0.0,5878710.37428,677.528940376,645.355654954,67092715.4457,1647.76066981,51931032.8245,70628846.6006,4218.28614711,4210.13116261,0.0
1.16785596158,1.11646112765,9.73256335342e-06,-1092630.1288,2.05743626711e-05,0.0,5537282.82612,685.890171219,655.138436149,66206737.4839,1846.93574595,49565822.6525,68210874.8502,4847.77009652,4838.06977633,0.0
1.21950666584,0.857086434932,1.01566356575e-05,12978318.9088,2.84038157375e-05,0.0,14178290.0423,689.06066599,658.319689715,65037483.8859,1904.49496601,58315543.297,66333472.4974,5062.1721699,5050.10648162,0.0
1.12161726534,0.796854476501,9.75095490985e-06,-14521220.3727,2.11219757792e-05,0.0,5640408.63517,683.149008975,652.10543966,66492743.3675,1787.58879799,41571658.0584,69003212.6267,4655.83326843,4646.3998276,0.0
1.01000370751,0.957167235006,1.03128455496e-05,-82327874.7492,1.37665193633e-05,0.0,5942966.8142,677.31398723,644.978327355,67275387.5241,1641.8119124,59081681.4662,70675605.6503,4192.52538987,4185.47522178,0.0
1.1507518047,1.05029046594,1.01425324454e-05,-6662876.40231,2.08294341622e-05,0.0,5572435.60339,684.599853992,654.025989856,66316726.3486,1825.83867115,46178823.9387,68706656.7476,4776.77074131,4767.35950708,0.0
1.07925715606,1.15056765883,1.01429404275e-05,-29438580.0856,1.3838954649e-05,0.0,5786768.80042,680.335060065,649.478486082,66903358.4309,1733.10301941,35551099.0249,69320026.1587,4479.99645481,4471.52525288,0.0
1.18767906585,0.937527607108,1.00790788438e-05,5491215.12282,2.39145027659e-05,0.0,7077943.33265,686.964913777,656.321304467,65693883.4491,1868.42398915,53022447.0613,66918984.8891,4930.05580234,4919.23611522,0.0
1.10559502749,0.96285985618,9.92640984132e-06,-21082588.272,1.78597335809e-05,0.0,5711498.74987,682.1061591,651.177242787,66694996.4409,1767.82287191,37976063.8124,68711151.9354,4589.32495911,4580.44098659,0.0
1.0634101018,0.936077859974,1.02905295273e-05,-36560140.5144,1.53935488096e-05,0.0,5804472.86067,679.297237458,648.364502196,66937577.2434,1712.29488254,34615398.5727,70071029.3706,4414.21533257,4405.89318923,0.0
1.08573247344,0.974610749326,1.06048131149e-05,-25583359.5667,1.66018476815e-05,0.0,5725628.41087,680.423840772,649.85139264,66709151.3,1741.00854363,36078484.6236,68829722.1527,4506.87549725,4498.11024338,0.0
1.12997010403,0.969331628932,9.67981694874e-06,-12381407.2829,1.94788272526e-05,0.0,5625400.58008,683.669209455,652.670283642,66457414.6318,1798.09704888,42846755.7688,67829255.526,4690.50590183,4680.90941323,0.0
1.19402835351,1.00404644643,1.0080827782e-05,7161609.38926,2.29694356535e-05,0.0,8657070.72315,687.385290052,656.75673122,65532176.2861,1874.93606923,53897013.3495,66596807.9397,4956.41169542,4945.12966731,0.0
0.973525994091,0.854985651589,1.01593463243e-05,-94596841.0772,1.48375870774e-05,0.0,6024269.19461,681.826982521,642.646471062,67468861.0073,1612.12592532,69557362.1958,69790708.7073,4041.10640147,4034.56239859,0.0
1.07661037757,0.886890823162,1.00177781762e-05,-30354511.8747,1.65046724428e-05,0.0,5776294.78767,680.179056145,649.159541697,66861203.6641,1729.1843587,35404691.1681,69336184.0005,4469.00967729,4460.38827679,0.0
1.19074656613,0.979951529947,9.86784921091e-06,5487342.49728,2.30954229267e-05,0.0,7076736.06111,687.342804906,656.504656365,65516364.2268,1870.51601836,52954061.3059,66806558.2112,4942.78899601,4931.14224101,0.0
1.04314093759,1.0408917741,1.03069652478e-05,-48519286.4495,1.36481528508e-05,0.0,5822640.43257,678.297781175,647.06796983,66970029.7245,1683.59345722,36945935.5579,70744828.3009,4330.07803194,4321.40518822,0.0
1.12754883662,0.926157949565,9.55686683553e-06,-13704151.0799,2.00239337267e-05,0.0,5664653.11587,683.57511434,652.508926477,66580265.5946,1796.29768114,42189025.3229,68746963.3894,4680.45522081,4671.3087874,0.0
1.03727235823,1.1031030364,1.01224619366e-05,-53546842.5145,1.28449228044e-05,0.0,5847356.47355,678.143016827,646.67227162,67033611.3546,1675.74492956,39141971.3002,71145753.5815,4305.71755901,4297.13873775,0.0
1.10583067602,1.01274065117,9.91456246971e-06,-21276594.0122,1.74225485283e-05,0.0,5726387.27317,682.107678595,651.199044645,66751802.3577,1768.73639707,37939636.53,68712819.7933,4590.30313616,4581.61652982,0.0
1.05521111063,0.978760222571,9.79915670027e-06,-44466745.8968,1.45919749237e-05,0.0,5805357.50127,679.30066687,647.824642763,66930056.3589,1699.3591799,35660640.8688,70382880.3646,4380.18132023,4371.22019982,0.0
1.10415181701,1.04895230856,1.00941880622e-05,-21338496.1022,1.68258752234e-05,0.0,5712246.58184,681.867014447,651.082556233,66700083.1689,1765.68850724,37837899.2975,68673282.7235,4583.33419241,4574.4731531,0.0
1.13212970618,0.925269788702,1.00068455959e-05,-10983506.8166,2.09105193457e-05,0.0,5625576.38945,683.569321935,652.83421372,66461241.7999,1801.77365845,43885115.5186,67695110.3103,4699.47041035,4690.27985307,0.0
1.1180165412,1.03200708738,9.81357840853e-06,-15566356.1346,1.75003863901e-05,0.0,5631565.90488,682.808189418,651.860033727,66446236.3043,1781.16502666,41150771.407,69314727.6641,4640.88666252,4630.91771688,0.0
1.17692425719,0.91432455897,9.91713932361e-06,2466644.53168,2.32951516766e-05,0.0,5427518.99703,686.424079247,655.660171912,65841871.3019,1855.67993783,51321667.3614,67106537.3744,4885.4125916,4874.76515867,0.0
1.10939941403,1.12524594646,9.78898215886e-06,-19988975.4081,1.58571266239e-05,0.0,5714480.37949,682.337254669,651.404305633,66717485.4645,1772.33422943,38619459.9817,68909891.7993,4605.11696764,4596.07157709,0.0
1.20374252949,0.753905388473,9.73305070764e-06,8693193.66262,2.87668076676e-05,0.0,10108826.385,688.368930425,657.349775683,65408805.4619,1887.87361315,55049551.435,66728645.3601,4996.73523991,4985.37818814,0.0
1.13327519313,0.994307835507,1.02798940236e-05,-11270604.6677,2.04784656048e-05,0.0,5619975.8263,683.465135108,652.908694907,66441015.5341,1803.65640493,43532660.8418,67726450.0577,4704.22532668,4695.11766037,0.0
1.13308356972,0.83854843746,1.01208675577e-05,-10949950.5638,2.19334634015e-05,0.0,5566524.35367,683.587321854,652.796824926,66257410.3297,1801.46205093,43638585.8382,67581109.5095,4703.42989791,4693.50115036,0.0
1.01191536748,1.2496638292,9.79697194902e-06,-82092057.4181,1.12060193213e-05,0.0,5909692.95,677.853726375,645.087985706,67148584.0296,1640.70324501,58904229.9736,70858240.9424,4200.46069041,4192.0117454,0.0
1.20101997347,0.766575430115,1.01888025629e-05,8659585.1152,2.91167560046e-05,0.0,10030936.2457,687.987395836,657.149851213,65200527.2073,1882.76298496,54862881.3981,66520562.7805,4985.43390987,4973.5981029,0.0
1.14992770989,0.673132299203,1.0227988553e-05,-6598848.6623,2.80978876301e-05,0.0,5533172.96059,684.713095662,653.971735227,66196015.0743,1825.20130485,46148737.6107,68552807.7673,4773.34992375,4763.95191388,0.0
1.09413539514,1.0435251034,1.03132273574e-05,-23996348.7799,1.63648423351e-05,0.0,5736894.12071,681.079306664,650.409342687,66768859.1834,1752.98824443,36778160.8628,68955667.4853,4541.75602523,4533.15136046,0.0
1.12129942977,0.882805801895,1.01933699915e-05,-14292219.6392,2.07873891766e-05,0.0,5654465.93137,682.776462675,652.106212781,66543181.2683,1788.2402711,41790548.5503,68632259.6416,4654.51393298,4645.59666605,0.0
1.1669106547,1.17780070116,9.78265665758e-06,-183050.317506,1.80477954914e-05,0.0,5462798.878,685.779207233,655.044250575,65942160.6517,1841.57783806,49998778.7746,67865686.6377,4843.84612766,4832.85081414,0.0
0.992489580074,1.01149633927,1.02125873494e-05,-95221397.6624,1.3595954916e-05,0.0,5920649.4765,678.90691552,643.844757539,67170353.968,1615.06159629,70107353.1968,70347606.3122,4119.82424689,4111.71782007,0.0
1.0658640998,1.0145498746,1.00965683555e-05,-35847058.979,1.44815170209e-05,0.0,5807573.40933,679.54180452,648.522326533,66944229.2145,1715.1355919,34656509.9436,70078234.3322,4424.40187827,4415.94799137,0.0
1.14447216645,1.15111643695,9.89521345191e-06,-7855069.11713,1.7381107302e-05,0.0,5574279.92013,684.13622981,653.460784561,66283051.8076,1815.51882805,45683735.8004,68548607.8164,4750.70396293,4740.59772404,0.0
1.0234778817,0.81974775523,9.76982059441e-06,-69776033.4519,1.50554534222e-05,0.0,5928058.045,678.073517722,645.841599298,67264333.3637,1660.02664489,49310000.856,70913874.4468,4248.45668694,4241.21520797,0.0
1.00177114061,0.861471991653,9.9650004315e-06,-95868292.4388,1.48294933982e-05,0.0,5896226.85211,678.448477596,644.438920114,67104220.4317,1627.32209628,70675608.287,70675608.287,4158.35200467,4150.01479159,0.0
1.16500265191,1.20785203521,1.01426352655e-05,-27660.3746755,1.78646350306e-05,0.0,5455846.63973,685.42151495,654.918797457,65909468.7335,1838.95996997,49872228.2779,67684966.2586,4835.92600808,4824.99073173,0.0
1.15021819297,1.26210719112,1.00536388124e-05,-5658338.55657,1.73263065706e-05,0.0,5569524.14394,684.516824739,653.983748455,66296733.3127,1823.45129854,46937356.4772,68794035.847,4774.55571902,4764.73088796,0.0
1.06031631463,0.861599893965,9.96562604219e-06,-38914836.7779,1.5750795686e-05,0.0,5816761.14774,679.400304625,648.163198987,66970131.675,1707.90569665,34742408.1949,69879910.3587,4401.37302203,4393.00574448,0.0
1.18754569603,0.934477213958,9.64747223386e-06,4889849.15977,2.33066511771e-05,0.0,6598533.46957,687.211481855,656.309236696,65762683.808,1868.40026538,52880088.4674,67078833.3351,4929.50218422,4918.56944645,0.0
1.08238636748,0.910382205704,1.01224344343e-05,-28320735.85,1.67698740707e-05,0.0,5763287.29955,680.639985726,649.691218318,66835974.7703,1737.39037444,35720505.9388,69258059.8114,4492.98581141,4484.46600261,0.0
1.10995023762,0.965552457152,9.81013106051e-06,-19734026.7187,1.79615080391e-05,0.0,5699699.27843,682.422459468,651.434427043,66673653.0403,1773.17396134,38732695.4558,68899537.0782,4607.40343636,4598.34922543,0.0
1.14370645068,1.12007404676,1.02527407923e-05,-7319535.17925,1.92260605766e-05,0.0,5589366.09911,683.970528839,653.508516806,66354836.1957,1816.14214779,45940652.3036,68528062.4004,4747.52547677,4738.12378762,0.0
0.978157295716,0.976971601713,1.01663284359e-05,-94855947.7957,1.34621368995e-05,0.0,6007165.51822,680.721889632,642.940221106,67409468.6659,1609.81602699,69785248.279,70022292.7566,4060.33093452,4053.39281812,0.0
1.15761090393,0.849142952541,9.50886751385e-06,-3523765.11558,2.26588383755e-05,0.0,5504254.59522,685.533996781,654.444935193,66083443.4599,1831.98211431,48372736.1672,68437664.5203,4805.24286221,4794.79693912,0.0
1.06432103947,0.948784428372,1.00123021676e-05,-36876775.6629,1.50745002179e-05,0.0,5810433.03995,679.544098187,648.420545746,66959139.1555,1713.15895503,34647614.5231,70126282.1735,4417.99663484,4409.56687408,0.0
1.00117481139,0.917467330725,1.00336316281e-05,-95839566.4826,1.43416844873e-05,0.0,5898268.70238,678.337408358,644.399951761,67110710.3205,1626.51095519,70650298.6496,70650298.6496,4155.87664208,4147.54914224,0.0
1.23488555835,0.968138221462,1.01006301174e-05,16334388.7351,2.74323739091e-05,0.0,17911034.6828,689.892270651,659.280373017,65000346.7581,1923.16669693,61167623.0317,66802898.0613,5126.00995271,5114.08323034,0.0
1.19613984076,0.813477379605,9.91659358588e-06,7406611.39906,2.68224760707e-05,0.0,8875394.02458,687.764363812,656.894412904,65476507.5867,1878.04260571,54159488.1897,66563073.8019,4965.17647899,4953.8767919,0.0
1.08663652302,0.793168762528,9.64442856661e-06,-27903520.8448,1.80938570974e-05,0.0,5760521.7162,681.275963274,649.963568217,66831728.0117,1742.86466205,35912990.8682,69393780.2471,4510.62820706,4501.94498259,0.0
1.0740002103,1.03741606266,9.98008893388e-06,-31841155.0174,1.4668611622e-05,0.0,5793323.01318,679.987029747,648.982052762,66914128.6417,1725.6080443,35163827.486,69620057.1039,4458.17487296,4449.59508122,0.0
1.10739538862,0.677387571602,1.00805933951e-05,-18051880.4184,2.2096003535e-05,0.0,5617595.0242,682.276771467,651.246136766,66390280.8504,1767.74458907,39556366.7553,68785544.1104,4596.79825816,4587.01244161,0.0
1.13104746819,0.909024029393,9.9856128239e-06,-11621472.5069,2.06219288019e-05,0.0,5584309.41238,683.496715175,652.663360236,66324920.6863,1798.57647018,43449642.7126,67477083.914,4694.97804046,4685.08515718,0.0
1.04152411701,0.831785165196,9.81639494987e-06,-51635954.7526,1.54721950657e-05,0.0,5828376.03241,678.711115137,646.962946183,66981997.4344,1681.28172275,38309604.919,70847351.8243,4323.36660971,4314.63255035,0.0
1.17401571059,0.949848182312,1.03793349603e-05,2735336.22135,2.29024905267e-05,0.0,5393337.08838,685.964565312,655.46080352,65700800.9436,1850.67473315,51259412.3164,66932852.5675,4873.33921466,4862.4257642,0.0
1.08864700703,0.906732828321,9.89403853895e-06,-26870200.5559,1.71272037973e-05,0.0,5755216.61689,681.148812808,650.078169403,66817110.1644,1745.60508201,36098094.7003,69320635.5494,4518.97372618,4510.35632721,0.0
1.19978708246,0.844131349918,9.77382264544e-06,8356522.31345,2.63133742494e-05,0.0,9798987.86982,688.048689939,657.102751203,65406159.2253,1881.83807917,54878143.5563,66643082.0307,4980.31617929,4968.73095211,0.0
1.07061445968,0.93437799882,1.00275006786e-05,-33156730.422,1.56627450738e-05,0.0,5793231.49809,679.84781273,648.802700753,66907526.9943,1721.24180127,34931947.0771,69742985.5294,4444.12062213,4435.5925773,0.0
1.04105558962,0.950822030877,1.0162798152e-05,-50825281.6888,1.42660025727e-05,0.0,5836557.9193,678.319905757,646.908629246,67011486.5413,1681.43909007,37850262.1286,70860447.0773,4321.42175251,4312.95884912,0.0
0.950229690586,0.978660618168,9.87517993945e-06,-93551772.1297,1.37938061724e-05,0.0,6095313.8863,686.265065057,641.147703827,67649114.6901,1612.16265792,68637123.8091,68856731.5163,3944.40344562,3938.16853241,0.0
1.02202406799,0.956873643321,1.01139298802e-05,-68799885.5233,1.4083944485e-05,0.0,5867102.84842,677.762268276,645.72516582,67070349.9334,1655.35907339,48576343.8334,70741750.5441,4242.42190623,4234.08927156,0.0
1.14139068619,0.911894289483,9.93667488255e-06,-9673285.39124,2.20277568049e-05,0.0,5602749.33726,684.201880278,653.406994789,66391497.5535,1814.23723881,44570437.4679,68105599.2351,4737.91273837,4728.64954479,0.0
1.14714221031,0.651557847375,9.5790941054e-06,-6961648.71713,2.65734328301e-05,0.0,5505630.24509,684.969713727,653.717866924,66090687.5129,1819.18680191,46419530.8934,68538975.1497,4761.787315,4751.50705552,0.0
1.17150337174,1.07836930089,1.01508853392e-05,1675749.80278,2.01870305143e-05,0.0,5431075.50677,685.864017233,655.318491324,65831048.9427,1847.62870854,50738263.8082,67104159.9412,4862.91049609,4852.04159912,0.0
0.954259885137,0.841600192011,1.02304180129e-05,-93530013.2656,1.46453175201e-05,0.0,6050047.48084,684.972936898,641.400267487,67519725.8728,1609.85623785,68618107.0033,68839300.2931,3961.1327832,3954.55846443,0.0
0.963910671934,0.961037247849,9.98480777915e-06,-94073087.243,1.41468067146e-05,0.0,6056693.72053,684.208041602,642.027891399,67557070.1366,1615.15816501,69096190.6469,69322622.4817,4001.1931992,3994.77424085,0.0
0.961093288704,1.21951606961,1.00024442466e-05,-94004727.9463,1.182957878e-05,0.0,6075937.96605,684.396737987,641.846552949,67612683.3343,1613.88354296,69035955.1488,69261177.7212,3989.49824141,3983.11740482,0.0
1.28587935239,1.00961768703,1.03043421825e-05,26302760.1092,3.24435038942e-05,0.0,27832390.4225,693.008898879,662.432225175,64148433.2315,1979.46937724,68068348.5567,69064856.7121,5337.68519177,5324.69842228,0.0
1.17595670551,0.975503244499,9.47693635964e-06,102909.781939,2.32142788346e-05,0.0,5501307.62223,686.63721081,655.647378486,66121878.2062,1857.31522104,50294857.6444,67883042.5962,4881.39628457,4871.46483369,0.0
1.11790349088,0.781954261775,1.00150446576e-05,-15076969.8704,2.12259363168e-05,0.0,5591091.57329,682.82215104,651.846558936,66320598.5992,1780.95511923,41217917.8654,68847709.2152,4640.41739064,4630.3540136,0.0
0.956301040858,1.10763371123,9.85734513318e-06,-93823560.3873,1.27396466653e-05,0.0,6088573.96553,685.481211376,641.538888172,67638527.9373,1614.10986243,68876434.4445,69099327.1641,3969.6056206,3963.28925052,0.0
1.11809572066,0.989165808605,1.00281201281e-05,-15208254.5545,1.85194472289e-05,0.0,5660116.85601,682.648440083,651.876547872,66544074.2856,1783.01376813,41206373.4676,69207266.2026,4641.21533646,4631.93936283,0.0
1.07055633441,0.926102877183,9.89356644806e-06,-34539019.5076,1.56005941807e-05,0.0,5797849.39568,679.982914846,648.822195601,66920087.1908,1721.3473263,34777744.1891,69938701.9268,4443.87934414,4435.35339409,0.0
1.18623407577,0.802417271382,9.82982384099e-06,4918816.91887,2.61824679485e-05,0.0,6622374.15573,687.123097518,656.222787369,65678182.0628,1866.84523951,52794206.4537,66986121.3627,4924.05764852,4913.15476033,0.0
1.15779573285,0.964744536113,9.72202197459e-06,-4187948.13396,2.19533743686e-05,0.0,5527479.35349,685.238655909,654.368391818,66178520.3812,1833.33310343,47795567.5288,68495923.14,4806.01008706,4795.93569118,0.0
0.954626281484,0.94924338344,1.03794632893e-05,-93577584.6739,1.37942621249e-05,0.0,6045087.32805,684.328098179,641.422400998,67501803.7163,1607.56762119,68659946.4339,68880231.8803,3962.65369444,3956.04230136,0.0
1.15365202463,1.02504278771,1.01166616082e-05,-5938624.11229,2.14851631533e-05,0.0,5561025.17721,684.807269994,654.206391207,66283620.227,1829.54790153,46650534.0585,68602354.7499,4788.80955424,4779.35003082,0.0
1.10034364408,0.951406185394,1.02648565387e-05,-21982962.7844,1.78887166637e-05,0.0,5708699.76794,681.576971278,650.846166796,66685470.7947,1760.81028554,37500162.9497,68478299.2588,4567.52646658,4558.72552516,0.0
1.0819071636,0.731532953667,9.70011343745e-06,-29816296.3035,1.87637112413e-05,0.0,5773636.48271,680.788344621,649.515559896,66872029.2057,1736.91508834,35587950.143,69362082.302,4490.9966361,4482.4842783,0.0
1.08946854316,0.945755290898,1.0197568787e-05,-25644419.9543,1.69637641061e-05,0.0,5742708.74715,680.926914565,650.093590893,66784588.9858,1746.6262183,36258259.1283,69149832.0635,4522.38392266,4513.75368389,0.0
1.03876758073,0.892951561638,9.80348752924e-06,-55433015.8728,1.48520635225e-05,0.0,5891187.90498,678.482226029,646.792302261,67178951.5486,1680.40272084,40164978.8246,71113709.8677,4311.92422761,4304.46478328,0.0
1.07226181184,0.778412336537,9.74775801307e-06,-33729346.4354,1.74125732371e-05,0.0,5801056.45232,680.217512286,648.927685433,66938869.0636,1724.20769956,34820226.0798,69979661.8222,4450.95878095,4442.59582615,0.0
1.03546498168,0.871856591025,9.97123660231e-06,-57141192.4138,1.50010235009e-05,0.0,5844296.57284,678.325146901,646.579300838,67022039.1826,1673.70265511,41023316.183,71001042.1386,4298.21513895,4289.75284081,0.0
1.13259587395,1.13478259843,1.03067629728e-05,-11016162.5496,1.7790130483e-05,0.0,5585118.28189,683.275224721,652.76371401,66319120.6387,1800.38228543,43656720.9602,67676156.8517,4701.40547277,4691.48592258,0.0
1.12637135058,0.942825193329,1.00278455874e-05,-13255630.7346,2.03055103463e-05,0.0,5650375.24094,683.18448896,652.444793898,66537360.7525,1794.78725415,42468714.3219,68221074.9394,4675.56747626,4666.57051383,0.0
1.15223256544,0.994992441999,9.85348436245e-06,-7614462.28479,2.15904560984e-05,0.0,5472008.35882,685.040306036,654.074041538,65997044.9384,1824.24874804,45502733.3983,68417852.4604,4782.91737914,4772.01045853,0.0
1.10798173842,0.691410980922,9.94447900585e-06,-18036269.2522,2.17181040683e-05,0.0,5618551.6021,682.399357758,651.282848408,66400539.7058,1768.27837456,39624677.1379,68814019.6465,4599.23219618,4589.3394309,0.0
1.08778840116,1.06146325507,1.01812557297e-05,-26304432.1561,1.5419237e-05,0.0,5756413.01321,680.813803022,650.007658108,66824166.7406,1744.3321746,36111718.7144,69226507.9354,4515.40965322,4506.80566503,0.0
1.0464683773,0.930381794957,9.84399004052e-06,-48223596.6049,1.46192754067e-05,0.0,5861738.62729,678.76060716,647.291646481,67089423.2617,1689.59262929,36907260.011,70725489.8516,4343.89023417,4335.9491823,0.0
1.09172202444,0.814527012746,9.63553404162e-06,-26169799.7081,1.81789583971e-05,0.0,5747944.65484,681.533339456,650.259676502,66800967.9975,1749.50983399,36280499.3468,69364874.3525,4531.73812345,4522.97467574,0.0
1.04053496689,1.01979343129,1.04998266829e-05,-49951297.7697,1.40297095649e-05,0.0,5811371.28829,678.02538706,646.892540323,66934330.0343,1679.75780725,37532097.7079,70703996.5565,4319.26064756,4310.54312328,0.0
1.18172845787,1.05079989662,1.01031613902e-05,4448486.4341,2.13728481741e-05,0.0,6161725.00809,686.476617146,655.93116269,65793402.5595,1860.85398513,52381750.0441,67074757.6107,4905.35482862,4894.6277492,0.0
1.10358782009,1.05009583554,1.01570762968e-05,-21346909.4142,1.68116120862e-05,0.0,5711418.95911,681.790320226,651.0461934,66697397.4124,1764.94678671,37828447.4897,68652263.2376,4580.99304119,4572.140913,0.0
1.0791519528,0.895123535376,1.00230512859e-05,-29810648.264,1.6649748394e-05,0.0,5775214.79048,680.512911921,649.465168806,66865924.6871,1733.16820456,35487683.6077,69302448.2301,4479.55975607,4471.09018631,0.0
1.08543163914,1.03378007754,1.00979528925e-05,-27388241.6189,1.55414808588e-05,0.0,5764523.90169,680.768891817,649.874902335,66843393.474,1741.2792115,35917004.7049,69292030.3141,4505.62673407,4497.05951279,0.0
1.14997143951,1.09400712747,9.84059417121e-06,-7589595.30713,1.9731649623e-05,0.0,5593825.55635,684.680946182,653.946463229,66374351.6102,1824.96133787,45816262.9227,68680430.9614,4773.53144541,4764.13105361,0.0
1.01436252308,1.01992467974,9.69648176665e-06,-81510325.109,1.32022802869e-05,0.0,5963872.88819,678.020036697,645.265900087,67334759.706,1647.6936398,58425024.9874,71159016.3284,4210.61883331,4203.50683158,0.0
1.0201859409,0.801358841653,9.64968799577e-06,-74965126.9953,1.51720421739e-05,0.0,5940564.3653,678.152772297,645.633835202,67291677.9476,1655.63075344,53213888.6055,72019865.2672,4234.79184068,4227.59846894,0.0
1.09222581167,0.971814986585,9.8108637837e-06,-25695414.8397,1.65207927396e-05,0.0,5756211.33004,681.345128165,650.273303843,66822379.1928,1750.36791366,36388562.4992,69348332.4858,4533.82934424,4525.15584559,0.0
1.1760401643,0.767163427957,9.91358234277e-06,2666660.0211,2.60917182124e-05,0.0,5413783.76424,686.488382073,655.60664106,65799791.2831,1854.72030025,51384961.0053,67073173.4792,4881.74272201,4871.11768127,0.0
1.21562177935,0.861345548747,1.04982235277e-05,12697167.2562,2.8448150952e-05,0.0,13931913.7907,688.598736572,658.072009022,65050940.2362,1899.74814942,58029657.3123,66292705.4166,5046.04600608,5034.17209697,0.0
1.04136316185,0.882771393662,9.91686696002e-06,-51331047.9609,1.49866758855e-05,0.0,5827998.60982,678.59094542,646.943480481,66982444.5102,1681.03898073,38127326.4844,70880136.6968,4322.69848484,4313.9670655,0.0
1.12658826357,0.840697603816,1.00277550687e-05,-13138834.5893,2.18215233094e-05,0.0,5641361.81869,683.246688218,652.457926652,66510483.1897,1795.1402727,42484234.8421,68165215.77,4676.46788208,4667.46654483,0.0
1.01753666308,1.0132188412,1.0063632708e-05,-74236798.424,1.33609015781e-05,0.0,5933816.5222,677.634614994,645.458802729,67266865.2509,1651.67129017,52642374.0556,71833180.9935,4223.79468845,4216.54880213,0.0
1.09618605758,0.937851634228,9.95144198279e-06,-24162022.3336,1.74323677484e-05,0.0,5733617.64307,681.507066774,650.537335516,66762755.3292,1755.41772971,36793335.5255,69080604.5811,4550.26832501,4541.53280505,0.0
1.03752569038,0.881126103884,9.96796366083e-06,-53708070.3639,1.48719627126e-05,0.0,5834868.31575,678.380650686,646.696434692,66995982.715,1675.94727761,39207092.2585,71194902.7709,4306.76914077,4298.10056938,0.0
1.04710519138,1.04116276448,9.85231798507e-06,-47395986.3553,1.36085477056e-05,0.0,5834407.7753,678.804906298,647.319907444,67002055.1505,1688.71532576,36590411.291,70558464.8262,4346.53364942,4337.85322286,0.0
1.18609061997,1.09104411137,9.9216309097e-06,4794057.74723,2.05654881982e-05,0.0,6401466.03691,686.86632305,656.204884342,65720901.0979,1865.65128875,52607649.1617,67033703.3411,4923.4621635,4912.34706824,0.0
1.08504640487,1.0358128961,9.83540513627e-06,-28328808.0643,1.53211074414e-05,0.0,5776763.11352,680.945077438,649.863746706,66877186.8858,1740.78594408,35835032.7038,69377079.056,4504.02762662,4495.46640909,0.0
1.1618183567,0.940427949873,9.91803498247e-06,-2451484.69229,2.15595740321e-05,0.0,5449093.13157,685.576701906,654.729483769,65914751.2487,1835.91281768,48428672.212,67864910.4694,4822.70799866,4811.80171245,0.0
1.13214139564,0.900920541846,9.7183331647e-06,-12923278.7157,2.09795847974e-05,0.0,5551676.29643,683.929619961,652.795378489,66232007.056,1799.14814633,42590377.5221,67456186.9399,4699.5189333,4689.07181823,0.0
1.00131059425,0.821612264025,1.00014645105e-05,-95820583.7626,1.51152255509e-05,0.0,5893932.12096,678.425831024,644.408367552,67096999.0007,1626.7408733,70633583.0549,70661832.5818,4156.44027673,4148.11056561,0.0
1.12480141586,0.936957320395,1.0167652855e-05,-13122019.3866,1.9797465824e-05,0.0,5598666.55029,683.066883377,652.318425963,66344291.3445,1790.68863872,42449844.8776,67541012.2883,4669.05067723,4659.26300533,0.0
1.05376906053,0.595405595725,9.68379124522e-06,-43651112.007,1.82733061934e-05,0.0,5799003.61694,679.440971407,647.741068556,66901716.0569,1698.04143759,35517809.2213,70581380.5951,4374.19537026,4365.40473228,0.0
0.912551500969,0.968092788543,9.82755756098e-06,-91799698.5776,1.35316956151e-05,0.0,6134201.64095,691.535853019,638.706384369,67691264.4854,1600.65406193,67094949.4793,67691264.4854,3788.00128052,3781.41633394,0.0
1.09054706979,0.858346303024,1.02973454664e-05,-25151345.7479,1.82864381701e-05,0.0,5734478.71523,680.944783332,650.151580564,66754020.6957,1748.46156746,36402275.7791,69086493.8819,4526.8608867,4518.31191836,0.0
1.04273944336,1.15747998656,1.03367416822e-05,-48559677.428,1.25444183006e-05,0.0,5829749.91712,678.207357664,647.042549965,66991616.3216,1682.9771097,36906576.7432,70798260.0283,4328.41142939,4319.74512503,0.0
0.955702361157,1.08036752349,9.67836157232e-06,-93877205.1363,1.27623088835e-05,0.0,6071276.78006,685.715302041,641.494098943,67561308.5028,1611.88511189,68923538.162,69147311.1937,3967.12050116,3960.25781377,0.0
1.09319507035,0.974799762851,9.78130234623e-06,-25449888.4587,1.65433900029e-05,0.0,5755016.61475,681.414377032,650.328300323,66819587.8007,1751.63424313,36457936.5544,69341319.7983,4537.85273702,4529.1640485,0.0
1.14826559683,0.991775430891,9.99048689928e-06,-7727526.11541,2.14494583048e-05,0.0,5583038.90884,684.546205923,653.847487203,66343586.2268,1822.83388663,45704496.7643,68858451.9159,4766.45049244,4757.07913171,0.0
1.03205807718,0.825246243598,1.02337306697e-05,-57362684.1477,1.5201843674e-05,0.0,5837907.96951,677.955994237,646.352514269,66999224.0093,1669.01495516,41102338.5098,70941107.9594,4284.07307837,4275.57866245,0.0
1.15029875598,0.905618506044,9.69743718153e-06,-6155134.14106,2.21917983734e-05,0.0,5548932.31994,684.913604236,653.968962881,66237896.2358,1823.87715529,46817622.7748,68800873.9076,4774.89013607,4764.97033769,0.0
1.24445887954,1.09233514571,9.8206600993e-06,18109226.8647,2.50898017851e-05,0.0,19746778.8742,690.561705061,659.883398344,64993344.4284,1934.42641086,62623204.0968,67202528.5765,5165.74880897,5153.6680881,0.0
1.03771130474,1.01888041633,9.91504935543e-06,-55851496.6618,1.37283255008e-05,0.0,5849999.0772,678.415204891,646.730298366,67043777.6916,1676.55040507,40320307.4732,71115577.9078,4307.53962598,4299.04258564,0.0
1.01247609557,1.06067841948,1.03102949732e-05,-76392634.4011,1.28204021385e-05,0.0,5908247.12152,677.354706632,645.110087126,67161254.8064,1643.44295285,54305275.5498,70534223.4346,4202.78827271,4195.00085307,0.0
1.04065734193,0.941067189539,1.03887352737e-05,-49012934.8822,1.43435340496e-05,0.0,5824586.61135,678.125369537,646.891513234,66975238.9704,1680.63417041,37068040.6121,70869249.3565,4319.76862635,4311.22248135,0.0
1.04165088108,0.797886852012,1.01472627766e-05,-49957169.5032,1.58562924006e-05,0.0,5817359.75087,678.426114196,646.943834459,66947086.7052,1681.77501454,37530135.5392,70890670.6349,4323.89280736,4315.24422304,0.0
1.0410447742,0.850352010907,9.98022862032e-06,-52465655.8067,1.53991128115e-05,0.0,5829814.67663,678.556518658,646.935729307,66985122.9704,1681.10766244,38608380.0136,70931512.1571,4321.3768577,4312.82611782,0.0
1.03486773214,1.06132733764,9.98362507687e-06,-57335473.965,1.31112669101e-05,0.0,5871607.83272,678.178243993,646.546749389,67101573.755,1673.50005903,41150616.3988,71088025.045,4295.73595611,4287.60310037,0.0
1.05797462914,1.10804725689,1.03347750645e-05,-38935521.3122,1.33252680507e-05,0.0,5826380.2748,678.899942083,648.009726056,66995581.2393,1704.9323448,34733825.544,69767158.6164,4391.65268556,4383.41592512,0.0
1.20723774698,1.18784062375,1.01876737139e-05,10118297.9261,2.11977694562e-05,0.0,11414361.3536,687.966766148,657.490552508,65310930.5984,1889.34284589,56056860.8401,66951335.2882,5011.24388771,4999.2764557,0.0
1.10748833944,0.998160903367,9.766120381e-06,-18987190.7151,1.69841628802e-05,0.0,5690910.03247,682.289073538,651.279191099,66628934.2366,1768.77363654,39359148.4037,68797910.9799,4597.18409702,4587.78361434,0.0
1.09625525159,1.32235098823,1.00250906031e-05,-24001733.6215,1.32620185628e-05,0.0,5755226.14164,681.311273385,650.54733695,66829946.1975,1755.23126084,36840000.8556,69123519.1077,4550.55554935,4541.818185,0.0
1.05491094599,0.763100478149,9.84931271377e-06,-44320883.8405,1.68811560551e-05,0.0,5789048.25365,679.341849616,647.803831059,66879927.4054,1699.1519382,35599567.2544,70307670.9093,4378.9353368,4369.97919072,0.0
0.983607193284,1.03190619504,9.95968171802e-06,-94942264.8326,1.32336430763e-05,0.0,5950219.28329,680.685187003,643.276322332,67243997.9601,1611.21616292,69861483.2888,70103005.1382,4082.95345932,4074.91025058,0.0
1.0358086098,0.829621736252,1.00101271933e-05,-56225118.3094,1.53446308605e-05,0.0,5887815.65214,678.222815751,646.62441517,67165267.7967,1676.53091867,40586954.1411,71000677.5627,4299.64153928,4292.22333014,0.0
1.08454504507,0.911475495157,1.02045652028e-05,-27301191.4679,1.6975687348e-05,0.0,5753826.59439,680.695092169,649.817847706,66811738.6955,1740.21344669,35877265.9556,69224246.6342,4501.94648209,4493.3930755,0.0
1.15729546063,1.00992941735,9.64274245059e-06,-4551659.58952,2.1038524819e-05,0.0,5538088.17458,685.231857828,654.340691608,66209238.1073,1832.70627137,47677414.9189,68616473.3227,4803.93345708,4793.8675057,0.0
1.05174853877,1.07922639931,9.83563388054e-06,-42245365.2187,1.27512219328e-05,0.0,5816215.70025,678.944193079,647.5970879,66940749.7395,1693.53140923,35275754.687,70512046.0623,4365.80818443,4356.67963345,0.0
1.07942302505,0.946419058501,1.0428234983e-05,-28575626.1929,1.64569922852e-05,0.0,5765430.9245,680.241260852,649.502895276,66833470.1076,1733.80827329,35604493.6821,69167001.6935,4480.68497698,4472.30754352,0.0
1.11747498646,1.16239316793,1.0302178189e-05,-15046396.2513,1.62633955521e-05,0.0,5644605.15848,682.372378788,651.828699538,66483110.2976,1781.30081746,41178476.7172,68895435.9634,4638.6386688,4629.0725923,0.0
1.00307290107,1.11681139012,9.59168693696e-06,-95942822.5087,1.24754809157e-05,0.0,5920359.82885,678.885686223,644.523905585,67175145.7198,1628.56350331,70742062.5116,70810378.232,4163.75561234,4155.31634783,0.0
1.10232719989,0.788731114971,1.00157538031e-05,-21758418.8009,1.99185020196e-05,0.0,5703262.33758,681.946097887,650.975090004,66665941.2722,1763.7153561,37616791.1169,68503714.4691,4575.76020674,4566.92787025,0.0
1.10810676584,1.06037760627,9.867847744e-06,-18409403.7588,1.63620104007e-05,0.0,5682808.48323,682.226230017,651.30746185,66601576.8973,1769.19708383,39516751.5258,68886801.0351,4599.751185,4590.24270836,0.0
0.994113529452,1.07710027351,9.94955072519e-06,-95393698.9235,1.28376289903e-05,0.0,5929789.97531,679.163525104,643.951860284,67194740.1548,1616.94744626,70258897.9713,70497827.5294,4126.56526076,4118.3524306,0.0
1.04737705782,1.06038222269,1.0162639495e-05,-47262210.482,1.36505882812e-05,0.0,5821638.86777,678.609569195,647.333911957,66977068.3594,1689.38972164,36656633.9605,70221102.946,4347.66216701,4339.00904261,0.0
1.08449082332,0.739815988943,1.01211215308e-05,-27496495.1126,1.91698666243e-05,0.0,5745706.89469,680.828121966,649.817873308,66785406.3256,1740.29551032,35836008.7042,69219497.1773,4501.7214076,4493.16810146,0.0
1.17192990077,1.06849422876,1.01330221023e-05,1764283.91097,2.03590209129e-05,0.0,5429222.85895,685.908996069,655.345899862,65826149.9621,1848.1810054,50790050.8752,67081720.8541,4864.6810181,4853.80456213,0.0
1.10061796809,0.889248265369,1.06227132142e-05,-19487672.0403,1.86903818569e-05,0.0,5623770.34797,681.401250191,650.817917658,66399642.4382,1758.27340328,38806612.3692,68455084.6942,4568.66518554,4558.80630449,0.0
1.19731691697,0.946465665664,1.02467161081e-05,7799776.51081,2.4517642935e-05,0.0,9262581.47248,687.522228648,656.947396681,65452035.6464,1879.00380651,54389276.417,66549297.8834,4970.06252234,4958.74594446,0.0
1.13617511136,1.12481821103,9.88263042903e-06,-9771632.57486,1.78899622584e-05,0.0,5608005.449,683.832702529,653.083780134,66401993.6962,1805.56168671,44729649.4772,67954501.3729,4716.26288726,4706.56590816,0.0
1.01136692411,0.948894905068,9.96775347577e-06,-82527293.3981,1.37136870196e-05,0.0,5956917.9303,677.700480002,645.066870245,67313061.2174,1643.76123335,59254540.7606,70842484.763,4198.18410198,4191.11443275,0.0
1.17350633981,0.953703492299,9.79319323588e-06,1731655.39445,2.21611888245e-05,0.0,5451823.34202,686.257283648,655.461088841,65927085.3158,1851.37938488,51048165.9393,67478415.6222,4871.22481655,4860.63807847,0.0
1.10507514437,0.864098286109,1.00809321863e-05,-18839531.956,1.8766345243e-05,0.0,5646400.75868,682.020986984,651.109181435,66475103.9473,1764.50090335,39195569.5664,68721248.0467,4587.16692428,4577.42132857,0.0
1.00912170432,0.982994485892,9.73311618759e-06,-88713330.3612,1.34446469001e-05,0.0,5895518.10815,678.195862335,644.905683205,67108784.2627,1636.89353229,64468406.054,70792221.8273,4188.86419463,4180.32482779,0.0
1.03673575162,1.05460612976,9.71530400807e-06,-57368565.7402,1.32664756097e-05,0.0,5908413.53459,678.452737512,646.685350801,67228604.1782,1677.57628257,41293824.1676,71198201.6849,4303.49010497,4296.0599732,0.0
1.21279913379,0.811456331727,9.98718119887e-06,11389642.3819,2.86151784807e-05,0.0,12677392.3811,688.733522614,657.861273261,65132340.47,1896.93873891,57058967.1364,66222989.3626,5034.32920436,5022.36798587,0.0
1.12497316981,0.929386934499,1.01977954541e-05,-12943351.5422,1.99447571063e-05,0.0,5596038.03213,683.057037508,652.328351567,66335731.2758,1790.90467712,42465045.4307,67440504.5973,4669.76362788,4659.97305755,0.0
1.05283780933,1.20002141857,1.01533334819e-05,-42373735.7458,1.2495339066e-05,0.0,5818520.49036,678.740299998,647.659458641,66969346.2723,1696.10938244,35220714.7912,70274132.2939,4370.32974653,4361.55620876,0.0
1.03860269438,0.847721512852,9.89371190931e-06,-53175755.0839,1.52145544614e-05,0.0,5833411.652,678.49368592,646.758336915,66991948.8589,1677.40260397,38883757.8296,71166686.2912,4311.23978437,4302.55359284,0.0
1.0822909026,0.9103415221,9.69350016583e-06,-29666368.8214,1.64697779121e-05,0.0,5785481.84428,680.738811413,649.541610193,66908891.4035,1737.27798369,35651838.5845,69404641.9591,4492.58953669,4484.07121246,0.0
1.00803509854,0.854298433883,1.04285570735e-05,-83693871.1908,1.49733809732e-05,0.0,5864596.6926,677.42411632,644.830937146,67025622.9388,1635.95343767,60212344.339,70492347.4507,4184.35369404,4175.99779842,0.0
1.14303847044,0.929744122767,1.02123846182e-05,-8483464.98853,2.21641981609e-05,0.0,5577303.54974,684.077185797,653.459560122,66315129.3077,1815.79021289,45165231.1051,68297294.9442,4744.7526908,4735.35879475,0.0
1.06856900065,0.973953609903,9.8231603606e-06,-34542854.9531,1.49857018289e-05,0.0,5808092.354,679.895959836,648.695719809,66953011.8173,1718.4001038,34783406.4974,70115541.6883,4435.6299217,4427.08849579,0.0
1.05163403366,0.971104171675,1.00068545133e-05,-43012465.7003,1.43492789531e-05,0.0,5828859.76527,679.007434441,647.688361974,66993091.0569,1695.66306948,35363482.8573,70573481.6119,4365.33287372,4356.91982519,0.0
1.09049445154,0.920812237283,1.00997121758e-05,-25578046.4061,1.72612966548e-05,0.0,5743009.00612,681.062932961,650.157406619,66783467.322,1747.99911598,36282445.2609,69183964.1146,4526.64246834,4517.99618467,0.0
1.09975467227,0.799799163555,9.77606439563e-06,-22849637.6721,1.88675918954e-05,0.0,5696743.24246,681.95372586,650.783569716,66637789.9333,1759.11328727,37343980.4141,69158513.7551,4565.08164459,4555.7991145,0.0
1.22406899909,1.10519150953,9.97390652932e-06,13538778.8169,2.35467500032e-05,0.0,14839335.3571,689.258671154,658.613994915,65112179.3403,1909.58460167,58892714.8393,66525093.487,5081.11041522,5068.93167154,0.0
1.1079878973,0.875038681033,9.99165336688e-06,-18011065.6814,1.88474996787e-05,0.0,5636363.10322,682.244153916,651.282087762,66456618.5618,1768.03395493,39680479.9095,68875524.2607,4599.25776169,4589.36489031,0.0
1.03051562406,0.723053781999,9.91484374545e-06,-60193402.3536,1.6105185957e-05,0.0,5899795.13715,678.152106965,646.289138901,67194602.5246,1669.49675413,42864096.1139,70924424.0347,4277.67035547,4270.32823007,0.0
1.05341709898,1.03814676947,1.0335362785e-05,-43109551.3682,1.39843552024e-05,0.0,5805879.02219,678.756449952,647.705886134,66930285.1022,1697.79137741,35324070.929,70362458.3114,4372.73437787,4364.07258974,0.0
1.0347573985,0.86792196249,9.88158178387e-06,-57486398.9304,1.49432623931e-05,0.0,5894312.60515,678.391802486,646.630265086,67184049.5294,1675.08898831,41266281.1943,71077117.975,4295.27796117,4287.87488913,0.0
1.07047292767,1.07442755012,1.01222611065e-05,-32905703.9616,1.41489059325e-05,0.0,5799037.26263,679.703775525,648.784530731,66926862.1534,1720.94781459,34981571.2458,69701986.5448,4443.53312276,4435.00730003,0.0
1.06489738806,1.1611494085,1.03764624725e-05,-34800971.5568,1.3223909977e-05,0.0,5812215.88333,679.225371135,648.468021858,66964019.2598,1713.8910932,34689510.4846,69927346.905,4420.38905784,4412.04413665,0.0
1.06487304954,0.83322078332,1.04579802691e-05,-34440332.7783,1.67428195119e-05,0.0,5788425.07749,679.276239811,648.461008845,66894023.9313,1714.07839944,34677365.2896,69786187.8117,4420.28802864,4411.94348449,0.0
1.01104993545,0.975217163635,9.67629765198e-06,-85817672.0114,1.35680821684e-05,0.0,5970896.25924,678.082155564,645.046871212,67349159.8867,1643.2439277,62007505.4564,71018921.5029,4196.86828205,4189.80308605,0.0
1.02478080272,0.908442105263,1.00882317287e-05,-66461123.3251,1.45504033994e-05,0.0,5858972.62918,677.865155688,645.898433279,67051758.3701,1659.06847293,46916969.6626,70964758.7847,4253.86511209,4245.48824269,0.0
1.07304652345,1.08803569512,9.54367851183e-06,-32962083.2763,1.36480826174e-05,0.0,5809966.29819,680.271347794,648.966960029,66956676.5971,1723.70870471,35033069.0202,69981217.0891,4454.21611884,4445.46312382,0.0
1.13800614985,0.899776818599,1.02114293425e-05,-9599284.2122,2.16464535735e-05,0.0,5538591.75384,683.903567998,653.17353745,66175327.8317,1807.30615515,44462746.9903,67947965.6679,4723.86352803,4713.74956875,0.0
1.02155179055,0.953249614052,1.0122004998e-05,-69165917.9455,1.41018603104e-05,0.0,5867724.39739,677.745184073,645.695280387,67071192.1414,1654.73165049,48841114.9227,70705061.3514,4240.46148257,4232.13641656,0.0
1.16551750053,0.91502848177,9.95049307077e-06,-95061.0789357,2.23476574571e-05,0.0,5429246.44406,685.763712325,654.953186454,65841062.5066,1840.0840113,49929169.7861,67697673.8531,4838.0631447,4827.09282173,0.0
1.10013528608,0.844219656031,9.90770575557e-06,-22762254.9918,1.88201698973e-05,0.0,5719368.73837,681.848235857,650.826056266,66723599.2873,1760.80948885,37258475.4562,68902025.5649,4566.66157252,4557.86380239,0.0
1.19232114629,1.18180721282,9.78489037051e-06,5769812.88396,1.96050261686e-05,0.0,7361244.55993,687.323686012,656.609679266,65654261.1015,1872.72874903,53237245.6626,66876870.3999,4949.32507825,4937.87506322,0.0
1.10727472014,1.23312551449,1.00009545164e-05,-20478717.1588,1.47594741186e-05,0.0,5722298.17522,682.030812531,651.272331132,66733201.8133,1769.75780544,38275464.4347,68848231.9892,4596.2973633,4587.3868017,0.0
0.939474483603,0.916736115259,1.02156971984e-05,-93042296.2366,1.36474651048e-05,0.0,6104577.41464,686.65217029,640.452834534,67663802.1589,1604.98680402,68188640.768,68402968.4877,3899.75858144,3893.66698497,0.0
1.20829457697,0.821898798189,9.79151368592e-06,10209411.9814,2.76331458497e-05,0.0,11552535.9541,688.527801352,657.568298842,65263703.5917,1891.83210492,56165084.9212,66972351.2889,5015.630789,5003.77375809,0.0
1.2236018038,1.00467654629,1.00444289389e-05,13822802.8631,2.54778493103e-05,0.0,15138885.8769,689.238243909,658.591292994,65123842.6159,1909.51100542,59078880.3655,66563350.5463,5079.17108757,5067.22145974,0.0
1.20711171918,0.965766719185,9.91697031196e-06,10067179.7652,2.47828246268e-05,0.0,11438597.1612,688.274605948,657.489741321,65263816.8361,1889.72802661,56070672.3204,66957933.0951,5010.72074632,4998.75730557,0.0
1.08536530641,0.974460712326,1.06062795527e-05,-25725269.1508,1.65763557306e-05,0.0,5726661.86032,680.400463,649.831226544,66710400.3519,1740.5308175,36075166.8754,68841380.611,4505.35138691,4496.59196164,0.0
1.14910118321,0.858696610465,9.80734610769e-06,-6725444.57571,2.21081025026e-05,0.0,5533344.99867,684.680066612,653.78723647,66162771.1882,1821.72413701,46334791.634,68732552.1159,4769.9190115,4759.73215256,0.0
1.10752805593,0.860746996079,1.0096514932e-05,-18086984.4741,1.90629639926e-05,0.0,5637008.36821,682.149732398,651.254879709,66448098.4437,1767.65189784,39608664.4985,68852181.4575,4597.34896017,4587.56149385,0.0
1.17334175273,1.02782148656,9.61149713926e-06,1290035.79506,2.04229530087e-05,0.0,5457116.7799,686.328795226,655.457102438,65943699.0724,1850.73202884,50824894.3901,67716722.4375,4870.54161558,4859.76404207,0.0
1.21251638402,1.04871583108,1.00342514617e-05,11257849.3834,2.37158361763e-05,0.0,12527288.6563,688.48566471,657.842512522,65242284.604,1896.09407944,56982177.7555,66329779.7887,5033.15551007,5021.19955944,0.0
1.13039975924,0.835172659678,9.8824633072e-06,-11729511.4474,2.14375046055e-05,0.0,5584411.04474,683.64998606,652.693916515,66320488.614,1797.9405856,43225299.2703,67374787.0955,4692.28940061,4682.40737687,0.0
1.02916597667,0.92907350825,1.03215908834e-05,-60657500.7712,1.44579993741e-05,0.0,5841970.04698,677.765720189,646.178576666,67007178.1021,1664.95658669,43065523.7454,70801725.8887,4272.06796916,4263.6205396,0.0
1.13629750393,0.611129058404,1.00563453797e-05,-11613060.6356,2.71949069664e-05,0.0,5482190.79231,684.219177745,653.070888852,66016427.6311,1805.01495835,43401363.2847,67433905.6911,4716.77093881,4706.274282,0.0
1.2456498888,1.14342280914,9.70668598569e-06,18305181.4567,2.41076662211e-05,0.0,19937934.4109,690.675353354,659.945250584,64937359.6756,1934.86118238,62716064.6818,66937461.8894,5170.69268841,5158.29739117,0.0
1.20732774252,1.01057329596,1.02518837678e-05,10699456.2129,2.41800886047e-05,0.0,12042912.3734,687.994369835,657.50537574,65351793.1016,1890.44967732,56578031.1712,66745681.0222,5011.6174592,5000.11554729,0.0
1.17222647963,1.03060005569,9.63942301905e-06,747832.446156,2.05201621935e-05,0.0,5426062.08915,686.290521753,655.373819225,65845524.8672,1848.30217482,50445310.3044,67704433.0887,4865.91211694,4854.71574377,0.0
1.09848480281,1.03437856229,1.02908113202e-05,-20642696.4074,1.64736789198e-05,0.0,5658433.2649,681.430948039,650.70288498,66511683.4483,1755.17568119,38305505.9818,68376642.822,4559.81041646,4549.98828546,0.0
1.0008492675,0.905991296075,9.7647734224e-06,-95958736.5361,1.42188678861e-05,0.0,5984400.70991,678.639540585,644.400919037,67380437.8043,1629.3739102,70754057.8215,70926926.3062,4154.52530939,4147.60346057,0.0
1.06291092928,0.597364941677,9.71736964807e-06,-38636860.3044,1.8963052253e-05,0.0,5801561.36189,679.844143619,648.33191774,66924044.7289,1711.51896328,34735036.8886,69972776.3625,4412.14326744,4403.73552944,0.0
1.24363906774,1.10272074522,9.93781871944e-06,18203074.1973,2.50716717771e-05,0.0,19747477.846,690.454497522,659.819295766,64920156.7753,1932.42884605,62601846.613,67026482.1844,5162.34577019,5150.04906896,0.0
1.10955384754,1.14493919116,9.6481116559e-06,-18987564.9283,1.55303516396e-05,0.0,5650361.85681,682.464570977,651.386342892,66498678.238,1769.25561136,39160088.9766,68894456.412,4605.75802114,4595.55346833,0.0
1.08956113537,0.915870927576,9.99280587217e-06,-26234956.2053,1.71646934848e-05,0.0,5749113.00031,681.107730466,650.117970619,66801510.2596,1746.78473959,36166112.9451,69266074.6481,4522.76827292,4514.13658654,0.0
1.11281060726,1.00758876448,9.44963457992e-06,-17731711.8408,1.70788436489e-05,0.0,5677189.05348,682.810470095,651.601182888,66591724.4285,1775.23422483,39902435.2609,69149470.1389,4619.27683074,4609.59259442,0.0
1.09585075579,1.00086968273,9.61700460231e-06,-24869800.6809,1.62797638869e-05,0.0,5750813.21164,681.659932721,650.488420644,66815697.2494,1754.75500668,36648853.8972,69289048.3843,4548.87648728,4540.0476883,0.0
0.994472486816,1.06767403589,9.82852196804e-06,-95464071.6491,1.31879426102e-05,0.0,5984050.1889,679.740844122,643.990335386,67369132.5882,1620.36999739,70320725.8626,70565626.5113,4128.05529277,4120.87563886,0.0
1.02485034976,0.742516418891,9.69124164756e-06,-68851572.2711,1.57932034387e-05,0.0,5923906.57749,678.209137215,645.930291332,67253644.6325,1661.88671487,48646810.712,71009070.7683,4254.15380185,4246.89274172,0.0
1.03796348128,0.940631887224,9.92620370529e-06,-55541826.3025,1.4453958975e-05,0.0,5844306.9376,678.443949545,646.744213012,67027001.1227,1676.94242688,40149845.1372,71116492.0121,4308.58641079,4300.08531288,0.0
1.07610120654,0.773797365047,1.00392560435e-05,-30797506.6029,1.79684855414e-05,0.0,5767018.17357,680.186986317,649.125371049,66838794.3627,1728.58494327,35331303.8692,69288855.6797,4466.89610835,4458.2832232,0.0
1.17197461079,0.855919321725,1.01590052457e-05,1695904.70367,2.42738508444e-05,0.0,5384186.51667,686.072335791,655.338059382,65696944.7941,1848.10647604,50635403.8117,66936320.3777,4864.86660939,4853.778705,0.0
1.06855435345,0.910555065674,9.76367015438e-06,-35951214.1562,1.55897886539e-05,0.0,5807011.61584,679.980291843,648.696864911,66952715.5325,1718.72835789,34691000.8931,70189214.0637,4435.56912117,4427.07457381,0.0
1.11166435507,1.0844184335,1.01730812112e-05,-16802990.4966,1.67370220556e-05,0.0,5630918.06014,682.195085133,651.479222179,66437474.8796,1772.38137863,40381680.3273,69158105.2331,4614.5187379,4604.56257019,0.0
0.936211719121,0.908027629034,9.91499231782e-06,-92976897.107,1.38642448787e-05,0.0,6124404.24676,687.967505902,640.244223689,67711961.187,1607.22008234,68130996.6408,68343704.4392,3886.21484607,3880.16639553,0.0
1.27081503278,0.821543171896,1.0323562452e-05,23629087.7015,3.51435691507e-05,0.0,25407188.3229,692.269392129,661.522410451,64225600.5455,1962.39595666,66587648.8392,67492205.9177,5275.15320107,5262.2284739,0.0
1.16532161038,0.898933015672,1.03085591275e-05,624576.291969,2.30444339686e-05,0.0,5442132.14584,685.49571653,654.948006098,65853176.1601,1840.68234336,50113883.177,67478289.2886,4837.25000469,4826.71253269,0.0
1.0969217328,0.885863062514,1.01051789673e-05,-23455255.3776,1.82270350961e-05,0.0,5720921.30669,681.489676333,650.60658379,66713181.9988,1756.41783893,36959354.9653,68983354.6918,4553.32211285,4544.57503123,0.0
1.02925321294,0.765944398943,1.05548938208e-05,-59216007.6604,1.59307453605e-05,0.0,5801496.81486,677.612678358,646.16533189,66888373.0774,1663.93813514,42142959.2434,70497366.4179,4272.43008691,4263.55613718,0.0
1.1669814877,1.10655623641,1.03146636e-05,-409396.53788,2.08551841875e-05,0.0,5459224.29134,685.532723493,655.054497887,65937019.6653,1843.42129507,49453979.6386,67541116.2153,4844.14015544,4833.71026779,0.0
1.16655629867,1.15553835442,9.82152583755e-06,-172766.572366,1.8369862024e-05,0.0,5459944.56433,685.746363627,655.021320542,65933729.3029,1841.13692441,49971839.4196,67844979.2286,4842.37519578,4831.38624084,0.0
1.03219160133,1.15446140013,9.76759425277e-06,-60024830.5389,1.22901647099e-05,0.0,5922872.96567,678.209751746,646.398038694,67264982.5224,1671.47137605,42816135.0565,71098762.1474,4284.62733712,4277.26115654,0.0
1.0132091769,1.04260818082,9.96089786531e-06,-80382721.0819,1.29323524203e-05,0.0,5957301.81329,677.669208229,645.172042504,67316883.744,1646.1828146,57504409.305,70774736.0001,4205.83129331,4198.73560295,0.0
1.02804814685,0.694567021589,9.9991473954e-06,-61736919.0368,1.62419296767e-05,0.0,5900837.70787,678.004940038,646.130261994,67193188.4902,1666.23642398,43751708.9789,70947615.3555,4267.42785757,4260.12108676,0.0
1.04839379478,0.893355282358,9.52844308465e-06,-49146933.927,1.50764521001e-05,0.0,5824172.61207,679.353104982,647.488534373,66977474.0459,1690.31188726,37241473.8946,70990493.2864,4351.88264213,4343.03422541,0.0
1.14755532745,0.898835507225,9.84026142259e-06,-6226950.44624,2.09527771586e-05,0.0,5547241.67406,684.480289569,653.677351933,66196448.5956,1819.53293892,46701988.4067,68806822.6158,4763.50216425,4753.37236625,0.0
1.22924482254,0.941074817836,1.04331554587e-05,15571257.4445,2.82013429479e-05,0.0,17131902.8766,689.375610345,658.959426514,65072158.2445,1916.73473007,60538734.2494,66672549.5915,5102.59525836,5091.02869808,0.0
1.1121139825,0.935359980456,1.00120497794e-05,-16740585.8599,1.85367985427e-05,0.0,5626228.82988,682.422597134,651.519205993,66419281.1366,1773.30358868,40391509.682,69119547.0081,4616.38514136,4606.42108697,0.0
1.08387251124,0.845678766449,1.03094523757e-05,-27360732.3397,1.79138732309e-05,0.0,5752030.62703,680.611194918,649.776706221,66797426.6469,1739.73190392,35877215.8914,69182508.1224,4499.15479416,4490.70902983,0.0
1.20291001054,1.03431760799,9.7054775936e-06,9261933.43441,2.27772980022e-05,0.0,10669573.4208,688.055139647,657.301300736,65603027.1077,1886.55117165,55632841.3311,66976554.3362,4993.27945375,4982.16024718,0.0
1.03794920408,0.847057099776,9.83349414143e-06,-55812363.1939,1.52587899587e-05,0.0,5889823.40673,678.446948717,646.749158814,67173741.4881,1679.35104081,40362601.6318,71110842.7538,4308.52714614,4301.07951416,0.0
1.06262614295,0.790545752427,9.61579861384e-06,-39710579.3754,1.68214008136e-05,0.0,5835014.35193,679.788291043,648.321567593,67035309.4373,1711.71948432,34998930.6025,69964387.7941,4410.96111939,4402.96233914,0.0
0.993495862607,0.755127944721,1.01969720183e-05,-95219201.8312,1.55614318675e-05,0.0,5905317.31009,678.916490868,643.909293492,67124694.6437,1616.53698976,70105446.1305,70362048.1596,4124.00132568,4115.87874753,0.0
1.15860476653,1.13471841114,9.91313065229e-06,-3355019.15836,1.82010994295e-05,0.0,5484802.73951,685.260274739,654.533669788,66022278.1894,1831.7048648,47940611.1672,68160904.8601,4809.36838587,4798.53232733,0.0
1.09479442018,1.03215282868,1.00805631635e-05,-23560007.2356,1.580783996e-05,0.0,5700152.57323,681.319030065,650.423628272,66643596.9698,1751.55593371,36851230.1645,68891618.0898,4544.49163817,4535.02366617,0.0
1.10655975341,0.859792900722,9.94867508728e-06,-20700893.5235,1.92588263454e-05,0.0,5699818.18074,682.19326903,651.23189577,66660493.9241,1769.16874861,38130614.8374,68727208.6605,4593.3295364,4584.42872777,0.0
0.963473776253,1.32575557337,9.69178494686e-06,-94229975.58,1.09641880441e-05,0.0,6064781.51879,684.526157458,641.994361554,67553692.2962,1613.59257031,69234110.4292,69461789.91,3999.37964523,3992.40697875,0.0
1.08207372794,0.79455545233,9.80596611263e-06,-29445665.2455,1.79754607844e-05,0.0,5769423.56728,680.88154181,649.658100651,66860600.6252,1737.07917772,35650422.673,69337619.1689,4491.68804468,4483.17291574,0.0
1.07254747454,0.921547842654,1.03053801496e-05,-31600350.357,1.62213433649e-05,0.0,5775972.18227,679.902574755,649.013786135,66868060.9658,1724.12830052,35111211.5374,69367391.2402,4452.14456682,4443.68078888,0.0
1.01633769022,0.952215779215,1.02514554737e-05,-73321018.0357,1.40448816854e-05,0.0,5877077.50372,677.562127466,645.363996103,67088178.7956,1647.95076193,51931182.09,70629974.2507,4218.8177521,4210.66074118,0.0
1.15112244682,1.1984023066,9.99172184832e-06,-5193425.23706,1.79909169449e-05,0.0,5540197.32312,684.537442283,653.941942558,66198587.6167,1823.49404806,47164295.7311,68644402.0763,4778.30927675,4768.05043586,0.0
1.10499926593,1.22552051962,1.02402648256e-05,-18828435.7412,1.46744218968e-05,0.0,5648376.15162,681.72441096,651.092321012,66488887.4926,1763.0746394,39277865.9229,69129194.9568,4586.85195288,4576.82257127,0.0
1.17532362605,0.868505340306,9.67907157023e-06,1937446.51228,2.35789030769e-05,0.0,5408787.85542,686.539418663,655.565626292,65790771.8218,1852.76931292,51154435.6759,67030088.6216,4878.76837173,4867.7395283,0.0
1.20344244339,1.00300461469,1.02845239263e-05,9096400.36601,2.40630697542e-05,0.0,10409905.1312,687.807196669,657.275812888,65321744.7448,1885.60840405,55156345.9999,66793380.2997,4995.48958251,4983.82448242,0.0
1.14641269168,0.924075613585,9.55071494904e-06,-7382486.64642,2.1250569413e-05,0.0,5543548.07356,684.741878265,653.671510332,66205586.4456,1817.87042833,46219965.3613,68568273.1725,4758.75908316,4748.49143295,0.0
1.05072121149,1.12784114979,1.00266309713e-05,-44687820.7876,1.29703529824e-05,0.0,5824576.10579,678.806719992,647.549853739,66983152.3808,1693.49999061,35747267.0167,70518743.4853,4361.5437489,4352.80450285,0.0
1.197351568,0.858441017249,1.05095609525e-05,9201277.24193,2.70092208581e-05,0.0,10540926.9695,687.364913663,656.9330365,65417823.8868,1879.30212525,55280096.1577,66659929.2305,4970.20635877,4959.2059659,0.0
1.18783960198,0.796170213949,1.01250405654e-05,6058536.37088,2.6847539252e-05,0.0,7607242.39502,687.076311901,656.330294758,65556517.0838,1868.03779662,53251230.0626,66698289.7676,4930.72218782,4919.68131621,0.0
1.04523586473,0.82637704711,9.8555612446e-06,-48365545.0953,1.55908421798e-05,0.0,5825164.57074,678.806856348,647.206805562,66969847.5129,1686.38386322,36966019.6205,70924030.7673,4338.77407449,4330.12399217,0.0
1.08975891286,0.908426917999,1.00612948967e-05,-25959699.7429,1.73175199702e-05,0.0,5745188.39773,681.06417697,650.121195087,66790551.5804,1747.04715526,36224172.3031,69226868.7876,4523.58924728,4514.95446846,0.0
1.1401451428,0.896742694218,9.97783756027e-06,-8880520.01061,2.21717733964e-05,0.0,5595759.98379,684.090120723,653.323406463,66380843.165,1812.00150557,45207130.7753,68155318.5486,4732.74248776,4723.39655384,0.0
1.13000987137,0.858948242316,9.97059823583e-06,-11893357.2654,2.1238547855e-05,0.0,5584217.71081,683.463445372,652.591653748,66322857.4394,1797.31293462,43264816.076,67378510.9609,4690.67097606,4680.79567142,0.0
1.05645711924,0.778880919202,1.01732147166e-05,-41142739.6622,1.71366062083e-05,0.0,5833712.19405,679.019127981,647.915955012,67031192.6994,1703.99448858,35067168.2568,69590487.618,4385.35350197,4377.63567605,0.0
1.17255592958,0.897801138777,1.02197279015e-05,2173286.42751,2.3532845892e-05,0.0,5401203.00335,686.011586487,655.379048388,65742425.5063,1849.11728796,50945518.3257,66994146.2643,4867.27966369,4856.39210946,0.0
1.13084466583,1.18410105487,1.02013602708e-05,-11613433.5314,1.69255590753e-05,0.0,5600635.02975,683.209575452,652.651067086,66361689.5699,1798.13887043,43313066.5845,67530771.7659,4694.13620786,4684.24634826,0.0
1.14894537475,0.848690449108,1.02216490443e-05,-6921185.26115,2.42524340624e-05,0.0,5556448.288,684.53609316,653.904420756,66266397.0892,1823.72694698,45988249.7984,68634955.7344,4769.27225059,4759.88831652,0.0
1.01813075095,1.22979500458,1.00474964145e-05,-73677026.0558,1.15827967298e-05,0.0,5943520.08116,677.593826945,645.497629448,67298842.7817,1652.32259436,52216015.216,70913815.0567,4226.26074719,4219.00651045,0.0
1.14508874006,1.05809130218,9.96007264408e-06,-8568946.06694,2.0002244809e-05,0.0,5594287.26623,684.297588544,653.596546451,66364811.6942,1818.39391348,45289053.0582,68405831.1993,4753.26335999,4743.83647399,0.0
1.0125888386,0.914173067994,9.54083562891e-06,-82214366.7633,1.43911796244e-05,0.0,5905480.6175,678.438427442,645.135239426,67141505.3714,1642.42476443,59012014.4342,70966959.4246,4203.25626903,4194.99060478,0.0
1.12733034653,1.00397127501,9.72001256467e-06,-13138951.0221,1.88081593994e-05,0.0,5583917.8635,683.515957422,652.476604667,66319322.4219,1792.6631407,42376734.0261,67984055.3649,4679.54826845,4669.22266735,0.0
1.04914211052,0.755339003917,9.76574565605e-06,-45907535.6695,1.61755774888e-05,0.0,5819161.91953,679.065428531,647.443488252,66957992.0879,1691.73435363,36176315.947,70527109.6961,4354.98890077,4346.27507658,0.0
1.03702832548,0.961981392658,9.68678756968e-06,-57220523.2066,1.41564907718e-05,0.0,5903830.56966,678.522174444,646.704911277,67213558.1027,1678.01684043,41154183.0034,71180996.1048,4304.70457907,4297.27022944,0.0
1.0652582572,1.06920570742,9.98855965469e-06,-36569358.7569,1.38168628976e-05,0.0,5816914.99043,679.564834593,648.482577035,66980183.5098,1714.30086312,34662531.8105,70198962.8141,4421.88702564,4413.4426146,0.0
1.08389995215,0.992138316031,9.78143508604e-06,-28910350.0819,1.57534370489e-05,0.0,5778890.70549,680.934866617,649.788015614,66892351.6186,1739.32120291,35755218.0829,69386131.2062,4499.26870137,4490.72534073,0.0
1.11239953903,0.941106419122,1.01089671604e-05,-16689652.6333,1.85316542416e-05,0.0,5626812.52383,682.350525927,651.528695282,66428583.1065,1773.85489615,40409192.4624,69172388.1476,4617.57048651,4607.69891255,0.0
1.09113856246,0.990815318254,1.03427426512e-05,-24847344.9754,1.68268176915e-05,0.0,5739930.29965,680.893921449,650.190140781,66772374.7215,1749.12019385,36468285.8258,69047048.1652,4529.31617277,4520.75803376,0.0
1.19690250897,1.23048508145,9.5331458543e-06,6672820.08615,1.90245765111e-05,0.0,8282524.13583,687.690765304,656.928973046,65807749.6507,1879.96671034,54042974.1363,67053821.2243,4968.34231473,4957.40926279,0.0
1.19318594061,0.792405343286,1.01303386761e-05,6545817.14824,2.75874484092e-05,0.0,8031522.37758,687.540622787,656.687708567,65328744.8597,1873.53525948,53379739.6622,66434582.6817,4952.91483947,4941.24282619,0.0
0.99361023772,0.947903290145,1.04274575641e-05,-95204952.8361,1.40240413084e-05,0.0,5905998.9108,678.300099381,643.91444408,67130300.0995,1616.64662813,70092909.3921,70451783.7415,4124.47609678,4116.35168202,0.0
1.03493699757,0.719889431875,1.0624679295e-05,-54562260.4898,1.6576561713e-05,0.0,5816905.27079,677.765924846,646.519092396,66950544.5778,1673.59818598,39567266.372,70758907.9293,4296.02347691,4287.74509952,0.0
1.15548989507,0.889569887829,9.99012807e-06,-5628616.10128,2.38693722901e-05,0.0,5547706.01562,685.071549472,654.32093978,66243621.1286,1832.08857744,46814589.201,68564916.2767,4796.43855444,4786.94944783,0.0
1.2603380278,1.01398717345,1.02464880747e-05,21673405.27,2.99651515492e-05,0.0,23672069.7609,691.468901229,660.872332934,64594294.0922,1951.51849475,65390591.2724,66270285.6069,5231.6631534,5219.18538761,0.0
1.13363576943,0.821190257312,9.72593322577e-06,-11391418.2157,2.20824290343e-05,0.0,5597509.45991,683.960618738,652.917515089,66378125.795,1802.93457417,43587623.6972,67552169.8834,4705.7220789,4696.06403742,0.0
1.19239754053,0.986988486507,1.01633076956e-05,6296749.82932,2.34358388038e-05,0.0,7770442.0995,687.297707379,656.634664664,65427706.7683,1872.179149,53232528.6488,66545883.7029,4949.64219074,4937.98476232,0.0
1.12619017546,0.83122955881,1.02719715334e-05,-12534710.1532,2.15395399327e-05,0.0,5579222.22899,683.148858875,652.411628407,66289207.1284,1792.54275749,42741550.0594,67119843.5588,4674.81541833,4665.00430068,0.0
1.10950471933,0.818553342604,9.59416468689e-06,-18920392.5706,1.93416209651e-05,0.0,5675111.91577,682.61376749,651.405704323,66580437.7365,1771.46637364,39385463.4099,68847025.1497,4605.55408994,4596.12035524,0.0
1.11503307162,0.976098064947,1.05305530038e-05,-15198135.6388,1.86917325737e-05,0.0,5623725.03476,682.168741889,651.676700584,66418942.9958,1778.27682466,41049776.695,68863490.4392,4628.50228029,4618.97837805,0.0
1.13612915764,0.927153623092,9.9902893575e-06,-11827711.5998,2.12463517152e-05,0.0,5526243.38081,684.013501254,653.060939834,66148491.6845,1804.29627424,43324686.0447,67522731.3476,4716.07213336,4705.55372029,0.0
1.14360259617,0.937391763803,1.01620935986e-05,-8543091.18666,2.20881055891e-05,0.0,5586258.87031,684.128044727,653.498194884,66349476.7596,1816.89583654,45074122.3346,68292668.9572,4747.0943767,4737.79761497,0.0
1.10803528263,1.00801085224,1.00169486093e-05,-20167847.0967,1.75679992924e-05,0.0,5703500.95074,682.153825867,651.31662449,66677131.4013,1770.90811126,38434938.3515,68837092.0942,4599.4544582,4590.53027438,0.0
1.17760686807,1.04730145291,1.00111668007e-05,2714592.51971,2.09693536997e-05,0.0,5403423.93961,686.356126099,655.688482665,65767032.086,1855.11362676,51350547.428,66988284.402,4888.24610936,4877.16166673,0.0
1.09605691366,1.08019532466,9.92442707171e-06,-24083988.3658,1.55354431061e-05,0.0,5748724.3038,681.441892687,650.522817298,66806002.5321,1755.27778987,36804530.4997,69155327.8103,4549.7322486,4540.99788995,0.0
1.17031847912,0.922142264396,1.01387708397e-05,1132953.05867,2.27441489588e-05,0.0,5402308.66831,685.939033309,655.246595253,65746658.5082,1846.03627179,50346889.9268,67378385.8016,4857.99200683,4846.93445449,0.0
1.0083639646,0.901921962573,1.02826472306e-05,-80235815.5944,1.37369250284e-05,0.0,5913981.82352,677.303125518,644.863413136,67162491.675,1637.71055316,57382276.6426,70615898.8905,4185.71881705,4178.00163514,0.0
0.920989595415,1.05212114757,1.00825054291e-05,-92083538.9755,1.28678608568e-05,0.0,6107250.79774,689.804531738,639.248333663,67628473.7947,1600.88793082,67344834.1922,67628473.7947,3823.02781057,3816.32249394,0.0
1.12027802774,1.17140529224,1.03717338139e-05,-14522481.053,1.63793227408e-05,0.0,5581401.42487,682.56414577,652.003985443,66286696.1498,1782.9120619,41429912.8654,68085524.5737,4650.27409315,4639.89610842,0.0
1.10707990761,0.945000421038,1.0650802181e-05,-17543574.8334,1.86870293578e-05,0.0,5597973.34629,681.711732378,651.189450118,66329297.9311,1766.27978524,39805823.9524,68806603.1408,4595.48869649,4585.42300661,0.0
1.04104452206,0.813204508396,1.00072479111e-05,-52263206.861,1.57616297584e-05,0.0,5826536.08062,678.545785234,646.933982782,66976828.2098,1681.14268903,38557180.4896,70842254.0633,4321.37581107,4312.82507525,0.0
1.04716906096,1.09568519703,9.90583178109e-06,-47146000.9062,1.3102797453e-05,0.0,5832746.28284,678.855620941,647.401931456,66997773.5397,1688.77310079,36556485.9618,70437919.1733,4346.79877205,4338.11730796,0.0
1.09758204125,0.749785435472,9.65298619269e-06,-24112697.7046,1.96784556134e-05,0.0,5724375.49109,681.88020666,650.618157839,66723850.2464,1757.24974564,36834025.9076,69187391.4233,4556.06305323,4547.20679194,0.0
1.07576250472,0.872051783001,9.72726169088e-06,-32340224.7299,1.64970081839e-05,0.0,5798837.94089,680.337296775,649.103979575,66938695.6555,1728.72930377,35059362.0166,69791679.2746,4465.49015709,4457.0731035,0.0
1.15056190088,0.798314550131,9.95975793553e-06,-7097134.48034,2.50742598891e-05,0.0,5558757.04415,684.823130779,654.001695716,66269768.9137,1825.97259492,46030242.3438,68671008.6865,4775.98245055,4766.57258265,0.0
1.22363034384,0.914944520594,1.03087582378e-05,14074978.913,2.76889062861e-05,0.0,15431386.752,689.165764226,658.590664638,65026872.5888,1909.33849847,59274742.4583,66496102.6118,5079.28955728,5067.35082918,0.0
1.19310624819,1.05682237386,1.03022190409e-05,7018824.11009,2.22328219925e-05,0.0,8442852.79603,687.173614541,656.692843502,65504633.1126,1873.43124835,53727867.6683,66503570.3342,4952.58403624,4941.23683974,0.0
1.20705564874,0.871032198394,1.03245289075e-05,10796761.422,2.70749754862e-05,0.0,12130197.1895,688.042032614,657.482443897,65254631.5078,1890.27567838,56617810.0838,66603413.004,5010.48799792,4998.99101383,0.0
1.10151642339,1.01245961119,9.67397511888e-06,-22816474.137,1.66348026795e-05,0.0,5732815.13201,682.013088134,650.911194714,66758713.3494,1762.1401857,37299646.0186,69080794.3896,4572.39467349,4563.47587464,0.0
0.952613025322,1.15794537175,1.01644414876e-05,-93534432.7549,1.21236404765e-05,0.0,6071931.36944,685.23519043,641.294722675,67582756.676,1609.76167279,68621938.8406,68842508.5564,3954.29666811,3947.74282616,0.0
1.04133389601,0.862395645908,9.79845231906e-06,-51759600.8176,1.51637642938e-05,0.0,5831582.11651,678.705146439,646.952072146,66991044.4115,1681.00918272,38290499.1192,70879097.3843,4322.57700234,4313.84606298,0.0
1.23054500723,1.04537598152,9.70221130519e-06,15213094.1396,2.46711419189e-05,0.0,16609899.9428,689.793773351,659.050763165,65196824.0894,1918.4970194,60291464.9632,66818058.2202,5107.99232501,5096.22266783,0.0
1.18821820045,0.735752289779,9.56459676994e-06,5009593.50085,2.76278971277e-05,0.0,6730535.64114,687.464478432,656.351283192,65679485.689,1869.64807318,52963822.4288,66998558.1108,4932.29375007,4921.34916789,0.0
1.12671995398,1.02398507092,1.02407890621e-05,-13014586.7665,1.93522312005e-05,0.0,5646324.57091,683.048164697,652.468512608,66510850.0239,1795.2415211,42555588.6036,67921607.7338,4677.01452897,4668.01116274,0.0
1.01946324428,1.12511113281,1.01998607247e-05,-70510474.5404,1.25291048275e-05,0.0,5879858.58181,677.566105782,645.565366962,67103562.715,1651.84429599,49821727.315,70930839.472,4231.79192701,4223.50029831,0.0
1.20046287772,1.14627250561,1.02658644038e-05,8433361.17452,2.13516781678e-05,0.0,9802967.82456,687.590804808,657.118731885,65351238.6635,1881.31511044,54727729.2183,66660918.5983,4983.12140542,4971.29596856,0.0
1.04625729017,0.898867103562,9.84735825947e-06,-47822979.2983,1.49237828455e-05,0.0,5827653.58492,678.828492224,647.268696325,66979379.718,1687.68731077,36710472.5727,70707402.8199,4343.0140115,4334.34735399,0.0
0.900689223121,0.936190512416,1.00063245228e-05,-91202286.5621,1.32154269703e-05,0.0,6140032.26835,692.343072266,637.938076773,67696988.0243,1593.68557392,66569237.6012,67696988.0243,3738.76096518,3732.10172916,0.0
1.16706311706,1.00169979406,1.02436963641e-05,-1565514.75834,2.32264831816e-05,0.0,5385500.75481,685.764380261,655.040926111,65708138.6292,1841.99981697,48600728.3693,67488107.253,4844.47899892,4833.21387045,0.0
1.17799582039,1.01200824567,1.04244103554e-05,3418832.61804,2.21545719633e-05,0.0,5505904.90091,686.133087574,655.691797227,65674749.5575,1855.54560081,51566293.2678,66926360.4441,4889.86065044,4878.87494548,0.0
1.12128170894,0.964517614055,9.86438563671e-06,-14544895.5216,1.89072063786e-05,0.0,5603612.05506,683.036464291,652.068745399,66361708.9157,1785.13579503,41561518.5169,68440355.1389,4654.44037381,4644.31834035,0.0
1.12304200179,0.913373707642,9.57767318764e-06,-15034270.3958,1.97556116646e-05,0.0,5679051.34069,683.271748879,652.209301243,66619876.791,1790.57102355,41425351.2533,69183621.652,4661.74734943,4652.69848159,0.0
1.13619769487,1.06185202938,1.0342331325e-05,-10432029.8144,1.96993565798e-05,0.0,5613234.43281,683.565841962,653.091346681,66427129.3438,1807.29623137,44000793.8778,67930106.487,4716.35663141,4707.20267999,0.0
1.10966939822,0.712450277114,1.0009482944e-05,-17476456.6985,2.1620023268e-05,0.0,5663723.57123,682.349326048,651.397541027,66555561.8757,1772.30710073,39940635.3057,68969049.0058,4606.23767201,4597.09867532,0.0
1.15760466908,1.05186872423,9.73117085491e-06,-4295121.91011,2.04304244043e-05,0.0,5534203.49166,685.294000501,654.447666144,66198730.4399,1832.98311334,47774137.5977,68527212.1613,4805.21698135,4795.14581092,0.0
1.14115580702,0.98953995516,9.50466488832e-06,-10870096.9409,2.02675662246e-05,0.0,5532380.35419,684.583445331,653.383036806,66179667.1772,1810.39720349,43952285.4571,67823756.6631,4736.93775494,4726.24430261,0.0
1.20018436561,0.782102215949,1.04129686087e-05,9091352.20756,2.87228867011e-05,0.0,10457931.7772,687.704860429,657.094888842,65289703.7104,1882.41385232,55150857.4729,66617881.006,4981.96530165,4970.59960615,0.0
1.13907549606,0.974307607378,9.93065104705e-06,-8923059.02611,2.04780435645e-05,0.0,5581372.07722,684.048572155,653.255061733,66324670.947,1809.39780274,45243581.6936,68136443.1524,4728.30238415,4718.55716305,0.0
1.20925887561,1.02692549775,1.01035995553e-05,11030089.1639,2.38803369612e-05,0.0,12348850.77,688.169238657,657.631816571,65395664.6206,1893.4543184,56807409.6929,66788990.131,5019.63359266,5008.29042349,0.0
0.972069742662,1.07058484098,9.86292068886e-06,-94407294.7808,1.3133374029e-05,0.0,6032080.77024,683.332529828,642.548398304,67485351.6998,1616.94800104,69390292.7297,69622396.9319,4035.06150179,4028.15526986,0.0
1.15625804071,1.07303538361,1.00909678858e-05,-3417808.46892,1.92081372977e-05,0.0,5514855.79193,684.997045441,654.39629094,66110431.5227,1830.13103617,48082642.4652,68056078.6125,4799.62712699,4789.3488863,0.0
0.98219253856,1.03300673872,1.01445671483e-05,-95036810.9087,1.30235604784e-05,0.0,6000870.50252,680.177706128,643.199448436,67398076.168,1610.84147592,69944587.268,70184018.8168,4077.08122756,4070.08669874,0.0
1.15233355027,0.950829333393,1.00241691826e-05,-6486433.16853,2.25338588218e-05,0.0,5563420.88283,684.826552271,654.127556568,66288235.7698,1828.01673444,46365501.2524,68685657.1773,4783.33656717,4773.89824343,0.0
1.01544117985,0.969744212809,9.86366761842e-06,-78624613.7018,1.36303989019e-05,0.0,5951575.38941,677.829850013,645.333160965,67311942.0785,1649.22994552,56086686.1435,70978539.2143,4215.09633756,4207.96906629,0.0
1.17304716882,0.971979917323,9.80584449587e-06,1864687.31315,2.17100286697e-05,0.0,5422388.37051,686.241059277,655.42237159,65823101.124,1849.52535214,51088627.3679,67202146.2125,4869.31879777,4858.31339897,0.0
1.22669489629,1.10081255675,9.67248277054e-06,13923303.3133,2.32794439522e-05,0.0,15367925.5894,689.553963112,658.799226468,65238886.1455,1913.8057347,59288457.337,66683112.0492,5092.0105145,5080.14169936,0.0
1.07376546965,0.888801963675,1.01161045946e-05,-31364917.9009,1.64282657991e-05,0.0,5778329.97951,679.938643189,648.967300998,66870434.0403,1725.42859577,35190935.3192,69470141.4848,4457.20046452,4448.62364152,0.0
1.10614984806,1.03246253326,9.61672118608e-06,-20264886.5423,1.66102615122e-05,0.0,5653246.00506,682.359383115,651.187408651,66500998.3342,1764.9515156,38766085.0023,68666548.3788,4591.6280193,4581.48258386,0.0
1.03097962167,1.14629200797,9.9637274925e-06,-61226520.0623,1.24319947683e-05,0.0,5870391.43998,678.07867353,646.301113665,67095558.3273,1667.56559225,43466038.4831,71036003.8283,4279.59640955,4271.20603544,0.0
1.09801357935,1.02665687594,1.06174389233e-05,-21718052.4884,1.66111550311e-05,0.0,5646860.38556,681.225020521,650.667793866,66469011.564,1755.09950408,37501824.8919,68221775.1258,4557.85436788,4548.04808581,0.0
1.12982272066,0.981832532624,9.98263416234e-06,-11955202.9539,1.94815901469e-05,0.0,5595205.33055,683.378733948,652.579086609,66357398.7474,1796.94003707,43233219.1593,67398194.5786,4689.89411346,4680.02197814,0.0
1.06629209829,0.972522425839,9.74406223423e-06,-37045819.6527,1.47957050817e-05,0.0,5817466.10927,679.845076745,648.549488499,66979756.76,1715.72098689,34687018.7471,70232717.2949,4426.1785,4417.71791624,0.0
1.18856763592,0.995137996786,1.03268169005e-05,6395292.02988,2.32004109216e-05,0.0,7899003.44524,686.855105919,656.399342855,65632833.983,1868.98759649,53425347.7608,66674594.3943,4933.7442567,4922.89787133,0.0
1.12681443012,0.814076916312,9.84787855605e-06,-12900845.4005,2.15406551471e-05,0.0,5616525.64605,683.434247679,652.460921914,66414534.0351,1794.20232653,42477462.6807,68043370.4091,4677.40669943,4667.88778582,0.0
1.01862244061,0.978334691873,9.93583401303e-06,-74166842.2484,1.36011807793e-05,0.0,5940735.97271,677.789398517,645.524929137,67292327.7921,1653.50640309,52587714.908,71412989.8396,4228.30175097,4221.12936417,0.0
1.12028805044,0.863571197381,1.04088196425e-05,-14040594.9309,2.05941216418e-05,0.0,5601902.5094,682.645969535,652.022563192,66357949.2312,1785.13130921,41743991.9396,68102745.9858,4650.31569738,4640.70273565,0.0
1.1794942227,1.09328647534,9.68231308578e-06,2623740.91267,1.9955242534e-05,0.0,5412125.63501,686.64302343,655.810743919,65802172.2116,1857.39343309,51467860.936,67047329.5607,4896.08051843,4884.86994693,0.0
1.14363524212,0.957212055244,9.56962975641e-06,-8455403.34828,2.04705662076e-05,0.0,5521487.34233,684.615738595,653.509366325,66139909.8601,1813.08387263,45520506.1558,68254851.3141,4747.22989004,4736.50995749,0.0
1.2196640479,0.823570799168,9.95762499148e-06,12961522.4285,2.86981025082e-05,0.0,14170600.9002,689.177208307,658.338879258,65116863.0588,1905.46420975,58332543.0012,66342731.4168,5062.82546283,5050.97860891,0.0
1.13568727294,0.958309464359,1.00709029686e-05,-11916867.1299,2.07196182224e-05,0.0,5528741.21556,683.906314782,653.032362691,66158960.8141,1803.68949173,43285405.1668,67525469.8888,4714.23786997,4703.75201877,0.0
1.01522153232,0.933893189111,9.92729216448e-06,-78259619.0496,1.3895881406e-05,0.0,5948147.21755,677.76639631,645.317373654,67302622.5687,1648.968767,55792067.4205,70916429.7761,4214.18458066,4207.06041987,0.0
1.23790852781,0.764744667199,9.81485454297e-06,17157846.1125,3.19365567258e-05,0.0,18664302.405,690.368236602,659.453962605,64937395.0941,1927.33795492,61811494.8488,66866983.6352,5138.55829894,5126.65120363,0.0
1.11700296098,0.886740915658,9.851719376e-06,-15858649.2294,1.95487061196e-05,0.0,5664449.64875,682.735078188,651.810768512,66566312.3108,1781.7435357,40889833.6172,69433093.6466,4636.67929103,4627.42197931,0.0
1.10547549258,0.869325232702,1.02815140038e-05,-18532514.4888,1.92147370354e-05,0.0,5613320.7283,681.916408198,651.113677308,66382091.498,1764.0614147,39458996.6863,68742017.9386,4588.8287697,4578.79107335,0.0
1.28314377919,0.804682638546,1.02098116773e-05,25750216.8443,3.71452045616e-05,0.0,27348666.9267,693.03386125,662.200079107,64018882.0899,1976.62272442,67740601.4172,68614430.6162,5326.32982742,5313.16877635,0.0
1.15520456862,0.95805116093,9.93890264866e-06,-5342558.56603,2.21067460413e-05,0.0,5514868.05792,685.10357745,654.291368999,66134965.5891,1829.74820223,46807420.2987,68453287.3115,4795.25416434,4785.12979956,0.0
1.11770993601,1.13941182527,1.02707034428e-05,-15413779.4687,1.64671620239e-05,0.0,5595646.37156,682.466456792,651.825520442,66324400.373,1779.73030454,40976237.5987,68702633.6833,4639.61394438,4629.2814472,0.0
1.04481798872,0.952392937493,9.97307015786e-06,-50649758.7867,1.45882580203e-05,0.0,5873433.34356,678.600735344,647.198621783,67135487.0079,1688.4932425,37848859.5649,70902500.0635,4337.03947118,4329.49244979,0.0
1.07258430143,0.815183060927,1.02979207717e-05,-31595173.4967,1.7448312058e-05,0.0,5769415.57814,679.952220997,649.016179157,66847793.1987,1724.25578395,35108572.0334,69349722.3756,4452.29743524,4443.83308347,0.0
1.17231912552,0.728082765957,9.81409552915e-06,525020.707352,2.89582597302e-05,0.0,5474282.24836,686.352709216,655.416002281,66019509.5947,1852.86763696,50427978.197,67721523.6252,4866.29669003,4856.5196135,0.0
1.15793301251,1.02961571309,9.58099628367e-06,-2672686.51572,1.93498540377e-05,0.0,5527445.1715,685.223659737,654.371635212,66148350.588,1831.91836192,48906148.6151,68490723.6237,4806.57993493,4796.15991829,0.0
1.07411864958,0.992848814012,1.03151185117e-05,-30835600.0693,1.55464080673e-05,0.0,5775977.10934,679.966388166,649.12680803,66858942.2963,1726.14055194,35224725.9588,69299130.5944,4458.66651441,4450.17824041,0.0
1.0522700189,0.95034461618,1.00688414703e-05,-43636852.1215,1.47767472678e-05,0.0,5807594.79479,678.908087816,647.635287051,66934571.5839,1695.69930049,35472131.6729,70424320.0173,4367.97284845,4359.20835994,0.0
1.01612683309,0.781564820755,9.71399108529e-06,-79174002.2471,1.52337512459e-05,0.0,5947498.76384,678.051266837,645.373183193,67301015.5129,1650.20841873,56529840.3202,70996958.3469,4217.94248416,4210.80549947,0.0
1.11107270488,1.12740970252,9.67458586423e-06,-19999867.8436,1.59573263018e-05,0.0,5712073.91289,682.520048644,651.510305583,66711368.8416,1774.40573411,38665397.988,68973043.479,4612.06279796,4602.99071317,0.0
1.1299765792,1.02508128115,1.01519559508e-05,-11864811.6919,1.90016632856e-05,0.0,5591766.79582,683.265081831,652.589481233,66330968.8663,1797.21709025,43154683.2412,67407252.2673,4690.53278026,4680.6576254,0.0
1.07216231013,1.11087856071,9.86722610339e-06,-33440311.3554,1.37049558789e-05,0.0,5817619.89172,679.976398445,648.906410643,66992329.9402,1723.82688216,34877280.4651,69970533.6877,4450.54574935,4442.18433013,0.0
1.05665548197,0.839684641098,9.85686372643e-06,-43434722.0853,1.61377273458e-05,0.0,5789823.00493,679.377151237,647.904085912,66885683.7907,1701.40843921,35396104.4182,70203413.2587,4386.17690566,4377.19183374,0.0
1.05804590859,0.871747052578,9.92036592793e-06,-40188662.2692,1.54992520728e-05,0.0,5824396.66243,679.287174177,647.994728926,66988958.7,1704.8665851,34891182.885,69757585.7929,4391.94856656,4383.61662814,0.0
1.12862981641,0.959589554708,1.0139798058e-05,-12201439.5041,1.98273187009e-05,0.0,5588349.92164,683.327729674,652.575797113,66318433.532,1795.57401708,42959646.1716,67276088.0744,4684.94236792,4675.09000902,0.0
1.11208204364,0.985432462111,1.00701988669e-05,-16861595.9369,1.79374310044e-05,0.0,5633343.09347,682.34427559,651.516402987,66446466.8752,1773.41357221,40328440.2319,69140687.7006,4616.25256315,4606.38655243,0.0
1.14443482524,1.11870543943,9.85195918049e-06,-8153466.41416,1.89223166046e-05,0.0,5613803.09893,684.270183414,653.564882725,66448020.407,1817.65476924,45722852.3848,68450385.9445,4750.54895957,4741.24179409,0.0
1.05140755126,0.669676018407,1.04987798997e-05,-40984723.6656,1.72930205707e-05,0.0,5805994.85637,678.564893261,647.571939967,66930076.911,1696.21521893,34914609.9646,70114566.6818,4364.39274528,4356.16521334,0.0
1.09645454251,0.661097936609,9.98650321781e-06,-23669149.7969,2.14934046642e-05,0.0,5711172.31214,681.641914531,650.559381072,66693271.1122,1756.17648267,36871599.4466,69008388.9846,4551.38280596,4542.64295649,0.0
1.1457646794,1.08669242353,9.64163541604e-06,-7833069.33541,1.92359936863e-05,0.0,5609240.31568,684.490458872,653.64460662,66423389.1682,1818.88409586,46011203.0521,68569413.809,4756.06918419,4746.62673907,0.0
1.02915453389,1.11773068216,9.94947858397e-06,-61032788.6427,1.25388279156e-05,0.0,5921186.94607,677.950784326,646.201987526,67257154.1269,1667.47062406,43286073.1607,71051593.762,4272.02047018,4264.69785577,0.0
1.09809523158,1.16584509982,9.74893014393e-06,-23778991.4612,1.46228731333e-05,0.0,5749895.99774,681.662301935,650.662459714,66805082.7328,1757.54705041,36945018.4977,69263805.3232,4558.19330629,4549.32889792,0.0
1.09442102803,0.636873975943,9.96208570325e-06,-24635083.3786,2.1726544739e-05,0.0,5713872.67829,681.524440183,650.405122129,66699398.9036,1753.40338432,36602907.9772,69042864.4287,4542.94168735,4534.2338806,0.0
1.06709508003,1.17175554572,1.03985616173e-05,-33755619.9984,1.32391212458e-05,0.0,5806132.55481,679.299844976,648.587371587,66952190.1056,1716.76052138,34797490.5947,69758870.9639,4429.5116772,4421.13268186,0.0
1.1496750353,1.06663018312,1.0299339108e-05,-6627457.29878,2.06494249331e-05,0.0,5569805.84064,684.425311662,653.955049449,66309931.5745,1824.37017514,46165284.1438,68656707.118,4772.30107153,4762.90543516,0.0
1.14079084659,0.988278457788,9.47354515014e-06,-8431967.39546,1.86520902815e-05,0.0,5553345.32722,684.463863646,653.36059885,66215427.4126,1809.45627799,45491408.6062,68209096.8595,4735.4228042,4724.81718253,0.0
1.12560661754,1.13166305863,1.04646476723e-05,-12413255.6161,1.73996977701e-05,0.0,5601674.93803,682.724365854,652.296829823,66361824.312,1791.40882364,42782084.8982,67223218.4996,4672.39306941,4662.59180639,0.0
1.07198332046,0.93039696249,1.01220665833e-05,-32172376.8343,1.58442975103e-05,0.0,5785543.60874,679.822523294,648.857400075,66888600.6896,1723.04939615,35085088.1828,69580241.3903,4449.80276323,4441.25321457,0.0
1.04315342704,0.906596632898,1.01953580553e-05,-48914067.6063,1.4917457629e-05,0.0,5818419.18176,678.443633442,647.06812135,66954310.1436,1683.69983027,37087911.9281,70972798.4194,4330.12987564,4321.45682847,0.0
1.01874798953,1.16045645375,1.02561753605e-05,-68884560.4349,1.20570719275e-05,0.0,5897471.94783,677.450858419,645.521109647,67152287.2412,1651.57715306,48651146.8514,70848378.1856,4228.82290454,4220.85315958,0.0
1.03109623479,1.16948422765,1.02995053852e-05,-59177036.3194,1.23852261847e-05,0.0,5852983.21616,677.753510312,646.294739787,67044476.5445,1667.34973753,42170589.7984,70948397.9922,4280.08047061,4271.60190611,0.0
1.1515324792,1.10796762175,9.80908186602e-06,-6753535.03741,1.92209238677e-05,0.0,5550415.34681,684.854122621,654.051776152,66239483.0482,1825.07722849,46208393.8609,68805783.5869,4780.01132116,4769.94922596,0.0
1.24076820253,0.865395321689,1.02681098476e-05,18118017.5599,3.07751583749e-05,0.0,19763366.7297,690.287815856,659.637698135,64801747.8532,1929.26180881,62528476.2262,66843671.3044,5150.4288087,5138.30647134,0.0
1.05844494249,1.05904106916,1.02914205047e-05,-37852080.5371,1.35939111539e-05,0.0,5793516.49011,678.995659376,648.023911597,66881050.52,1703.75495599,34592867.8184,69794551.5407,4393.60495628,4384.6489276,0.0
1.03269610823,0.718325347245,1.02423529509e-05,-56727054.5375,1.61581721169e-05,0.0,5830081.04557,678.018166263,646.397810072,66976512.0007,1669.93356886,40749819.0013,70846476.704,4286.72154526,4278.21681943,0.0
1.09510256222,0.827628132593,9.95178536864e-06,-24270627.0363,1.86310859527e-05,0.0,5731041.06826,681.477888794,650.453865714,66750577.2766,1754.24213798,36718462.5033,69097301.704,4545.77073578,4537.05212199,0.0
1.01536083742,1.28799778528,1.00867495666e-05,-75336584.4712,1.12957607472e-05,0.0,5901910.48401,677.592743972,645.307542001,67154436.9242,1646.24570915,53512015.8874,70816593.7136,4214.76283613,4206.53672718,0.0
1.17257736142,1.05726520375,9.99257631711e-06,1762322.94189,2.040060842e-05,0.0,5425420.33429,686.046895043,655.385968787,65825847.3524,1848.8119416,50867221.9364,67085881.6683,4867.36862725,4856.37576436,0.0
1.11277867058,0.864902782972,9.75074656848e-06,-17172050.601,1.90941119878e-05,0.0,5638270.51284,682.672362623,651.578307749,66469711.3971,1774.60176857,40175479.3102,69111775.3633,4619.14426158,4609.26619316,0.0
1.03459294452,0.871949946551,9.52427724004e-06,-59848233.0769,1.49954320688e-05,0.0,5847299.09324,678.685144012,646.526468764,67025427.4876,1671.40039391,42633717.1893,71162035.7908,4294.5953127,4285.80264388,0.0
1.03336125952,1.04720728092,9.43159917188e-06,-60257190.7839,1.30869085317e-05,0.0,5925636.07731,678.580011127,646.476974918,67268280.6915,1672.83076742,42944930.7792,71231402.0723,4289.48258827,4282.00827333,0.0
1.0756150144,0.951627026789,1.01047334894e-05,-30832592.5008,1.58170410744e-05,0.0,5773833.20185,680.218975223,649.221379559,66859594.4938,1727.80245021,35334019.0816,69301155.7785,4464.87792477,4456.2727024,0.0
1.02385925008,0.908633697262,9.62549932103e-06,-70737834.5513,1.43014846122e-05,0.0,5936925.0416,678.202913699,645.866752167,67290481.6733,1660.45720424,50023001.7082,70931184.3493,4250.03974708,4242.79282934,0.0
1.14684794063,0.812181526335,1.04013948942e-05,-5343477.2852,2.29276785283e-05,0.0,5472203.0464,684.246490736,653.654928325,65948183.5856,1817.15770291,46649087.399,68597366.719,4760.56580156,4749.94022194,0.0
1.01576935927,1.30439581083,9.88659740433e-06,-78100427.6514,1.0980046104e-05,0.0,5965594.42081,677.702704516,645.35201811,67357943.1914,1649.5065354,55673421.0812,70964014.7188,4216.45861033,4209.32669056,0.0
0.932143123782,1.04438538081,1.00892082153e-05,-92512707.8924,1.32826460338e-05,0.0,6079608.50137,688.574907847,639.966288276,67559134.2295,1605.10121399,67722622.617,67932051.662,3869.32610682,3862.45496954,0.0
1.05413692506,1.21753614017,9.78236752625e-06,-45152464.3642,1.22842641842e-05,0.0,5824113.07809,679.168942291,647.764035767,66985206.8768,1697.74986853,35880723.5771,70521681.9323,4375.72237592,4366.7790518,0.0
1.17179484021,0.797423215581,9.84964222469e-06,1224640.73182,2.48782536644e-05,0.0,5403124.56594,686.285218382,655.352537025,65753082.8743,1848.4937084,50651938.0242,67500133.4422,4864.12038171,4853.14177445,0.0
1.01408347303,0.734822343284,1.01941686202e-05,-79502212.4405,1.59723496505e-05,0.0,5850201.40423,677.696948465,645.204228417,66985423.4729,1643.89767451,56773151.2077,70603063.8627,4209.46049655,4200.92192667,0.0
1.09949997594,0.943637719932,1.03873373852e-05,-20032023.6201,1.77788175129e-05,0.0,5642625.40525,681.469279303,650.761141879,66451686.6071,1756.55646368,38589152.6053,68441190.5176,4564.02440013,4554.18475557,0.0
1.15682502825,0.813926880986,9.98280672789e-06,-3560132.73344,2.34819856217e-05,0.0,5442123.95661,685.336417844,654.417703643,65884960.6587,1829.58179058,47816613.9927,67757134.2801,4801.98069227,4791.07451922,0.0
1.14249370781,1.10735965954,1.0572977785e-05,-8170442.58329,1.97588272039e-05,0.0,5584386.03688,683.721053779,653.436694697,66313573.4327,1815.10655986,45069067.1654,68352026.9834,4742.49138112,4733.23885699,0.0
1.1272019129,1.05007550287,9.7864687989e-06,-13007486.5011,1.8097823864e-05,0.0,5638680.85666,683.378471033,652.488219714,66497348.018,1794.46714872,42457661.1805,68177441.6836,4679.01514045,4669.48984188,0.0
1.01345030129,1.07602611288,1.01350536e-05,-80835136.1318,1.29462140082e-05,0.0,5874921.36224,677.6370985,645.17692978,67059564.7172,1642.79795654,57854848.1805,70619765.7625,4206.83220065,4198.30404327,0.0
1.04914121809,0.966910297714,1.01309809273e-05,-46471065.889,1.46478635996e-05,0.0,5812327.40645,678.754975874,647.443403435,66951137.1193,1691.79540384,36235768.6953,70364127.0639,4354.98519629,4346.30346017,0.0
1.11757978533,1.17146948215,9.74626101101e-06,-15902555.6318,1.58379312854e-05,0.0,5695131.88416,682.705337582,651.85318591,66658286.5276,1782.39517929,40986710.3483,69537575.2208,4639.0736889,4629.9034658,0.0
1.03682582023,0.701447708766,1.00083285952e-05,-55453658.0849,1.65940531026e-05,0.0,5878867.91343,678.287260679,646.670428541,67140720.9046,1677.96486635,40120967.1673,71009680.9894,4303.86397977,4296.43111063,0.0
1.114863893,1.02978274795,9.92677193234e-06,-18227651.556,1.78118629146e-05,0.0,5688570.30952,682.571784215,651.717696983,66632832.2288,1779.67478903,39590066.2683,69146244.8958,4627.80001984,4618.76781003,0.0
1.04301826083,0.802353993044,9.58491651343e-06,-51994804.585,1.56743250726e-05,0.0,5871351.29888,678.839892491,647.050342678,67111415.1526,1685.04795391,38472311.5019,71039704.6641,4329.56880071,4321.67981344,0.0
1.15512062309,0.940001533145,1.04375713459e-05,-3184142.61374,2.16470104751e-05,0.0,5447323.73812,684.844452198,654.302612451,65880318.8244,1827.23790545,47696266.613,67823864.045,4794.90570645,4784.13341943,0.0
1.115764892,1.12235524202,9.87120978305e-06,-16238397.943,1.63445643164e-05,0.0,5685834.35572,682.556621116,651.745316304,66631198.8546,1779.90913203,40726564.8851,69409596.7295,4631.54006669,4622.30189966,0.0
1.11570954196,1.02838231206,1.04182197464e-05,-15275512.5325,1.79378580367e-05,0.0,5634174.5154,682.247256839,651.712083846,66450200.5254,1779.12400748,41044266.6738,68954528.2623,4631.31030868,4621.77360997,0.0
1.19859549561,0.721632639453,9.77620624818e-06,7788752.86128,2.92286079103e-05,0.0,9234975.19204,688.084423746,657.04445534,65417536.5495,1881.36056925,54473689.6078,66570293.1032,4975.36990228,4964.02601659,0.0
1.14378739249,0.840448064418,9.77697272576e-06,-7965113.84418,2.28650774148e-05,0.0,5570448.17211,684.340266224,653.435538694,66302487.7664,1815.94098406,45818880.5071,68390584.793,4747.86146623,4738.14334481,0.0
1.04592041289,0.867000408381,9.62672610606e-06,-49995562.3155,1.52672467596e-05,0.0,5827491.22067,679.041596481,647.237199773,66984712.3629,1687.06651089,37570538.3667,71114235.1772,4341.61563391,4332.80780062,0.0
1.15030837579,0.986656358019,9.64853291096e-06,-6670477.42636,2.11748132686e-05,0.0,5586752.88605,684.862217215,653.970612894,66361791.715,1825.05645808,46627658.0157,68789770.1078,4774.9300679,4765.43338581,0.0
1.1458227981,1.07586476124,9.53693326545e-06,-7420302.9171,1.87994954326e-05,0.0,5560292.28134,684.605961386,653.632676973,66255721.9009,1816.61262235,46234195.0375,68627802.5785,4756.31043491,4746.04319194,0.0
1.03787937952,0.824866477323,1.0002379482e-05,-53017072.047,1.54016806654e-05,0.0,5829373.57244,678.37822021,646.709902,66980457.9834,1676.45673226,38816151.0868,71109337.4879,4308.23730439,4299.56294811,0.0
1.1501519717,0.927723248886,9.67470268671e-06,-6476010.31824,2.13086549709e-05,0.0,5528007.41279,684.929179447,653.945864196,66165013.9331,1822.74318763,46636274.9967,68755424.1483,4774.28083453,4763.96494675,0.0
1.19449111231,0.64704467199,1.01315414159e-05,7497983.04128,3.16340740687e-05,0.0,8913558.26463,687.709297587,656.784559751,65344332.8771,1876.21297936,54087627.9556,66399305.9944,4958.3326072,4947.06933042,0.0
1.03801868017,1.2663848451,1.0263793719e-05,-52752973.8257,1.14739977396e-05,0.0,5857300.27238,678.011597676,646.734360366,67069756.2749,1677.18588267,38714762.6625,70961103.9292,4308.81554139,4300.39978033,0.0
1.16828153012,0.969650258058,1.01913967025e-05,843582.211692,2.19638176608e-05,0.0,5444100.89256,685.716233728,655.13617267,65879641.9988,1844.46417472,50239683.7639,67489033.9666,4849.53663153,4838.93308828,0.0
1.21081616149,0.730122614894,9.5624194601e-06,10555233.3617,3.00084856243e-05,0.0,11916800.0568,688.919035177,657.727437887,65214664.0122,1895.32440784,56472610.6659,67007319.3971,5026.09788635,5014.16678391,0.0
1.02709992661,1.2361395862,9.97163556968e-06,-63969418.9488,1.15545647413e-05,0.0,5881893.93458,677.889815578,646.043760101,67123961.3332,1662.13638755,45228336.8048,70994022.4373,4263.49179536,4255.07732546,0.0
1.1769198184,0.889427796571,1.03727000276e-05,3167907.8393,2.42680096406e-05,0.0,5374194.86916,686.194627697,655.634841009,65645405.9028,1854.47053707,51427543.0112,66855346.0923,4885.39416618,4874.42760094,0.0
1.03956298919,0.935554220976,9.66184848012e-06,-54539133.185,1.45687201507e-05,0.0,5834494.60935,678.711899159,646.825625912,66994410.1294,1677.96029553,39694501.2476,71313225.0892,4315.22596813,4306.35090667,0.0
1.1608658798,0.904355624173,9.69387305439e-06,-2057918.20877,2.18508110238e-05,0.0,5460098.05812,685.665734071,654.675037814,65943274.4069,1834.67230616,48978496.4156,68094187.9541,4818.75426705,4807.86566929,0.0
0.989203955738,1.14796503373,9.8007334912e-06,-95268494.681,1.2446248886e-05,0.0,6002113.70939,680.539606771,643.651651222,67416614.6983,1618.55834165,70148473.3056,70390975.4574,4106.18562027,4099.08216372,0.0
1.13160458388,0.837316868435,1.03983602281e-05,-10993478.4717,2.21890635546e-05,0.0,5553457.77747,683.424015534,652.77908822,66221355.4857,1799.42148454,43607629.7761,67549980.5828,4697.29062769,4687.38788851,0.0
1.1434744637,0.736038131123,9.4529305754e-06,-9244243.29207,2.42704255723e-05,0.0,5568636.79933,684.785761258,653.546181583,66300217.6379,1815.81117763,45024276.2455,68139608.4494,4746.56249882,4736.75348869,0.0
1.04661653093,0.867510325899,9.74544736039e-06,-50043774.2866,1.54972338081e-05,0.0,5810086.83593,678.997480147,647.290645667,66930906.0555,1687.41189978,37619139.5388,70730754.339,4344.50521989,4335.51246987,0.0
1.14634386388,1.01576165336,1.00515433922e-05,-8104935.97884,2.09382801976e-05,0.0,5588899.68032,684.324112097,653.677451137,66358550.4991,1820.34033483,45441251.013,68466759.8238,4758.47337897,4749.13111973,0.0
1.07795362185,0.871125818533,1.02469852392e-05,-29438486.5974,1.70125189576e-05,0.0,5755981.28234,680.3051465,649.390957565,66811039.2841,1730.94181551,35402624.8838,69214023.3182,4474.5854843,4465.94337812,0.0
1.07906691657,0.926888778876,1.04538675698e-05,-30322911.9253,1.68546386964e-05,0.0,5687473.7693,680.318836127,649.450763398,66592238.4804,1730.1549577,35057926.6523,68890407.5892,4479.20677068,4469.5195925,0.0
0.975954084902,0.960941411109,9.78145164036e-06,-94822319.2647,1.40001044272e-05,0.0,6037355.16082,682.315345908,642.804278153,67500088.0048,1615.0761718,69755606.7687,69992063.4534,4051.18540643,4044.52538015,0.0
1.17178631909,0.999043559586,9.94828320105e-06,219579.721848,2.3239809246e-05,0.0,5500251.19068,686.070506402,655.382123,66089693.4127,1851.87431944,50128572.3784,67733104.502,4864.08501054,4854.32079474,0.0
1.09472811019,0.952586447664,1.00372876335e-05,-24452363.0903,1.72061492529e-05,0.0,5735159.85065,681.343323105,650.432963547,66766631.58,1753.50547739,36763859.9263,69054698.1202,4544.2163854,4535.50375965,0.0
0.903763179911,0.965282531005,1.01730464548e-05,-91287904.3809,1.30081879518e-05,0.0,6126510.94739,691.501329659,638.134844567,67663774.652,1592.96695646,66644513.6281,67663774.652,3751.52095981,3744.81408874,0.0
1.09624489521,1.05129138326,1.02948009614e-05,-23364495.3567,1.64266222274e-05,0.0,5732201.30134,681.255815094,650.571397719,66755713.3703,1755.73688893,36994268.8693,68981410.77,4550.51256002,4541.87508327,0.0
1.24688662726,0.952374114516,9.64994203453e-06,18709003.8972,2.80874883635e-05,0.0,20226351.9402,690.940364647,660.020770656,64839585.1955,1936.76305947,62988660.7815,66461182.1811,5175.82638976,5163.40788412,0.0
1.20977661524,0.969615235312,1.02259346888e-05,10988893.2565,2.52021631324e-05,0.0,12245178.4735,688.241854064,657.664632513,65255479.3602,1893.08959501,56707148.0053,66258465.171,5021.78272986,5010.01412375,0.0
1.13912172128,0.815719799576,1.04678993299e-05,-9270485.7668,2.41383938186e-05,0.0,5576085.44958,683.7361405,653.230072786,66319855.4698,1811.21236991,44527808.8891,68041822.1641,4728.49426503,4719.29390861,0.0
1.01853207221,0.875250089859,1.00681955605e-05,-72884457.7144,1.4507091097e-05,0.0,5924697.81369,677.690022735,645.523123116,67241357.3566,1653.08069599,51598720.8697,70850027.3649,4227.92663174,4220.6666391,0.0
1.00136071481,1.09578366672,9.56088857576e-06,-95800173.0168,1.26503317578e-05,0.0,5924559.71484,679.115143041,644.415541636,67184957.7561,1626.288816,70617009.584,70837211.782,4156.64832718,4148.23718622,0.0
1.01922436562,1.14533685449,9.99712424655e-06,-72902160.8651,1.21358760057e-05,0.0,5945677.68701,677.669284256,645.571981014,67311484.0992,1654.23199954,51624187.2487,70939768.3866,4230.80034169,4223.61940493,0.0
1.32422812353,0.790126596476,9.91152327461e-06,31044588.4778,4.24434217693e-05,0.0,32341626.7917,695.990116743,664.928452261,63447176.457,2024.21958468,70405356.9773,71972222.172,5496.87094077,5483.13194891,0.0
1.15842135963,1.03653602612,9.71564395718e-06,-4075962.61003,2.07388235287e-05,0.0,5530424.28195,685.362994829,654.497970512,66187327.0576,1834.035249,47883585.1642,68469304.0752,4808.60706382,4798.52210351,0.0
1.01528765426,1.04868922701,1.00728932013e-05,-76988210.9094,1.31666879304e-05,0.0,5873287.13968,677.642191109,645.293865633,67064658.1802,1645.28028458,54772091.3684,70627308.593,4214.45905283,4205.90026411,0.0
1.09791956463,0.924787193639,9.53657057572e-06,-24391774.0057,1.7217068719e-05,0.0,5743148.98555,681.879556609,650.633177417,66792983.1177,1757.52403819,36808588.0051,69298421.6771,4557.46411278,4548.60249353,0.0
1.02659646072,1.22911701692,9.51296816481e-06,-68606437.9688,1.16261798762e-05,0.0,5950027.61608,678.277826588,646.045982154,67335131.1111,1663.90514743,48494834.1382,71198991.4071,4261.40190845,4254.11590379,0.0
1.22031876088,1.05238697428,1.00793696833e-05,12944063.7274,2.43732229589e-05,0.0,14146847.2263,688.993541634,658.372679082,65131326.5995,1905.19513203,58328470.8675,66438468.4147,5065.54317641,5053.46231317,0.0
1.009054304,1.07351932315,9.76788907169e-06,-87394257.353,1.26492641483e-05,0.0,5976903.90852,677.975624479,644.928303779,67368471.3035,1640.52112312,63332426.67,70958587.5333,4188.5844159,4181.54735369,0.0
0.907291976952,0.870371649644,9.70482517032e-06,-91600282.4989,1.4430035201e-05,0.0,6174579.54185,692.792444567,638.375125901,67812342.4042,1603.45274438,66919494.8032,67812342.4042,3766.16899633,3760.20696636,0.0
1.18793185623,0.987010031867,9.80193163125e-06,5370101.796,2.24622567653e-05,0.0,6960007.70072,687.123789856,656.324300824,65691072.562,1867.94791042,53012715.8676,66983609.6641,4931.10513521,4919.9392713,0.0
1.04073045682,0.89339712548,9.97749448654e-06,-51367005.5459,1.48705610724e-05,0.0,5827920.56653,678.511619117,646.906825512,66981470.2167,1680.19804683,38174165.0247,70831683.4342,4320.07212626,4311.35108156,0.0
1.03216890063,1.16823793235,1.00187270231e-05,-59893535.0345,1.2275682736e-05,0.0,5867238.93834,678.054352029,646.372489679,67089037.5621,1669.14473342,42626521.2539,71102030.6556,4284.53310652,4276.12368624,0.0
1.04743276955,0.68753788247,1.00635336026e-05,-47443640.1056,1.73623965587e-05,0.0,5801101.24282,678.84569036,647.33949477,66911796.0206,1689.72893638,36562738.4717,70351173.7393,4347.8934264,4339.23939904,0.0
1.0522063376,1.033560531,9.83133164644e-06,-45886301.9922,1.38759140613e-05,0.0,5815645.55485,679.10948893,647.643544362,66956259.8401,1695.32542696,36064028.9751,70589141.466,4367.70850738,4358.79852132,0.0
1.2282763991,0.954187521509,9.90108045714e-06,14741095.0146,2.67035454427e-05,0.0,16141126.8059,689.47827635,658.815371139,65198134.1727,1916.27133297,59905637.6239,66734797.916,5098.57533266,5086.9613882,0.0
1.07738577319,1.12213778374,9.67142069276e-06,-31883395.7672,1.37644637105e-05,0.0,5813452.4916,680.36994627,649.213172979,66985304.0283,1730.67249369,35180434.5071,69796833.1494,4472.22834451,4463.78465418,0.0
1.0650055722,0.797865922221,1.00423131664e-05,-36425435.6104,1.67833423824e-05,0.0,5797920.87045,679.620382585,648.466169589,66922608.8571,1714.16883184,34631563.6458,70131143.7774,4420.8381302,4412.39895649,0.0
1.17875113338,1.05624129847,1.03022568654e-05,3330662.08173,2.14088821453e-05,0.0,5359015.87534,686.26219048,655.730342582,65597102.3943,1855.43084929,51491200.6389,66910325.1421,4892.99595466,4881.57694761,0.0
0.980795024466,0.914897047031,9.95042178604e-06,-94975793.7401,1.43438807073e-05,0.0,6016720.8056,681.185455311,643.114160803,67448108.7887,1614.53021452,69890897.7788,70129911.0062,4071.28014656,4064.55436013,0.0
1.16197236916,0.82117576265,9.89829220523e-06,-2398046.81803,2.36447936348e-05,0.0,5434802.65681,685.683771665,654.73922246,65869940.515,1836.29558817,48470018.0569,67682353.7155,4823.34730438,4812.43826333,0.0
1.19332812366,0.799809041743,1.02667695251e-05,7433949.40584,2.75177290702e-05,0.0,8860873.8642,687.345770299,656.713431582,65513329.4424,1875.16141484,54069812.4642,66524289.1718,4953.50504131,4942.58884103,0.0
0.955064282551,0.974509340303,1.00380006528e-05,-93709056.1899,1.38233690276e-05,0.0,6077075.26232,685.185236653,641.458064451,67603611.0049,1611.9246156,68775644.7628,68997826.0681,3964.47183687,3958.17224783,0.0
1.17911547421,1.12283307192,1.00917408097e-05,3172679.04269,1.99172366821e-05,0.0,5402055.4751,686.346850113,655.776145886,65744299.1437,1856.7681241,51553150.9829,67015036.3003,4894.50833345,4883.39682908,0.0
1.11425569783,0.754612555048,1.0310656287e-05,-15805530.6924,2.15535604261e-05,0.0,5619098.08132,682.377663098,651.622240209,66399166.9801,1777.61943819,40753083.8153,69206089.1501,4625.27540169,4615.76286847,0.0
0.986115457725,1.01730420377,9.69971768205e-06,-95134354.1436,1.36545687124e-05,0.0,6005341.01518,681.324423487,643.454236625,67421526.6963,1619.00891024,70030538.0474,70271394.9052,4093.36526502,4086.3063166,0.0
0.966619339959,0.848762567875,1.01330437953e-05,-94052085.6797,1.49832241098e-05,0.0,6024343.86401,683.589130498,642.196589321,67460785.7113,1614.26333797,69077681.4213,69305637.9542,4012.43688017,4005.68672167,0.0
1.05752685071,0.79811660232,9.6482476716e-06,-43957180.6511,1.65821084911e-05,0.0,5792185.84216,679.614453345,647.966656111,66891171.2291,1702.53739299,35546187.84,70336669.4727,4389.7939573,4380.79442342,0.0
1.16044798543,0.893157563585,9.5708762307e-06,-1766094.05001,2.1751471268e-05,0.0,5495912.36517,685.468164687,654.519282846,66047413.8935,1834.75267336,49324951.9787,67971063.5516,4817.01958752,4806.45161597,0.0
1.01141381165,0.796136844175,9.95812664924e-06,-82499743.9116,1.49179445957e-05,0.0,5950818.83388,677.753228839,645.070020429,67294210.3689,1643.89653332,59230797.4405,70824749.3165,4198.37873216,4191.30840117,0.0
1.10961861651,1.12662377778,9.79230506412e-06,-18092016.6707,1.55636015153e-05,0.0,5669210.02039,682.338800767,651.393119439,66559494.7209,1770.25603239,39731683.6977,69018178.8074,4606.02687713,4596.20293637,0.0
1.11836609334,0.987725451411,9.76176094166e-06,-17423725.8906,1.83952385018e-05,0.0,5676867.53374,682.884554375,651.912266891,66599102.5737,1784.05959838,40192063.0637,69345623.9268,4642.33765345,4633.14824629,0.0
0.951328303433,0.898993524954,1.01820521804e-05,-93432741.4679,1.42108984978e-05,0.0,6061149.44235,685.466543843,641.211767491,67548100.6729,1609.41735,68532437.7141,68752246.1728,3948.96378755,3942.42782841,0.0
1.09319753979,0.845127872066,1.02542467329e-05,-24211923.984,1.85374786907e-05,0.0,5722354.27002,681.15562515,650.337703391,66714317.7776,1751.57701595,36647779.0227,68915395.469,4537.86298767,4529.17437012,0.0
1.11642917478,1.04056961723,9.93185260581e-06,-15876663.2023,1.75336546676e-05,0.0,5674690.41307,682.580851399,651.775064732,66584148.2697,1780.84166833,40856436.8744,69457840.0365,4634.29750451,4625.04949757,0.0
1.01953159779,0.928955589084,9.69256757702e-06,-75351391.8358,1.40462945078e-05,0.0,5946408.52106,678.055688594,645.585466318,67308281.4491,1654.70484926,53505649.7975,70959347.1652,4232.07566243,4224.89035995,0.0
1.03169646646,0.704617450627,9.87940378805e-06,-59646992.8797,1.63335886493e-05,0.0,5897055.11904,678.230640471,646.362341996,67186646.7247,1671.07902621,42565578.427,71002803.1421,4282.57203228,4275.21296181,0.0
1.10722890461,1.19884294987,1.00582693423e-05,-20346383.3381,1.51501226991e-05,0.0,5717828.71268,681.998100897,651.266701649,66720256.8819,1769.69991363,38338374.5576,68843313.3061,4596.10718304,4587.19734711,0.0
1.07313607807,0.937629726348,1.03230679722e-05,-31249053.7312,1.60925540813e-05,0.0,5774720.15426,679.921454944,649.056406634,66853130.0859,1724.8890191,35163648.6195,69303794.2209,4454.58786007,4446.11490866,0.0
1.07825184696,0.638993123662,1.02257569381e-05,-30451475.3667,2.04640294417e-05,0.0,5758965.61321,680.427381254,649.415059247,66829328.8303,1732.78502115,35200872.7765,69163998.0928,4475.82341673,4467.56033573,0.0
1.12946196195,1.36376862188,9.63468418841e-06,-12721213.0822,1.45007606692e-05,0.0,5659394.77409,683.484057586,652.636340625,66559844.5,1797.10450304,42735716.8913,68113010.9321,4688.39660405,4678.8085226,0.0
0.983396564256,1.06638842071,1.00247870421e-05,-94963824.6093,1.30009993267e-05,0.0,6003268.72842,680.797982505,643.276975248,67413063.8102,1615.16579886,69880282.4515,70119285.8834,4082.07913823,4075.05948117,0.0
1.05457227701,0.819833370503,1.02422134439e-05,-41674482.4747,1.61484688933e-05,0.0,5801857.81823,678.918524818,647.769657723,66924321.8312,1699.73249102,35062043.8781,69996991.6826,4377.52952187,4368.99807822,0.0
1.03597717454,1.22712422456,9.94684600433e-06,-57118611.2966,1.18982221908e-05,0.0,5864889.8934,678.234005216,646.613484233,67086003.5162,1674.13471792,41023505.2059,71079664.0309,4300.34125152,4291.87072438,0.0
1.14708346382,1.28035777578,9.77830485328e-06,-6911080.19903,1.6495288964e-05,0.0,5568924.50415,684.44530909,653.72348372,66295225.6629,1818.45186581,46412549.1548,68752059.4547,4761.54345832,4751.35404142,0.0
1.08605660223,1.09050949413,1.00465384523e-05,-27318753.035,1.48687749591e-05,0.0,5769047.25807,680.814956261,649.914937298,66858061.4401,1742.0610868,35942068.8135,69322342.1544,4508.22095586,4499.64307775,0.0
1.12948282523,1.05171894986,9.67776298304e-06,-12576671.2083,1.82096845374e-05,0.0,5634679.30162,683.588425746,652.63641498,66484058.349,1797.38309276,42811089.435,67944971.7238,4688.48320753,4678.89478096,0.0
1.2050904061,1.07936213003,9.60285327902e-06,8627792.1711,2.18798806046e-05,0.0,10080875.4969,688.278880173,657.431855719,65519120.1502,1888.54060499,55169883.5767,66888260.7604,5002.33027572,4990.75026775,0.0
1.04703510914,0.781375158673,1.02753578345e-05,-45746099.6371,1.635849132e-05,0.0,5798618.8012,678.582309602,647.303587576,66901858.8055,1688.83020326,36008879.5767,70320166.9264,4346.24273804,4337.50631466,0.0
1.11897513998,1.00999931819,1.00669653208e-05,-14767646.1091,1.82751804246e-05,0.0,5606096.34498,682.73265956,651.916526952,66370235.4559,1782.06263564,41382883.628,68595080.1741,4644.86580606,4634.78293871,0.0
1.02412328258,0.74186641542,1.0314954259e-05,-65168011.6576,1.58790010519e-05,0.0,5843042.31331,677.674102667,645.849389247,67004857.5817,1658.35309575,46008665.6832,70751091.7864,4251.13574599,4242.76943582,0.0
1.02242692968,0.825138469884,9.94031965403e-06,-69441162.8389,1.49472904095e-05,0.0,5924283.74512,677.873057176,645.770800924,67252609.79,1658.64662298,49056877.6243,70856249.219,4244.0941851,4236.86768496,0.0
1.12512918737,0.996120150056,9.73304466483e-06,-13971969.3376,1.88645611998e-05,0.0,5655547.35062,683.274581196,652.344975997,66542714.6196,1792.1613544,42115043.9645,68670393.0903,4670.41125677,4661.11806021,0.0
1.1163416136,1.03619702244,9.62563935219e-06,-16463579.1213,1.71202606436e-05,0.0,5646681.24294,682.855880691,651.78358957,66499838.4426,1779.05666741,40652612.6957,69368038.726,4633.93403805,4623.99480015,0.0
1.14009530585,1.17660767246,9.99842569139e-06,-8942074.40688,1.79168013818e-05,0.0,5618513.04625,683.931252369,653.318493918,66451847.9867,1811.6467551,45210414.9299,68226951.2133,4732.53561458,4723.19048206,0.0
0.98372918554,1.04906593615,9.64289530609e-06,-95055228.8612,1.33436146113e-05,0.0,6015742.14627,681.811683414,643.301330591,67447318.4253,1619.06140693,69960782.1426,70200534.0897,4083.45984918,4076.43520801,0.0
0.961074306633,0.700055286962,1.01370984245e-05,-93799124.689,1.60441690831e-05,0.0,6029837.81633,684.411461578,641.839490771,67467383.6941,1612.93161129,68855054.9163,69079438.601,3989.41944683,3982.74730522,0.0
1.02359589475,0.769842114054,9.85031414459e-06,-68820697.5796,1.54690678204e-05,0.0,5922346.95702,678.007799569,645.848138128,67248347.5169,1660.22698676,48616356.2735,70936013.4103,4248.94655911,4241.70339732,0.0
1.03727948175,1.03657092405,9.64197948994e-06,-57344605.3212,1.3444920708e-05,0.0,5908525.0096,678.545070449,646.72071557,67229525.647,1678.29352495,41241176.8545,71194398.7727,4305.74712874,4298.30915755,0.0
1.13249217868,1.0732078655,9.46628278279e-06,-12281608.9529,1.78794402479e-05,0.0,5643672.07794,683.900501206,652.84027551,66518551.4857,1801.62664548,43009415.2723,67932579.4669,4700.9750337,4691.43919306,0.0
1.13312667844,0.885124331447,1.02285380359e-05,-11383349.5683,2.20522273266e-05,0.0,5614528.34331,683.537314709,652.898413308,66423257.9113,1803.58428886,43482340.7435,67678316.195,4703.6088422,4694.50352544,0.0
1.04190240331,1.09155019103,1.01500107174e-05,-48984150.9557,1.31322370359e-05,0.0,5835341.08217,678.317938604,646.97889236,67001960.9982,1681.76653702,37147559.6305,71039798.1483,4324.93687614,4316.28415732,0.0
1.02788871381,1.04096632103,9.71081283726e-06,-64986211.0383,1.31969161402e-05,0.0,5929699.94132,678.170615312,646.123513875,67279269.4006,1665.7832147,45964665.205,70992024.0663,4266.76605103,4259.46156211,0.0
1.13635457983,1.03737668172,9.89919202409e-06,-10854540.7917,1.9210346676e-05,0.0,5602239.27525,683.808559571,653.013897137,66383912.6617,1806.29528895,43966544.6066,67755567.1219,4717.00786087,4707.30438694,0.0
1.07816758078,1.15898720959,1.01256893697e-05,-31035868.2639,1.39529088202e-05,0.0,5796814.01223,680.284045025,649.403897134,66943709.5809,1732.28381054,35197806.5352,69305211.2687,4475.47362782,4467.21257286,0.0
1.1109788223,0.765319259835,1.04680397523e-05,-16354916.3601,2.11728673072e-05,0.0,5623817.81018,682.083736699,651.429250622,66411259.4867,1773.32952754,40399880.3414,69078195.4639,4611.67309137,4602.216476,0.0
1.14228682241,0.84783988002,9.98814583882e-06,-9156494.08032,2.32216035839e-05,0.0,5584257.72563,684.246478764,653.444209356,66330380.4563,1815.05291888,44831308.2799,68165497.6269,4741.63259982,4732.24923051,0.0
1.05333093395,1.06700863623,9.52684253432e-06,-44709295.7385,1.3189733117e-05,0.0,5838636.41987,679.339484173,647.721443713,67021710.9208,1697.04455982,35846913.2156,70726588.6784,4372.37670683,4363.59322182,0.0
1.1472974061,0.881815303175,9.94359398019e-06,-8063135.23478,2.31328038744e-05,0.0,5579031.70362,684.520928053,653.741138871,66327809.5648,1821.74527851,45478926.726,68465855.7518,4762.43153272,4753.07568111,0.0
0.98576450842,0.902926062739,1.03221438888e-05,-94899326.6466,1.42971420446e-05,0.0,5927939.85668,679.592108078,643.413605132,67180502.529,1609.33872006,69823753.0165,70064529.2858,4091.90847445,4083.90965344,0.0
0.972159488815,0.853421524835,1.02167662343e-05,-94343509.7457,1.49542779204e-05,0.0,6022944.06297,682.474662849,642.556613199,67471992.0517,1614.98829388,69334261.4239,69565708.592,4035.43403807,4028.90290205,0.0
1.08636936574,1.11985836696,9.53948724645e-06,-28408511.1676,1.41466430008e-05,0.0,5788822.4601,681.19061807,649.946073793,66916892.8351,1742.23776717,35904202.156,69497279.388,4509.51923719,4500.84021878,0.0
1.19416866878,1.08798162686,9.77046565959e-06,6533626.71125,2.11813145074e-05,0.0,8091182.72886,687.476574636,656.751169757,65709915.8915,1876.07243426,53819965.8219,66891571.2091,4956.99414411,4945.94454134,0.0
1.23194754723,0.954289034828,9.84843933022e-06,15776571.7606,2.69710470833e-05,0.0,17234512.8715,689.866815489,659.142385636,65132097.7595,1920.16707308,60734257.5902,66801752.4858,5113.81426855,5102.07661052,0.0
1.04405569662,0.874331379732,9.6007448886e-06,-51180555.6949,1.51184774361e-05,0.0,5833312.14276,678.965279792,647.10807408,66998337.4112,1684.57829804,38101914.943,71073477.9832,4333.87519667,4325.09957169,0.0
1.04817081018,0.937263398243,1.0220840544e-05,-46255188.8671,1.48600592783e-05,0.0,5807407.43514,678.641575634,647.377854041,66931241.0865,1690.36049372,36142529.1948,70326089.8054,4350.95703306,4342.20209678,0.0
1.06571055819,0.993953160303,9.98002250245e-06,-36376616.4896,1.46544408527e-05,0.0,5811163.00121,679.627099306,648.512036746,66963121.7489,1714.95327191,34656914.1296,70210924.1113,4423.76452705,4415.31304207,0.0
1.02590565364,0.857248387112,9.83188925677e-06,-66168538.2863,1.47749145616e-05,0.0,5920951.66495,678.046201116,645.984565084,67249277.0313,1663.26042713,46752390.6485,70983676.2413,4258.53436826,4251.25823666,0.0
1.08845470138,0.953409614079,9.74580863138e-06,-26990482.9311,1.62884337829e-05,0.0,5763168.56171,681.224269256,650.069359499,66844573.481,1745.10695057,36075387.9989,69392999.4091,4518.17546543,4509.46359396,0.0
1.0977073715,0.980501837356,1.02643275849e-05,-22783750.3979,1.73227884733e-05,0.0,5718430.9931,681.400749662,650.673101224,66710671.8444,1757.33767725,37150579.6796,68645295.8891,4556.5832991,4547.82386371,0.0
1.06245274423,1.26954086268,9.90627783075e-06,-38238558.5166,1.19479632126e-05,0.0,5837307.35795,679.412348834,648.301409646,67036503.1425,1710.47195441,34731729.409,70084064.4044,4410.2413413,4401.84075405,0.0
1.08775216647,0.967629630119,9.8353151245e-06,-27341060.3226,1.63380258011e-05,0.0,5764428.01332,681.120735216,650.026595605,66843144.7854,1744.38020915,36002422.4374,69364324.7021,4515.25924302,4506.6558206,0.0
1.20170569046,0.911362160848,1.02250232937e-05,8758491.07073,2.57504049792e-05,0.0,10137150.3103,687.861339971,657.188674686,65266190.9141,1883.23810316,54947335.3463,66617631.8711,4988.2803211,4976.43174495,0.0
1.12468018848,1.00811300521,1.02859530604e-05,-13430203.047,1.94634649786e-05,0.0,5649532.63538,682.895766621,652.331987964,66518456.2759,1792.63712702,42252016.4851,68142021.166,4668.54746238,4659.57619128,0.0
1.08498696064,1.08155784763,1.01620633165e-05,-27342672.403,1.49707595931e-05,0.0,5766277.26295,680.680349577,649.84873533,66850242.8878,1740.66333626,35913333.8764,69280044.735,4503.78087362,4495.22058235,0.0
1.07126620258,0.808220887361,1.03701464985e-05,-31902583.7515,1.74658408857e-05,0.0,5769543.20972,679.817880258,648.925735751,66834569.5267,1722.51792228,35028550.5939,69365844.0527,4446.82600691,4438.3821837,0.0
1.10757441954,0.858579710189,1.0234350249e-05,-17911716.7917,1.93380044505e-05,0.0,5658189.40398,682.009147802,651.260113095,66531207.3444,1768.72786244,39758447.4884,68900184.42,4597.54141551,4588.23978281,0.0
1.13157189823,1.05494655881,1.0487318721e-05,-10918996.4099,1.90111382508e-05,0.0,5572478.4115,683.135315753,652.696298536,66282072.9462,1799.10165859,43662518.4936,67639191.4102,4697.15494955,4687.25276449,0.0
1.08915771822,1.25762485859,9.82244470795e-06,-26986782.489,1.32437573476e-05,0.0,5779731.13429,681.090597837,650.112457916,66892089.0493,1746.00854704,36120108.0805,69422670.4881,4521.09368833,4512.46830837,0.0
1.17788218412,0.872947452104,1.03884642637e-05,3418857.18672,2.46961855623e-05,0.0,5486077.03813,686.251273834,655.688389619,65624998.5842,1855.65616568,51556005.3342,66868213.7654,4889.38894628,4878.40526328,0.0
1.14096213292,0.98234061539,1.01045153341e-05,-9059958.05883,2.05397165913e-05,0.0,5550366.74573,683.963874251,653.257516789,66217755.5543,1811.28475665,44809873.9721,68161356.8979,4736.13381375,4726.04703879,0.0
1.14520620554,1.14668893211,9.90256643737e-06,-8413865.41209,1.81726672238e-05,0.0,5561710.2734,684.217225897,653.501177501,66255124.2579,1816.54872024,45264869.9161,68460649.5569,4753.7509592,4743.59152925,0.0
1.13274475452,0.871481738024,9.84566530693e-06,-11427180.5029,2.13193581174e-05,0.0,5599666.64858,683.802829275,652.860114751,66369430.2719,1801.7003647,43533848.4569,67538299.1395,4702.02347601,4692.38102908,0.0
0.979236357415,1.01936691177,9.74228519111e-06,-94856711.2034,1.34527428232e-05,0.0,6027327.80393,682.174622596,643.013157594,67476067.2838,1617.16705836,69785927.2507,70024748.0596,4064.81011963,4057.93237168,0.0
1.11155944285,1.07390705777,9.75755856339e-06,-17578349.7796,1.63349007731e-05,0.0,5659987.06933,682.490127941,651.507428205,66534214.1882,1772.81610743,39974818.0168,69102450.9654,4614.08324727,4604.22607658,0.0
0.995650846059,0.856674111254,9.75143468441e-06,-95712394.1177,1.45630497817e-05,0.0,5995218.23391,679.217726602,644.067253885,67405619.0509,1622.42083662,70539237.9168,70778180.1588,4132.94666199,4126.10004364,0.0
1.13369956002,0.93052650379,9.91545380784e-06,-10396151.4639,2.05158130257e-05,0.0,5606500.12137,683.751279544,652.92857504,66401075.7944,1802.92212667,44215340.3177,67737756.2593,4705.98687364,4696.45935697,0.0
1.06100591246,1.00103198581,1.03410723139e-05,-37488360.5392,1.46172957563e-05,0.0,5812028.74078,679.103193953,648.206969322,66957351.6932,1709.05417675,34632300.4215,69960394.1989,4404.23554262,4395.95202557,0.0
1.2385982315,1.18664070033,9.92535043809e-06,17109481.7152,2.30565798232e-05,0.0,18653012.4005,690.006345758,659.477642759,65068525.3065,1926.88815344,61815609.3863,67055238.9761,5141.42125896,5129.39024435,0.0
1.03259867646,0.959575780729,9.90490648901e-06,-59002725.8691,1.40699590525e-05,0.0,5905927.99033,678.157286213,646.414960029,67215708.7477,1672.14792889,42176636.5766,71038543.4233,4286.31710599,4278.94507764,0.0
1.12142869788,0.686805195238,1.01552637489e-05,-13729528.5207,2.34062343929e-05,0.0,5583939.36005,682.997233527,652.095923743,66310767.4124,1786.48611403,42062421.1943,68103629.2816,4655.0505249,4645.3201227,0.0
1.12420205672,0.931847115483,1.00549224411e-05,-13278963.1498,1.97028834777e-05,0.0,5604788.05409,683.089242188,652.279239543,66377823.1618,1789.77972528,42428942.3176,67804663.2682,4666.56273744,4656.78559729,0.0
0.96203569339,0.935820413569,9.51386149709e-06,-94122306.0972,1.43661012439e-05,0.0,6048020.06034,685.421893943,641.901561666,67499829.4164,1615.32317417,69139415.2851,69365646.8573,3993.41016326,3986.379751,0.0
1.03180220382,1.17272323519,9.56777292733e-06,-62607429.1924,1.22447305071e-05,0.0,5874025.93413,678.439838408,646.352493605,67102281.2728,1667.72195398,44391061.2214,71193206.7814,4283.01094806,4274.33806069,0.0
1.08856311832,1.11467661294,9.97670680036e-06,-26684712.234,1.47176036218e-05,0.0,5766752.37293,680.993413566,650.06961867,66854022.9079,1745.32008649,36111389.8959,69336730.9793,4518.62550415,4510.00941583,0.0
1.00603491356,0.953705919664,1.00722934796e-05,-89376788.6152,1.40833528072e-05,0.0,5887043.90701,677.924631477,644.704747871,67084073.3515,1632.97666346,65024585.9412,70775790.7381,4176.05092619,4167.64433474,0.0
1.03381058397,1.26156964002,9.71838300401e-06,-59270095.911,1.15127847664e-05,0.0,5925113.2811,678.276183091,646.496030716,67274235.4199,1673.56280688,42357777.4547,71171793.84,4291.34773406,4283.95971664,0.0
1.10000433549,1.13969731061,9.74944381858e-06,-20402697.7636,1.44593167344e-05,0.0,5728640.74895,681.760458966,650.815259911,66721474.2669,1758.69117015,38630394.7987,68761531.5833,4566.11799662,4556.86179591,0.0
1.12954900694,1.16454765054,1.01039229133e-05,-12124939.0606,1.6974418228e-05,0.0,5605711.08387,683.298895592,652.637835595,66372778.8018,1796.53721811,43083203.6752,67384668.3578,4688.75792781,4678.89001251,0.0
1.04526870682,0.870538557439,1.04161640645e-05,-47213234.7695,1.54633117573e-05,0.0,5808380.94628,678.3771789,647.201029652,66929356.4142,1687.00909678,36481607.8606,70275016.4971,4338.91040201,4330.38029161,0.0
1.02864455345,0.918052846835,1.01588781952e-05,-61074823.3658,1.43271394131e-05,0.0,5853177.48943,677.88882028,646.148006115,67039131.3465,1664.42421983,43331461.3078,70867055.2857,4269.90354137,4261.46419847,0.0
1.09724494271,0.877074311098,9.98096766258e-06,-23481799.3606,1.81902985524e-05,0.0,5727376.2354,681.587261632,650.617186467,66744172.7557,1756.99443554,36950177.5569,69064042.4012,4554.66375719,4545.91148305,0.0
1.10996675625,0.897795946386,9.89072859894e-06,-17689841.7583,1.86657232381e-05,0.0,5636366.0374,682.412246137,651.402804713,66458244.8093,1770.59175073,39918493.3343,68978900.6989,4607.47200519,4597.54501975,0.0
1.1875721011,0.878646252865,9.67140621408e-06,4959547.33151,2.44391941268e-05,0.0,6659231.00806,687.239733312,656.309910474,65736772.1912,1868.49458689,52907532.4823,67050691.5416,4929.61179167,4918.67858893,0.0
1.11673865269,0.979246437654,9.62052999928e-06,-18434490.4781,1.84475836148e-05,0.0,5699539.20059,682.92178514,651.851175821,66677089.8449,1782.67259929,39399451.6605,69214255.7068,4635.58214732,4626.62224227,0.0
1.13230807026,0.934755574033,9.56947340255e-06,-12006320.0939,1.99946909529e-05,0.0,5572777.59625,683.970596637,652.812931027,66291929.8434,1799.40803673,43039905.181,67554793.7347,4700.21079965,4689.87142009,0.0
1.01289532615,0.955153021674,1.04165407386e-05,-75107963.873,1.39021926261e-05,0.0,5880049.40351,677.332696852,645.139953926,67080180.6206,1643.38781474,53302373.8387,70535158.6788,4204.52849885,4196.42588562,0.0
1.0443961852,0.796275689942,9.97444791197e-06,-50944518.5441,1.60806239859e-05,0.0,5866955.20762,678.632504506,647.173018899,67114394.9085,1688.01569865,37991576.5575,70928458.501,4335.28856477,4327.74766285,0.0
1.26286191562,0.918252391336,9.60618037952e-06,21663786.0716,3.06233294628e-05,0.0,23514278.5524,692.041786122,661.01987001,64550728.1205,1954.90120625,65327764.691,66142457.8088,5242.13981174,5229.31418808,0.0
1.15523346682,0.975041355196,1.04684672369e-05,-1886990.16721,2.10262772975e-05,0.0,5465505.85636,684.766384542,654.315972415,65926553.607,1827.58838141,48625390.3755,67849393.288,4795.37412077,4784.80520198,0.0
1.18808582329,0.726461650768,9.99578669914e-06,5482706.58791,2.85830733031e-05,0.0,7052014.93614,687.312808074,656.327086897,65406758.1446,1867.54249385,52875607.0909,66687847.1515,4931.74425248,4920.16807703,0.0
1.07986976047,0.918801711536,1.0042304876e-05,-29469793.0706,1.64378533147e-05,0.0,5774004.82047,680.537394751,649.516785496,66863612.9122,1734.09091981,35542611.8966,69300384.3379,4482.53937571,4474.05866702,0.0
0.95691075878,0.827738116826,1.0102470133e-05,-93748913.0051,1.48507665854e-05,0.0,6063894.98056,684.810315816,641.576561944,67569296.1865,1611.88271435,68810799.3158,69033520.242,3972.1365597,3965.81213524,0.0
0.960223063441,1.11957785492,1.03717979419e-05,-93834377.8845,1.24655370549e-05,0.0,6041341.91868,683.563136774,641.782686664,67498042.6452,1609.23392615,68886004.694,69108723.4679,3985.88593634,3979.19602259,0.0
1.16582664104,0.955769882957,9.93023128068e-06,-52070.7502057,2.16567318416e-05,0.0,5434020.47818,685.766642467,654.97288957,65855695.9386,1840.42299345,49929557.4752,67725938.6977,4839.34638696,4828.3705205,0.0
1.20682787155,1.03863378265,1.00041912038e-05,10085535.101,2.34703863958e-05,0.0,11453564.7185,688.147434249,657.469987161,65285948.6145,1889.14783116,56073340.6003,66969771.5979,5009.5424948,4997.58436356,0.0
1.12680154631,0.718274361355,1.02127384816e-05,-12957568.7861,2.40985582026e-05,0.0,5620752.84553,683.230595563,652.474529817,66431737.6122,1795.67238755,42535712.9609,67856730.468,4677.35321873,4668.34856769,0.0
1.20456907312,0.942368501131,1.00821528876e-05,9690860.10972,2.52019724536e-05,0.0,11042292.9452,688.047831374,657.339210544,65267443.8704,1886.54492957,55728920.3241,66837551.0211,5000.16622252,4988.2772229,0.0
1.15286238198,0.846396009851,1.04866945007e-05,-3576234.42852,2.30554330718e-05,0.0,5442836.20577,684.737134513,654.162290416,65864632.5139,1824.54950002,47433835.2008,67895946.9264,4785.5317476,4774.79801581,0.0
0.97741329948,1.24436752308,1.01215027785e-05,-94729026.4539,1.1447079979e-05,0.0,6022803.17472,681.318807425,642.892363452,67465090.155,1612.78409881,69673488.8171,69909222.7865,4057.24260614,4050.31099586,0.0
1.12843925614,0.949180999257,1.01268321871e-05,-12269211.1254,1.99387744555e-05,0.0,5591324.73731,683.22601198,652.484810987,66327450.7868,1795.34445141,42928671.4015,67263140.6212,4684.15135224,4674.30221717,0.0
0.998763168602,0.876048937471,9.80514081023e-06,-95843881.217,1.44128968529e-05,0.0,5986738.511,678.763083331,644.271157934,67384936.4668,1626.62621944,70655348.6192,70913025.9667,4145.86591287,4138.97321362,0.0
0.925584958772,0.614008269065,9.71218437734e-06,-92369224.1757,1.71772238231e-05,0.0,6136750.7177,690.609298752,639.559650307,67736529.6953,1609.84634641,67596382.2431,67801779.2429,3842.10316386,3836.22401068,0.0
1.23820779432,0.886809336873,1.01409128404e-05,17443217.9563,2.96783224993e-05,0.0,18929357.6509,690.182206877,659.504564556,64907990.4126,1926.74926779,62001531.8887,66923366.1772,5139.80055422,5127.81267774,0.0
1.06796973255,0.710447468988,9.9891540768e-06,-34452944.4693,1.80881468181e-05,0.0,5786947.35405,679.848350266,648.659710397,66882396.5312,1717.93280053,34748532.369,69956863.1365,4433.14235982,4424.65579907,0.0
1.07567799778,1.13956048867,1.04066136776e-05,-31973279.4523,1.41542016871e-05,0.0,5717318.22479,680.018464394,649.20832121,66678207.433,1725.56096761,34854046.1285,68943298.6373,4465.13936878,4455.50932563,0.0
1.15580107914,1.0244752092,1.03267356942e-05,-2369284.7799,2.00893719986e-05,0.0,5468839.20534,684.874593559,654.352018874,65929584.7788,1828.25546436,48441428.9635,67912455.6118,4797.73027951,4787.04889438,0.0
1.16432093862,0.792561069309,1.00151218258e-05,-478729.820237,2.46287328488e-05,0.0,5414428.83692,685.756184085,654.878062281,65776208.565,1838.8865333,49637771.1663,67621056.5812,4833.09621621,4822.14578064,0.0
1.18865918123,0.896287141721,1.00051185128e-05,5460919.92727,2.43956253986e-05,0.0,7025872.33714,687.134147064,656.381034083,65603061.6146,1868.97862377,52969493.9613,66814342.8073,4934.12426129,4922.96323685,0.0
1.18389761174,1.12641697266,1.03754267658e-05,5257689.29029,2.04535652595e-05,0.0,6799228.132,686.436813214,656.071774047,65671349.7678,1862.58183645,52689920.4511,66793567.8917,4914.35898633,4903.37896627,0.0
1.16874716063,1.18077812192,9.93910071867e-06,748506.59593,1.8209131972e-05,0.0,5448598.01202,685.781701299,655.154926449,65902803.8365,1843.65191662,50383407.7455,67618077.95,4851.46946378,4840.44122349,0.0
1.11763060064,1.23033338508,1.0607959021e-05,-14422676.7341,1.57587902321e-05,0.0,5631716.47811,682.167583286,651.847774341,66449917.4209,1781.31695232,41506131.4798,68337122.2858,4639.28462326,4629.71687296,0.0
1.15692016669,0.834899924401,1.01380934405e-05,-4872837.67294,2.52560317378e-05,0.0,5528227.92225,685.169110342,654.457116617,66186990.2049,1833.88760859,47106469.0631,68401940.7657,4802.37561193,4792.86345711,0.0
1.11280972536,1.01764133696,9.96534065944e-06,-16852877.631,1.75789376025e-05,0.0,5682595.61717,682.39727734,651.583453793,66602816.6123,1776.17219791,40408939.5433,69211079.6507,4619.27316997,4610.08284664,0.0
1.16881693427,1.00140773993,1.01612979403e-05,945282.25278,2.14235711769e-05,0.0,5447305.17857,685.747478011,655.170188029,65889813.1321,1845.10461477,50230966.2464,67501838.2128,4851.75909415,4841.14603341,0.0
1.01268012036,1.08863783308,1.03224552273e-05,-72796131.1405,1.22830147476e-05,0.0,5911134.34604,677.221865117,645.135687641,67160926.3185,1643.35788616,51491116.0175,70755404.6091,4203.63517961,4195.85209088,0.0
1.12029636238,0.897680933337,9.67992545447e-06,-15068967.4773,1.9370939239e-05,0.0,5632065.92666,683.096227672,652.009580161,66456652.0027,1784.85033074,41339878.6298,69185624.4661,4650.35020024,4640.53932076,0.0
1.14703895443,0.7972597482,9.66258914837e-06,-6989612.86858,2.37934023437e-05,0.0,5542131.31608,684.770321968,653.718746187,66204173.2135,1819.56516263,46412477.1465,68592175.3773,4761.35869984,4751.37641279,0.0
1.13765437443,0.920663117075,1.01502350358e-05,-10192653.4893,2.16834516173e-05,0.0,5600044.08367,683.855358793,653.184069128,66377258.4864,1809.06557639,44231690.2992,67937554.2064,4722.40330826,4713.12067474,0.0
1.11320362851,0.899229420354,9.75770103679e-06,-17034964.8595,1.87053387828e-05,0.0,5639555.99222,682.673421691,651.603241027,66474924.0366,1775.11259594,40259376.0997,69144345.1696,4620.90826195,4611.02290558,0.0
1.08525584701,1.00784846106,1.00320504529e-05,-27620408.9474,1.58186531306e-05,0.0,5765784.9037,680.819778396,649.867189821,66846768.6113,1741.07537062,35881809.5884,69311590.9795,4504.89702094,4496.33253954,0.0
1.16018307827,1.05331157444,1.01798070577e-05,-2388914.59066,1.98103112148e-05,0.0,5455785.78013,685.23807781,654.622203657,65906330.2939,1833.53880632,48245793.5015,67636878.9524,4815.9199579,4805.05566652,0.0
1.11593727785,0.702842167546,9.64197936008e-06,-16473190.897,2.19124427956e-05,0.0,5614443.00999,683.021772608,651.758389835,66399082.5179,1778.92248556,40665960.1863,69248990.2424,4632.25564036,4622.32335169,0.0
1.1915820147,1.0288165416,1.00859592253e-05,5956150.57225,2.24840559327e-05,0.0,7480585.24014,687.248733783,656.575486938,65468119.1011,1871.21912697,53081203.6385,66649456.4744,4946.25694302,4934.61459386,0.0
1.11166323893,1.18139535509,1.04854638968e-05,-16249443.6967,1.57206448386e-05,0.0,5656803.09531,681.889962008,651.464568977,66514463.2108,1773.79648636,40531633.8526,69231935.6381,4614.5141048,4605.04551165,0.0
1.02596830255,0.757468436155,1.00343756976e-05,-64015581.2764,1.55990660901e-05,0.0,5908402.21547,677.874327523,645.987892899,67214527.9418,1663.41884763,45282042.2556,70805614.6827,4258.79442388,4251.51739714,0.0
1.10323407836,1.02306540889,9.62381051198e-06,-22413536.7154,1.66012300068e-05,0.0,5730731.53767,682.152817659,651.032135881,66753004.1956,1764.37715933,37474938.9527,68815307.1172,4579.52465927,4570.57694838,0.0
1.18506401953,0.898706139594,1.00760052002e-05,4961033.1489,2.4457137777e-05,0.0,6588546.14611,686.821131413,656.146665621,65703126.6417,1865.2796213,52676690.3225,66968747.2189,4919.20074507,4908.41310722,0.0
0.957937980862,0.941461271541,9.9638800967e-06,-93835053.3365,1.41825770367e-05,0.0,6070828.49751,685.047450811,641.643487622,67591188.8403,1613.63656735,68886587.7228,69109876.7967,3976.40055856,3970.06229947,0.0
1.18926455703,1.08844045535,1.00394971742e-05,5328408.32657,2.12087526542e-05,0.0,6894897.86613,687.060780356,656.406053536,65558493.5577,1868.39540795,52764554.4272,66799911.8831,4936.63717623,4925.03763623,0.0
1.0937114114,1.15799016587,9.51749503076e-06,-25920217.2428,1.42430622491e-05,0.0,5771771.36083,681.565544521,650.375657558,66874817.0217,1751.83762061,36412691.5608,69465384.5918,4539.99606872,4531.20115685,0.0
1.11817411207,1.10100491074,9.72939210958e-06,-15892579.6271,1.66431181148e-05,0.0,5682931.97909,682.790041712,651.888618994,66623279.9532,1783.03227245,40933255.5493,69510038.4625,4641.5407392,4632.26436138,0.0
1.04837140866,0.979003936909,1.0403846922e-05,-45360231.4737,1.45226798797e-05,0.0,5802173.29202,678.493566742,647.397320676,66919014.8712,1690.61562392,35868372.9658,70331109.5042,4351.78971735,4343.03150065,0.0
1.12589449555,0.909970135131,9.68725843567e-06,-13526004.2761,1.98615310905e-05,0.0,5638942.50516,683.413031755,652.389432898,66493918.3295,1792.98257435,42214409.6279,68508726.5021,4673.58805103,4664.08428927,0.0
1.04723720462,1.01707692287,9.86146930994e-06,-47266871.5146,1.38598722815e-05,0.0,5832126.31761,678.813611565,647.327659886,66995785.7264,1688.91171546,36538057.3102,70507213.868,4347.08163638,4338.39906527,0.0
1.08043247446,0.915502604383,9.92235733659e-06,-29566508.1179,1.64343589015e-05,0.0,5777202.99546,680.652086771,649.549884968,66872452.5984,1734.83470813,35536714.6872,69333237.8136,4484.87520148,4476.3857564,0.0
1.01298687332,0.978138715342,1.03242095594e-05,-78698390.0249,1.36556799225e-05,0.0,5935914.95069,677.324095669,645.167818028,67258087.7399,1645.82621291,56134111.656,70746255.3429,4204.90851115,4197.81623839,0.0
1.21411232847,1.06400194087,1.01673427853e-05,11753206.406,2.36718057491e-05,0.0,12991190.209,688.512970785,657.965820458,65239570.8257,1898.11894325,57365289.0024,66278968.9266,5039.78027548,5027.90418713,0.0
1.08997098887,0.918397898035,9.88058778468e-06,-26423070.0146,1.7088944819e-05,0.0,5753228.09282,681.213020345,650.149709353,66812455.3251,1747.33956797,36210729.449,69317574.6266,4524.4695748,4515.83085171,0.0
1.09839617459,1.19917370098,9.73277967583e-06,-23728485.7843,1.43010144368e-05,0.0,5751746.15062,681.681397846,650.68397954,66810802.4246,1757.91936319,36975706.2837,69279997.4381,4559.44252072,4550.57333335,0.0
1.00667940477,1.09414627497,1.01359245405e-05,-88177542.6965,1.27010469242e-05,0.0,5892589.03023,677.74367421,644.750281462,67103077.1968,1633.74474054,64004642.1629,70766750.8826,4178.7262092,4170.30907995,0.0
1.20003130079,0.865124048038,9.72560813872e-06,8206690.65337,2.5753586181e-05,0.0,9676034.02264,688.031680871,657.135496411,65545006.1971,1883.26399203,54795049.1465,66750430.726,4981.32992958,4970.14697786,0.0
1.04611936491,0.987181064605,1.02748125496e-05,-47072982.3522,1.43198758655e-05,0.0,5813193.76804,678.484374916,647.251375467,66945844.3757,1687.60107274,36390348.8125,70152701.7745,4342.44148374,4333.72006669,0.0
1.12202012509,0.92045182686,1.00665264905e-05,-13806832.4768,1.96523307674e-05,0.0,5610869.08193,682.947402531,652.137198772,66394431.5044,1786.97931935,42081601.8255,68215971.6464,4657.50553925,4647.76517752,0.0
1.23206450345,1.01456161528,1.01912004947e-05,15822020.9288,2.64924772447e-05,0.0,17364515.4935,689.633828053,659.138994828,65131476.834,1920.34540077,60824213.4041,66776450.223,5114.29975382,5102.68232166,0.0
1.04528003414,0.93508123807,9.65555300413e-06,-50586827.3991,1.44445776702e-05,0.0,5879679.67435,678.878767326,647.231496829,67148037.0958,1688.61532038,37868580.8154,71180012.6761,4338.95742172,4331.21803922,0.0
0.957598189783,0.966563628764,9.79472780529e-06,-93861023.481,1.40986135539e-05,0.0,6079797.72908,685.56679104,641.622705976,67614464.1303,1615.31912785,68909428.9279,69132680.7459,3974.99008579,3968.656253,0.0
1.0734412272,1.03360251132,9.86600726172e-06,-32878712.2439,1.46235746761e-05,0.0,5809844.96902,680.061315204,648.971650127,66969993.1371,1725.55829308,34956346.9086,69857789.777,4455.85453411,4447.47336896,0.0
1.1573771896,1.11087483139,1.00438361718e-05,-1703220.46827,1.86368880556e-05,0.0,5504813.0534,685.053260772,654.46170119,66059864.3047,1830.5826102,49116360.7351,68153454.1307,4804.27271403,4793.8156159,0.0
1.05371202057,0.843159511584,9.92118872743e-06,-44653616.3335,1.59563887605e-05,0.0,5795121.35217,679.192113537,647.731201437,66897549.2631,1697.50107404,35692510.9291,70364192.5756,4373.95859739,4365.02370115,0.0
1.2050227736,1.04312436317,1.02194786551e-05,9324654.03619,2.34541776603e-05,0.0,10687509.6166,687.918818405,657.357147108,65289276.519,1886.98623175,55436574.4486,66829579.1993,5002.04953321,4990.15258484,0.0
1.1542961016,1.06659452424,1.04472689077e-05,-3416087.2065,1.95630965232e-05,0.0,5464423.48245,684.709956747,654.253036892,65932623.0799,1826.05066215,47575474.2296,67915842.404,4791.48311774,4780.72390255,0.0
1.06825330401,1.16614239285,9.89692297276e-06,-35592420.2418,1.3012925796e-05,0.0,5818642.17431,679.762541121,648.677096523,66989949.9088,1718.15911981,34714972.3854,70154294.3961,4434.31946495,4425.82816664,0.0
0.973821645054,1.16595518399,9.82761745055e-06,-94763655.9908,1.21412550115e-05,0.0,6051235.24387,682.408166577,642.667065059,67540359.6516,1614.03531441,69703946.1921,69938662.1337,4042.33364862,4035.70307362,0.0
1.11301322513,1.01342169811,9.58525937482e-06,-19405241.0886,1.74221915717e-05,0.0,5703809.93356,682.726201487,651.627019599,66685240.1711,1777.15164883,39001709.4703,69035929.0884,4620.11789751,4611.01364561,0.0
1.01698242769,0.679008120277,9.89289029669e-06,-76420827.855,1.60630050258e-05,0.0,5932280.074,677.912134901,645.430233933,67260662.3052,1651.46876451,54336187.8835,71086763.3504,4221.49405734,4214.34494381,0.0
0.992281584719,0.74336159922,9.889920521e-06,-95263018.5402,1.5659183825e-05,0.0,5917439.4021,679.685642739,643.834280479,67151753.3829,1614.94883453,70143937.6928,70384628.3142,4118.96085817,4110.77767251,0.0
0.994377013436,1.17717749516,9.92850628343e-06,-95432832.2434,1.1947831165e-05,0.0,5936088.4111,679.128691188,643.965165902,67214628.8685,1617.20667386,70293387.8615,70561140.7292,4127.65898277,4119.44188537,0.0
1.10125589472,1.14404588847,1.0145992631e-05,-22088325.3163,1.54244620007e-05,0.0,5725615.00365,681.625077655,650.904499703,66736108.8999,1761.83539787,37509892.2495,68550665.1062,4571.31321898,4562.49789627,0.0
1.14903740628,1.03473076554,1.00760734001e-05,-7346490.20254,2.08663567069e-05,0.0,5581019.47311,684.517795674,653.896825009,66340096.8755,1823.75824026,45815802.7735,68660053.8591,4769.65427347,4760.28396895,0.0
0.904389567963,0.936522197568,9.97253037611e-06,-91348439.5283,1.34154241537e-05,0.0,6132452.43636,692.086774315,638.176509684,67678312.8838,1595.72863157,66697913.9665,67678312.8838,3754.12109661,3747.40711233,0.0
1.0576673301,1.08144464212,1.02224727059e-05,-39511706.5063,1.35390936672e-05,0.0,5826850.37351,679.098982535,648.073313516,66994663.5716,1704.53470199,34800213.8853,69712425.8756,4390.37708725,4382.14360844,0.0
1.08502204495,0.991010013649,1.00949063749e-05,-27488727.1016,1.6051769987e-05,0.0,5762547.42807,680.769509397,649.851117343,66837250.7754,1740.784236,35875520.7443,69287383.4788,4503.92650859,4495.36567064,0.0
1.07363881041,0.66952290529,9.39272504655e-06,-33417376.3297,1.85414293437e-05,0.0,5795937.12361,680.600806293,649.013672849,66920665.1494,1725.46091873,34914009.049,70093643.5063,4456.67470201,4448.10035677,0.0
1.11337994813,1.12750487721,1.02630606202e-05,-16038581.3512,1.63077242922e-05,0.0,5656631.79712,682.144837775,651.569975206,66529731.0799,1775.80829302,40741472.4871,69362257.0931,4621.64016469,4612.14256442,0.0
1.19382672972,0.80605278025,1.04110875793e-05,7702605.95975,2.75739606644e-05,0.0,9084544.5091,687.311833953,656.730499307,65410565.1419,1875.00880627,54074105.3163,66418093.0964,4955.57475507,4944.41828758,0.0
1.20993584527,1.02221299812,9.80966310772e-06,10613293.6308,2.36278703129e-05,0.0,11985625.3846,688.421049328,657.674007104,65379689.5772,1893.88515247,56535468.8364,66996723.5439,5022.44369372,5010.77124124,0.0
1.0658517465,1.1381961954,9.92856480613e-06,-36546860.3427,1.3163250671e-05,0.0,5821823.05769,679.61837058,648.521425574,66995492.7382,1715.03434139,34677472.4073,70242710.431,4424.35059972,4415.89690608,0.0
1.02278041932,0.965656698871,1.04767648152e-05,-64570049.6184,1.38559137545e-05,0.0,5870510.48527,677.362406146,645.768073887,67087993.0866,1657.29036672,45631898.977,70718253.8133,4245.5615206,4237.61469179,0.0
1.09070079087,0.628904860361,9.90537304179e-06,-26042351.8771,2.1413865248e-05,0.0,5727264.97987,681.367715428,650.184820525,66734309.271,1748.5476655,36215308.4735,69216724.4727,4527.4989829,4518.84947067,0.0
1.04583335823,0.89451661738,9.67097770389e-06,-49900501.9867,1.49991938375e-05,0.0,5827831.66926,678.99253696,647.233794336,66986511.8609,1686.9344971,37553095.2856,71104284.4185,4341.25427001,4332.44941057,0.0
1.10398339061,1.00939902176,1.02351764592e-05,-19026122.2459,1.71145947837e-05,0.0,5682263.64183,681.736126481,651.049065088,66597604.4532,1763.94238503,39208935.7916,68729001.6982,4582.63505442,4573.39221605,0.0
1.10525487043,0.834280323798,9.96920348844e-06,-21008176.7427,1.94907479434e-05,0.0,5700534.07903,682.121228984,651.154918316,66661789.1875,1767.49655506,37952749.7658,68668178.2407,4587.91296715,4579.03437528,0.0
1.11001777662,0.714294940408,1.01914851782e-05,-17236580.6897,2.180873555e-05,0.0,5638121.64737,682.25489534,651.403460771,66471760.4236,1772.096577,40083537.2875,69000714.2302,4607.68379075,4598.34143487,0.0
1.1301959247,1.10752651984,1.0023506453e-05,-11820555.8529,1.76956846321e-05,0.0,5604030.30599,683.304173543,652.604759055,66385835.5733,1797.25747095,43321991.2124,67477670.5781,4691.44328343,4681.56482765,0.0
1.19690535407,1.14184514571,1.01436061284e-05,8600600.21915,2.09261187029e-05,0.0,10020954.8431,687.37725074,656.9271328,65579676.5455,1878.34507596,55008017.9284,66784120.876,4968.35412474,4957.24166771,0.0
1.14470560716,0.835357991491,9.76269908394e-06,-7856087.64945,2.25578538135e-05,0.0,5509109.36373,684.590180944,653.552021502,66101570.9409,1815.09529141,45821471.8594,68392390.0205,4751.67297532,4741.13431984,0.0
1.03263440318,0.834536894029,1.01098616394e-05,-57762693.1593,1.51592750715e-05,0.0,5841729.32127,678.08637763,646.388462502,67010002.2721,1669.77067756,41346400.3897,70962572.3353,4286.4654076,4277.96167907,0.0
1.12868197123,0.948556717691,9.98886283614e-06,-12231817.4083,1.98347776292e-05,0.0,5596054.28576,683.317278458,652.501201679,66357742.5124,1795.51175209,43025546.04,67308689.4348,4685.15886258,4675.30661797,0.0
1.06434832375,1.07946890257,1.01252770899e-05,-36443680.4836,1.37318615539e-05,0.0,5814418.28559,679.410804839,648.423745589,66962604.6241,1713.1027583,34657728.6977,70166543.5013,4418.10989189,4409.67970477,0.0
1.16047999561,0.985594118795,9.92461272169e-06,-2778467.63419,2.07325527468e-05,0.0,5459209.78784,685.4616239,654.647316521,65944077.7487,1834.18764788,48269837.9674,67966492.3651,4817.15246178,4806.27010353,0.0
0.963874405541,0.88839511412,1.03742413165e-05,-93979387.2144,1.43755577251e-05,0.0,6037930.4164,683.086748957,642.022919795,67508069.8234,1610.89373977,69013692.626,69239948.4724,4001.0426574,3994.62419039,0.0
1.18107620208,0.874712203648,1.02682529802e-05,4637053.24106,2.48349958019e-05,0.0,6308118.48584,686.459327047,655.888122801,65687821.5102,1860.14484019,52390878.6515,66961739.4747,4902.64731483,4891.93158655,0.0
1.06760192459,0.889937578713,1.0106558484e-05,-34999858.8484,1.59405531609e-05,0.0,5794756.75669,679.682374265,648.636092215,66908288.4434,1717.50520065,34695270.1834,69939024.7804,4431.61558897,4423.134497,0.0
1.05506015235,0.767666549602,1.02355290604e-05,-41487564.2838,1.67195540581e-05,0.0,5797669.54719,678.967641754,647.79899426,66912281.6636,1700.41926666,35045514.1764,69840809.3301,4379.5546924,4371.0154768,0.0
0.97086370851,0.98931532111,1.00894089248e-05,-94522730.7385,1.3861913388e-05,0.0,6039044.58322,682.353218769,642.475601429,67507605.3172,1612.1380991,69491888.3929,69724611.3295,4030.05525403,4023.54755022,0.0
1.25039488764,0.918594317999,1.01464615423e-05,19706667.6646,3.07579341476e-05,0.0,21431065.8594,690.991005397,660.214184619,64574478.1481,1939.38791742,63795751.189,64705130.8288,5190.38917859,5177.62910284,0.0
1.13846409728,1.22310474988,9.68553781499e-06,-11519253.4769,1.6736404896e-05,0.0,5570212.49274,684.154065605,653.216394507,66286696.4155,1807.14550816,43533262.2032,67770619.5458,4725.76446781,4715.3054292,0.0
1.22208781291,1.00272876948,9.96092329977e-06,13187989.521,2.54115464501e-05,0.0,14436591.9724,689.220684761,658.486529371,65094124.4751,1907.46980266,58567754.8948,66446329.9703,5072.88651139,5060.74492782,0.0
1.21344038537,0.785963963644,9.58523634598e-06,11150620.9057,2.85646330601e-05,0.0,12504014.3658,688.966714424,657.892290451,65268088.5091,1898.85415683,56951009.1563,66601237.2527,5036.99103967,5025.25462317,0.0
1.07391146378,0.902749895062,9.85138909079e-06,-32698640.9402,1.61038593757e-05,0.0,5800617.68443,680.145151442,648.996450604,66942843.4808,1726.27439396,34977808.6663,69811041.4534,4457.80648615,4449.41805593,0.0
1.16078199588,0.647858807601,1.01419863048e-05,-3643067.45743,3.01700701505e-05,0.0,5491071.65265,685.535135158,654.694985369,66076738.8917,1838.97882055,47672724.7169,68139366.7882,4818.4060649,4808.83156525,0.0
1.11584147432,0.851933001616,9.97378146448e-06,-15820754.5349,1.95724655385e-05,0.0,5611627.05569,682.668607037,651.720349302,66377621.7274,1778.28979523,40846049.0715,69354283.672,4631.8579599,4621.84695425,0.0
1.14140125772,0.987545946348,9.85517604239e-06,-8549789.92886,2.03472802951e-05,0.0,5588508.85359,684.088620498,653.305396113,66355947.9142,1812.69479685,45500944.3265,68282185.0404,4737.9566208,4728.2779028,0.0
1.01271074731,0.798084652128,9.93461431525e-06,-81173296.8853,1.49405311672e-05,0.0,5948572.36934,677.78278926,645.152327359,67288867.1049,1645.62683821,58145740.7236,70793777.3937,4203.76231208,4196.67366589,0.0
0.98221581078,1.04177608554,9.83225811018e-06,-94983075.235,1.30923617076e-05,0.0,6010695.6779,681.303794035,643.201954011,67427369.4676,1615.3528782,69897243.4664,70137030.1131,4077.17783055,4070.09242261,0.0
1.18657648627,0.986602364124,9.75374386917e-06,4468754.10959,2.23588609058e-05,0.0,6119310.21904,687.082680744,656.236911538,65713344.906,1866.64449222,52456844.5339,66917122.9438,4925.47899451,4914.33337648,0.0
1.18911359204,0.872678905108,9.93701170135e-06,5978363.30861,2.50038745457e-05,0.0,7564593.24808,687.185646636,656.411969413,65661005.0731,1869.96403074,53402959.843,66896359.8462,4936.01052056,4925.05941295,0.0
1.07149206826,0.687014214454,9.8236812007e-06,-33769976.752,1.85691114459e-05,0.0,5793983.38822,680.158231967,648.879228771,66917208.3447,1723.27254378,34795800.1253,69933715.9206,4447.76357535,4439.41249673,0.0
0.934935422738,1.17367064797,9.75088657524e-06,-92698342.6117,1.23475171366e-05,0.0,6077833.66439,689.167665448,640.143877738,67555282.5355,1609.02244449,67886126.2566,68095908.1772,3880.91693979,3873.71124012,0.0
1.22201671587,0.872342683723,9.66482150401e-06,12843642.7457,2.74619487825e-05,0.0,14157996.7218,689.47198775,658.489323441,65131815.5542,1908.43787338,58333212.744,66372716.5886,5072.59138758,5060.58242798,0.0
0.992446672767,0.965412373045,9.65326925343e-06,-95391723.4474,1.42174479319e-05,0.0,5989076.41341,680.569883186,643.86071523,67379678.5003,1620.8762143,70257004.0556,70501667.5882,4119.64613866,4112.49846057,0.0
1.03387039997,0.939932353615,9.87539045916e-06,-58253190.8909,1.42749311208e-05,0.0,5902958.12836,678.229695194,646.491854822,67209148.4914,1673.85311311,41743687.3631,71060146.9475,4291.59603028,4284.2057205,0.0
1.02671793827,0.915463853261,9.7747991651e-06,-65759107.91,1.42911388519e-05,0.0,5923853.62346,678.109255629,646.040061325,67258933.4515,1664.30564598,46479201.1004,71037472.3661,4261.90616176,4254.61842035,0.0
1.12493840967,1.11395965796,9.8007954515e-06,-13596726.3989,1.70480320648e-05,0.0,5653882.91867,683.17669067,652.327139819,66541037.3361,1791.51561593,42118675.2625,68543532.5531,4669.61933854,4660.13131379,0.0
1.20258828999,1.13136189918,1.01263169147e-05,8662100.2718,2.1574235516e-05,0.0,10007248.7831,687.800162506,657.244890074,65370021.3689,1884.06475192,54945286.7424,66744438.5682,4991.94399175,4980.09240242,0.0
1.17855911685,1.02922539736,1.00884087718e-05,3369600.27017,2.14614408804e-05,0.0,5520386.7086,686.327389454,655.750474533,65822566.1679,1857.2341725,51737621.0188,67128436.4774,4892.19889404,4881.52482626,0.0
1.18293009734,0.816232871841,1.00876949145e-05,5010383.74803,2.59664353832e-05,0.0,6648641.92041,686.719819594,656.007775724,65692938.6965,1862.57067556,52733918.1466,66991385.8597,4910.34283406,4899.59829743,0.0
1.11949488267,1.04182449035,9.9215591803e-06,-14925988.8831,1.77117368624e-05,0.0,5614656.79901,682.835469016,651.95127112,66393903.3435,1782.73171224,41312405.4123,68528575.2898,4647.02325796,4636.93226609,0.0
1.0874226392,0.730314484515,9.79161576286e-06,-27552235.0263,1.93265971434e-05,0.0,5750030.08056,681.238810678,650.006587937,66797926.231,1744.15307494,35955725.9701,69326384.8427,4513.89137532,4505.29309747,0.0
0.999650146944,1.02370589151,9.84110060165e-06,-95886204.3964,1.32125511144e-05,0.0,5989782.17895,678.556587506,644.324410045,67396643.9017,1627.7342481,70692145.972,70941786.675,4149.54775996,4142.6426732,0.0
1.12621786407,0.855046690042,9.44138541197e-06,-14321963.346,2.07902960809e-05,0.0,5668916.60167,683.595623779,652.420884894,66588233.96,1794.68550281,41929123.1777,69012802.5554,4674.93035375,4665.80512746,0.0
0.991347609179,0.984446971461,1.04758110998e-05,-95111075.1828,1.36989845313e-05,0.0,5911565.49622,678.41774173,643.768765309,67144758.2928,1613.60156469,70010225.4505,70238699.7605,4115.0839257,4106.99581231,0.0
1.19286712277,0.785256546305,9.79087885181e-06,6102899.494,2.71214365068e-05,0.0,7689988.61076,687.662743729,656.647557317,65480839.0032,1874.02891334,53378550.51,66682956.5835,4951.59142662,4940.13145867,0.0
1.05977681563,0.724235619537,9.60427386684e-06,-42974908.372,1.75876605829e-05,0.0,5782102.07383,679.789622635,648.098945998,66863435.4383,1705.58751535,35287425.9422,69945988.1183,4399.13356168,4390.09664256,0.0
1.12758610718,0.742204516661,1.02308815054e-05,-12231752.0828,2.31079624415e-05,0.0,5566443.3475,683.321432176,652.505419899,66250078.4624,1794.46029527,42923560.0663,67171396.6394,4680.6099309,4670.77522394,0.0
1.15585952285,0.811795966515,1.01761107498e-05,-2049544.53126,2.36110752441e-05,0.0,5484141.82183,685.045249442,654.365645467,65998163.7813,1829.50552447,48875839.25,68086169.3241,4797.97287935,4787.70572949,0.0
1.11147764045,0.896813471041,9.56387279291e-06,-18364599.5712,1.86407742288e-05,0.0,5627975.73721,682.761616722,651.50207107,66430025.588,1772.14865841,39518072.0432,68924754.0143,4613.74368551,4603.50505296,0.0
1.18552621343,1.01342601111,9.89973558397e-06,4317360.07015,2.19479885414e-05,0.0,6087255.8249,686.911926106,656.17276959,65697820.8478,1865.22816351,52399008.7031,67008440.7087,4921.11931195,4910.0125661,0.0
1.11568849787,0.867416274193,1.01686952346e-05,-15478668.1357,1.98381585063e-05,0.0,5631713.16919,682.476639137,651.71411706,66455090.3417,1779.06315928,40979579.3862,69180309.8158,4631.22295466,4621.68790656,0.0
1.1094012581,0.713457487649,1.01540474859e-05,-17486938.281,2.1721712569e-05,0.0,5641825.60853,682.251041087,651.370713571,66481810.4147,1771.30023048,39935805.7818,68954891.997,4605.12462237,4595.79238921,0.0
1.16683745537,1.23331354549,1.00856596878e-05,323008.67605,1.75236000893e-05,0.0,5453716.72762,685.553765321,655.03346249,65900266.374,1841.23486595,50057969.8398,67572515.9209,4843.54227724,4832.55353819,0.0
1.01610274359,0.863898464471,1.00494650308e-05,-76149633.8832,1.4554826308e-05,0.0,5931444.27946,677.672301299,645.368271416,67253270.8739,1649.82738606,54116476.1542,70767765.7114,4217.84248864,4210.61730864,0.0
1.05421924407,0.929773376314,1.01527854465e-05,-42890301.9844,1.53377536878e-05,0.0,5797449.71563,678.973250772,647.75091261,66905639.2586,1698.47833295,35268766.846,70341370.2747,4376.06408213,4367.29967302,0.0
1.06886271373,0.999295875831,9.90405176671e-06,-35246831.474,1.47272969568e-05,0.0,5806592.82209,679.85477759,648.716787307,66954023.5687,1719.07267457,34725121.1344,70083309.1534,4436.84912469,4428.34827313,0.0
1.03136497625,0.974909067298,1.03747398071e-05,-58796539.1141,1.41269665328e-05,0.0,5816579.8653,677.77216728,646.301014823,66936697.0615,1666.56935062,41887308.8267,70603485.1131,4281.19601641,4272.28662548,0.0
1.06000845012,0.958833076042,1.0102095466e-05,-38518291.9318,1.47852147968e-05,0.0,5817934.19889,679.242897685,648.141402025,66976816.8566,1707.44869151,34690385.9432,69902515.8732,4400.09507645,4391.73259443,0.0
1.05753450344,1.05423958824,9.94488384073e-06,-40374490.8197,1.35955771708e-05,0.0,5836108.47119,679.168412862,647.960610155,67023927.2572,1704.06023053,34935769.6564,69897625.4641,4389.82572378,4381.50173699,0.0
1.04822194103,0.925511789453,9.99929428276e-06,-46148734.0504,1.47806092559e-05,0.0,5851904.28945,678.718251342,647.402374849,67066010.193,1691.93824086,36214096.3699,70473946.9516,4351.16927722,4343.20153543,0.0
1.19603843963,1.00052839247,9.72691223042e-06,6937708.18872,2.28444759695e-05,0.0,8478298.89076,687.697344072,656.88755655,65653811.3856,1878.50210035,54062290.0536,66807075.6944,4964.7555629,4953.67287929,0.0
1.21633782935,0.940228646071,9.70486751334e-06,12149784.0884,2.55516242345e-05,0.0,13455544.623,688.947221065,658.110808938,65325309.8592,1902.09615275,57769675.7222,66404113.2718,5049.01832963,5037.4297672,0.0
1.15836524104,0.702215870231,1.00151972562e-05,-3003634.48042,2.58227731783e-05,0.0,5427435.08703,685.488859126,654.514552902,65846864.2469,1831.96343638,48044310.1139,67623546.3981,4808.37411556,4797.54232796,0.0
1.13138344554,0.944965653085,9.40596297064e-06,-13188926.258,1.99769368451e-05,0.0,5667407.60748,683.902088925,652.766993136,66597463.3892,1801.6181263,42618033.3573,68539759.3699,4696.37268244,4687.26937695,0.0
1.12748127489,1.01934973367,9.45896121028e-06,-13531899.5919,1.8217747771e-05,0.0,5626555.9511,683.643081682,652.483784179,66445865.2919,1793.96541316,42362428.6212,68309741.5721,4680.17477207,4670.21669333,0.0
1.13839326533,0.986103707374,1.01774581437e-05,-9605736.00205,2.0360308046e-05,0.0,5547240.01563,683.896618034,653.197961347,66201650.7361,1807.71387022,44493782.8856,67988537.7021,4725.47044438,4715.34983836,0.0
1.20423204153,0.9391255948,1.0006945254e-05,9522280.70645,2.51290158205e-05,0.0,10866961.4504,688.085503964,657.330671795,65282014.6274,1886.24213137,55628286.4435,66816003.6361,4998.76720439,4986.88448766,0.0
1.12817272485,1.09759326123,9.84414355988e-06,-12716040.5559,1.76308785551e-05,0.0,5584408.03575,683.439605894,652.534428641,66308859.7997,1793.5753713,42604343.6001,67772234.4662,4683.04498085,4672.70455875,0.0
1.10926990291,1.07015916192,1.00763034626e-05,-17649068.2562,1.65449580532e-05,0.0,5650362.0923,682.148650348,651.35805231,66494490.2698,1769.68848895,39850843.4238,68995074.3276,4604.57936698,4594.76061666,0.0
0.995133597811,0.819758149041,9.93832637959e-06,-95384183.8803,1.50791085232e-05,0.0,5912365.4038,679.170622751,644.014532845,67142100.8993,1618.46388859,70250675.8825,70498358.7406,4130.79956451,4122.57020888,0.0
1.07196472419,1.02461616262,1.02671804042e-05,-32064039.1092,1.49960868828e-05,0.0,5789887.13533,679.670796297,648.846414524,66909360.1733,1723.28103756,35056139.1729,69490797.8449,4449.72557011,4441.27217588,0.0
0.962925455912,0.86530038885,9.71021275286e-06,-94118452.4025,1.46908279456e-05,0.0,6041405.89124,684.762649273,641.958777192,67481563.1156,1613.67781847,69136025.1191,69363293.4827,3997.10356749,3990.13885856,0.0
1.1780456049,1.03932991539,9.94051910261e-06,2706942.99723,2.10573273316e-05,0.0,5404572.65897,686.430764757,655.717255312,65768823.2104,1855.72781479,51384195.7921,66992102.6353,4890.06730594,4878.97499579,0.0
1.1291839157,0.898269109886,9.93088055788e-06,-12210515.2769,2.05319428662e-05,0.0,5592723.43061,683.412288371,652.534950009,66346850.993,1796.23152173,43087784.3964,67316088.7111,4687.24243407,4677.38111363,0.0
1.07787478037,0.978927676166,1.03061063472e-05,-29543820.0151,1.59164942961e-05,0.0,5776711.72369,680.211692553,649.389607651,66877551.0218,1731.76875415,35275694.4509,69228853.5901,4474.25821332,4465.90474731,0.0
1.21350598543,1.03658439885,1.05560494034e-05,12270649.4315,2.4733046799e-05,0.0,13500804.6569,688.285753389,657.934732005,65148086.4488,1896.81475063,57693174.1544,66322288.2758,5037.26334552,5025.41478488,0.0
1.06979867261,1.00767157259,9.91271222447e-06,-34804341.893,1.46837957719e-05,0.0,5804579.77683,679.89598469,648.776586291,66939055.6309,1720.29445955,34751841.8259,69998496.2694,4440.73429,4432.21875757,0.0
1.05111853703,0.963840956587,1.02900264333e-05,-44454961.3647,1.4767164847e-05,0.0,5798929.00163,678.7185909,647.56408797,66912767.8675,1694.26402081,35626394.2806,70341571.6606,4363.19304721,4354.38968938,0.0
1.07744858705,1.004998468,9.58480398493e-06,-32159116.7465,1.50481121311e-05,0.0,5808772.55284,680.4822534,649.215247289,66970024.8903,1730.83699502,35129479.5938,69848058.5644,4472.48908484,4464.04592383,0.0
1.1292494563,1.14930023127,1.04033187535e-05,-11636767.2549,1.74157172869e-05,0.0,5593491.07371,682.996801558,652.546208601,66341262.8995,1796.06583865,43243961.754,67474495.8241,4687.5144931,4677.65164848,0.0
1.16567375157,0.935119255455,9.96273328715e-06,-36682.805477,2.20305201373e-05,0.0,5430382.6342,685.751255044,654.962723346,65844855.3474,1840.23826003,49948104.4167,67699419.1593,4838.71174277,4827.73861805,0.0
1.0705601347,1.1647998626,9.88639562861e-06,-34621968.6975,1.31254986324e-05,0.0,5813210.83786,679.894743606,648.82300208,66966922.9626,1721.1768592,34790311.7515,70000700.4803,4443.89511914,4435.36910944,0.0
1.17524501437,0.968386207783,1.02503365124e-05,2932542.87604,2.2593138548e-05,0.0,5413398.75782,686.083754167,655.544240163,65776806.0395,1852.77348991,51379971.2124,67042311.0831,4878.44205465,4867.71852172,0.0
1.02420587312,0.984264599949,9.91777897183e-06,-67453284.0486,1.36593137396e-05,0.0,5927727.42297,677.890710463,645.886082495,67267353.0342,1660.94933026,47644902.8437,70997225.5604,4251.47857932,4244.22671682,0.0
1.12465340754,0.798048925325,1.01298589803e-05,-13472228.7077,2.23649024808e-05,0.0,5639113.85576,683.07907083,652.330293171,66502271.3748,1792.67998094,42298283.5208,68258860.8848,4668.4362947,4659.46635898,0.0
1.14572207118,0.999117572711,9.87460824199e-06,-8268415.14168,2.04397398389e-05,0.0,5546403.3004,684.354924441,653.535099102,66208583.892,1817.39180801,45356614.2922,68449571.1192,4755.89231747,4745.72404229,0.0
1.0428713374,0.86009818026,1.01496959767e-05,-49556492.6266,1.53846824469e-05,0.0,5817368.01566,678.588315582,647.117668589,66953526.1724,1683.55968439,37257076.8118,70910884.7944,4328.95892155,4320.37869915,0.0
1.03621156495,1.0591336319,9.9673752694e-06,-56739710.7107,1.33022381166e-05,0.0,5854188.24534,678.289909309,646.630713165,67053872.13,1674.56161521,40789000.3679,71013016.2801,4301.31420611,4292.83991213,0.0
1.00433686221,0.730692870837,1.00802762318e-05,-88864408.8418,1.55450598393e-05,0.0,5881644.22346,677.882794739,644.594946304,67063056.7633,1630.83686721,64580353.5965,70785022.4514,4169.00231503,4160.62308656,0.0
1.18715962467,0.953386474348,9.80843385972e-06,4646964.13103,2.32337440173e-05,0.0,6261780.97557,687.15853937,656.26650104,65576569.257,1866.28886608,52462755.1836,66892500.1914,4927.89960201,4916.31913954,0.0
1.19771332817,1.0355339021,1.03680836296e-05,8034086.21241,2.31842412104e-05,0.0,9393191.58739,687.440890445,656.948045461,65330160.5142,1878.11608016,54372320.9806,66519350.6159,4971.70802523,4959.95374191,0.0
1.0108937564,1.03109389541,1.00957653523e-05,-83962879.4095,1.33883173485e-05,0.0,5879287.14288,677.724383547,645.014367809,67068278.1882,1639.40636575,60441905.0091,70658618.6259,4196.21998282,4187.73381589,0.0
1.15776358985,0.692505942201,9.86523103445e-06,-3796771.49409,2.75405473564e-05,0.0,5485390.35945,685.52731155,654.501548411,66035065.9151,1833.64670229,47850149.6821,68259627.8446,4805.87666147,4795.82930504,0.0
1.16078544712,0.883470991816,1.02685171079e-05,-903001.458684,2.2776759831e-05,0.0,5469896.81318,685.245690837,654.667220573,65939252.125,1835.61632612,49325268.6634,67695663.7593,4818.420391,4808.07194316,0.0
1.12538216439,0.7873105607,1.00135284566e-05,-13518686.9006,2.25000169025e-05,0.0,5641292.59685,683.207664411,652.379418395,66507400.3509,1793.66433715,42316848.1746,68327919.8403,4671.46136438,4662.47996791,0.0
1.1376657391,0.896371383172,9.88792462917e-06,-10521173.1331,2.14505648196e-05,0.0,5582641.80654,684.080560577,653.178870119,66323960.7227,1808.12026875,44199431.4278,67802739.6815,4722.450483,4712.72520703,0.0
1.121012211,0.895400337187,9.99663475224e-06,-14437614.0943,1.99870748091e-05,0.0,5644884.72927,682.898580422,652.068350083,66501639.0809,1786.87547638,41595384.341,68833241.7506,4653.32168786,4643.99925486,0.0
1.21568294347,0.792278593978,1.01240424435e-05,12196047.9019,2.9484042451e-05,0.0,13414962.3816,688.869476577,658.078747123,65129975.1259,1900.78734132,57676833.3795,66187249.4574,5046.29989834,5034.50495453,0.0
1.06558939896,1.26931885885,1.00411185867e-05,-36251050.5084,1.21214810902e-05,0.0,5824622.81299,679.478489197,648.504422948,67005580.0094,1714.62084708,34676922.8102,70201321.7325,4423.26159508,4414.81200526,0.0
1.13650131686,0.629653405579,9.78607809654e-06,-10436361.7078,2.61911122107e-05,0.0,5560576.50356,684.247249388,653.104962397,66254487.9297,1806.87597197,44149013.2472,67685652.2439,4717.61696629,4707.91133615,0.0
1.12471027811,0.966589782001,9.93416876263e-06,-13544160.7917,1.93323292887e-05,0.0,5637993.47631,683.158778308,652.324179552,66485081.8762,1791.59876267,42032551.2661,68375411.1641,4668.67236443,4659.2897013,0.0
1.07385200819,0.778478853859,1.02370936988e-05,-31362896.419,1.79373741393e-05,0.0,5781936.48261,680.036982049,649.11822152,66886763.9467,1726.4361754,35113841.6151,69257152.5211,4457.559686,4449.37230916,0.0
1.05276601359,1.21089244826,9.93891579207e-06,-45152401.5319,1.2330408507e-05,0.0,5821035.06613,678.981537893,647.676322474,66975893.9094,1695.96918615,35856156.5566,70488944.8641,4370.03172241,4361.11248026,0.0
0.975066435928,0.968037992584,1.03728880701e-05,-94445066.5557,1.40464931567e-05,0.0,6014324.93878,681.582534751,642.742691359,67453569.3707,1613.97172906,69423787.7976,69656464.0597,4047.50077554,4040.9299075,0.0
1.05943215338,0.902163813502,9.72400469407e-06,-41279798.8557,1.53203426047e-05,0.0,5811325.37664,679.537595209,648.078444104,66950673.6543,1705.81211858,35009093.3364,69713601.79,4397.70286868,4389.00108857,0.0
1.0539395409,0.857472290997,9.84042992426e-06,-44884976.0957,1.57915248245e-05,0.0,5798636.04577,679.262669329,647.748702813,66907652.007,1697.77797122,35762596.6695,70417712.1736,4374.90303428,4365.96297872,0.0
1.04925851122,0.887630561549,1.05165434959e-05,-43024636.0866,1.51812076703e-05,0.0,5804440.85758,678.415246464,647.444772856,66923864.7558,1692.37897165,35284725.4173,70268082.4173,4355.47208007,4346.93513472,0.0
1.2426179804,1.01657050526,9.76805691285e-06,17970567.6235,2.64943603414e-05,0.0,19482726.2092,690.538832759,659.779761131,64981955.2742,1932.22311788,62451628.6635,67138035.0704,5158.10723664,5146.05501304,0.0
1.00032414017,0.875698261817,9.64048484572e-06,-95933507.783,1.45085358282e-05,0.0,5989062.06498,678.959491343,644.370598624,67391784.235,1628.66573328,70733925.5512,71026443.8848,4152.34550585,4145.43121656,0.0
1.1610450755,0.747015587463,9.48265961224e-06,-1701357.70816,2.44479232029e-05,0.0,5477234.28928,685.795782792,654.650161281,65987956.6256,1835.78419955,49401311.7362,67947757.0757,4819.4981084,4808.9197901,0.0
1.14956251452,1.03085736231,1.0096693198e-05,-5675118.55142,2.0611906477e-05,0.0,5549274.58008,684.568439837,653.942727933,66234933.1561,1822.84164397,46909703.1634,68728503.0717,4771.83399777,4762.02006813,0.0
1.24327784694,1.16629547931,9.95996743663e-06,18060434.1599,2.40762641844e-05,0.0,19640309.4667,690.383980902,659.797979746,64944799.7465,1931.955995,62524522.3211,67200973.8059,5160.84634265,5148.5565245,0.0
1.0243894431,1.13750952243,1.04075461706e-05,-66379935.5884,1.24342021377e-05,0.0,5841607.11049,677.448238608,645.859755357,67003197.5027,1657.19761514,46851684.4404,70487329.5393,4252.24057831,4243.44804219,0.0
1.18414928294,0.961484872037,1.03382364701e-05,4814021.45494,2.34094531053e-05,0.0,6335796.74786,686.601476428,656.086711615,65633391.6308,1863.45755245,52363621.4042,66827325.0676,4915.40367348,4904.41522509,0.0
1.06609065976,1.10145784225,9.72016082714e-06,-37267565.3662,1.34258422397e-05,0.0,5827273.63057,679.799133959,648.536510209,67008595.4979,1715.35648142,34708447.4503,70247511.6085,4425.34232866,4416.88489706,0.0
1.1349683411,1.16934677335,9.89884170885e-06,-10022073.3911,1.72203834471e-05,0.0,5615128.38201,683.73752379,653.007433358,66423179.4281,1803.97130483,44540720.5927,67877658.6059,4711.25358391,4701.57664868,0.0
1.08135609885,1.01158139032,9.87312110298e-06,-28963958.8372,1.54918691172e-05,0.0,5783822.0943,680.698252006,649.614083118,66893437.6701,1735.86983849,35740935.5711,69403317.4694,4488.70916633,4480.21208549,0.0
0.974083285047,0.864442571185,9.4803586813e-06,-94579956.4497,1.5008291856e-05,0.0,6020438.61619,683.845506906,642.678002003,67440386.7688,1618.59727155,69542321.1725,69776945.3637,4043.41971623,4036.23896085,0.0
0.963767895649,0.977488829937,9.77978468859e-06,-94150560.1825,1.38885210094e-05,0.0,6065714.12706,684.611794811,642.019284373,67574250.414,1615.85969459,69164282.6264,69392220.451,4000.60053484,3994.10443963,0.0
1.08435619786,1.01733944125,9.91737056379e-06,-28304587.8541,1.55576509573e-05,0.0,5773881.88824,680.856485476,649.819104012,66868605.6743,1739.89770319,35806114.6925,69348179.0805,4501.16257732,4492.61211213,0.0
1.22200514795,0.704578142122,1.02914575734e-05,13862900.4257,3.30541329222e-05,0.0,15100263.6414,689.2928948,658.486511772,64928362.3557,1908.05056831,59027714.1064,66346494.3504,5072.54336914,5060.63456355,0.0
1.13456028719,0.938396249563,9.97064789227e-06,-10588254.1967,2.09167732282e-05,0.0,5619909.5127,683.751880226,652.990752972,66449108.8286,1804.88168399,44358926.0059,67847898.3566,4709.55975213,4700.32955316,0.0
1.05927109753,0.973065728439,1.03276053141e-05,-38332177.5501,1.48038770267e-05,0.0,5814923.16427,679.028767871,648.093772184,66963148.8994,1706.75425415,34676394.5457,69838935.9083,4397.03432585,4388.7775811,0.0
1.18788905551,1.02228776152,1.02572134544e-05,5664451.42529,2.24943634187e-05,0.0,7135796.92674,686.897016533,656.333956503,65488057.9337,1866.72111854,52831395.3272,66673548.149,4930.92746942,4919.44735004,0.0
1.12092442998,1.14162909195,9.9975307955e-06,-14460940.0978,1.65649947722e-05,0.0,5615370.90106,682.828408029,652.045135668,66400913.8037,1784.44401688,41581954.4532,68313821.8792,4652.95730885,4642.8414852,0.0
0.974997269098,0.927215437389,1.02644880451e-05,-94644402.2904,1.42750373501e-05,0.0,6019428.61684,681.305451678,642.740362861,67458056.3172,1611.36878132,69599256.1405,69833568.1271,4047.21366403,4040.64956359,0.0
1.24621671891,1.05255501098,9.94891624799e-06,18685058.7981,2.66389598143e-05,0.0,20349620.4725,690.677463687,659.9719663,64807138.6254,1935.15790859,63040014.7208,65664902.3767,5173.0456002,5160.57182362,0.0
1.118694246,0.849222675534,1.01287795602e-05,-14490078.3806,2.03285900967e-05,0.0,5616087.41546,682.7156096,651.908269874,66404749.7254,1782.73563805,41512513.6261,68735028.3221,4643.69981515,4634.01449384,0.0
1.08794698131,0.799785708609,9.9929505661e-06,-26765164.7428,1.85168048278e-05,0.0,5745324.37381,681.084898857,650.031894858,66787692.7951,1744.77375345,36053395.0542,69260449.6673,4516.06791942,4507.46145497,0.0
1.2118413408,1.03453205926,1.01722593917e-05,11296291.5184,2.40627887907e-05,0.0,12564392.9034,688.369679592,657.805741012,65257012.9324,1895.45590569,57002067.5902,66258563.3161,5030.35340566,5018.51931815,0.0
1.13945574148,0.936581384507,9.90858279575e-06,-8855271.13221,2.10479007751e-05,0.0,5577795.20366,684.10574702,653.277892846,66314511.3785,1809.92776744,45271367.1992,68146476.9305,4729.88078288,4720.12923007,0.0
1.14006618394,0.792658952196,9.8713480556e-06,-8833335.11822,2.34039138904e-05,0.0,5571716.32519,684.233855809,653.317608133,66302183.519,1811.19721234,45346961.6282,68131550.0615,4732.41472953,4722.75807053,0.0
1.12854112245,0.920513296674,9.84259974723e-06,-10818960.3483,1.88511641622e-05,0.0,5581223.64116,683.486648996,652.560960181,66279710.9842,1794.05087575,43751857.3342,67491191.6977,4684.57419929,4674.29474264,0.0
1.11232714642,0.928143902682,9.83354018641e-06,-17116865.6092,1.84273056171e-05,0.0,5685497.76163,682.500992704,651.562895305,66622835.1565,1775.72056961,40263895.5853,69148388.5812,4617.26998479,4608.08828148,0.0
1.14729417765,0.923363472802,9.84086312634e-06,-8285200.94013,2.23014372729e-05,0.0,5588030.43983,684.575717264,653.745630899,66353360.3875,1821.76499209,45408889.5561,68460183.1712,4762.41813143,4753.0606574,0.0
1.21660867507,0.869071788911,9.95876305439e-06,12262142.1507,2.73566970234e-05,0.0,13506133.359,688.930659287,658.136252748,65185241.1122,1901.87320872,57777827.6889,66263375.3575,5050.14261022,5038.3470497,0.0
0.938505177063,0.643993031578,1.01674616303e-05,-92967903.6243,1.5969719955e-05,0.0,6095218.21416,687.068478988,640.390397642,67632580.3606,1605.51104878,68123173.1884,68337016.4866,3895.73498999,3889.65622531,0.0
1.16564617979,1.15614364994,1.01506095793e-05,185297.788514,1.86043024791e-05,0.0,5448121.0861,685.482983799,654.958593597,65886036.0474,1839.80431037,49972838.2809,67634934.1006,4838.59729231,4827.65050113,0.0
1.27567000644,0.823257781583,9.60675475352e-06,23848142.1371,3.37562700386e-05,0.0,25639766.9805,692.947740904,661.844515531,64273214.8561,1969.25466845,66785725.153,67745454.2944,5295.30619673,5282.21466428,0.0
1.10015441706,0.913599574211,1.01553774602e-05,-22337747.1746,1.82256867363e-05,0.0,5711236.51718,681.656133667,650.832953601,66690167.8238,1760.60096818,37392309.0426,68434900.3907,4566.74098522,4557.9430257,0.0
1.0411346939,0.687379051972,9.91715666444e-06,-51370343.5857,1.68601620089e-05,0.0,5816170.65444,678.663655494,646.932205318,66945707.3228,1680.88117959,38162350.3023,70818398.3072,4321.75011438,4313.02244186,0.0
1.00386655491,1.12368460766,9.36477655571e-06,-96029017.9736,1.22659430361e-05,0.0,5946284.21875,679.161189708,644.58146893,67242877.1886,1630.24397672,70818449.2693,71107832.1052,4167.05006943,4158.89458115,0.0
1.07561461282,1.03217878532,1.00504995017e-05,-30994945.8756,1.48662845942e-05,0.0,5785840.37049,680.037427578,649.092763005,66896042.7342,1727.73574032,35314598.9974,69437571.923,4464.87625782,4456.27104177,0.0
1.22948577466,0.899835442839,9.94809146426e-06,15093044.5942,2.8125771292e-05,0.0,16486141.4414,689.57119446,658.893006306,65160791.2595,1917.85175573,60180077.4999,66735912.9884,5103.59545061,5091.99560062,0.0
0.985475365051,0.737742127787,1.00362929877e-05,-94988400.8069,1.56564212673e-05,0.0,5981251.52515,680.586956552,643.410372731,67351114.6506,1615.66302616,69902052.4452,70142146.5254,4090.70824033,4083.65870982,0.0
1.09488505269,0.795305697335,9.65693674795e-06,-25015884.9762,1.87330896167e-05,0.0,5736234.73743,681.673741591,650.426658982,66770128.234,1753.67344271,36567317.6531,69247886.2529,4544.86785372,4536.05435799,0.0
1.05373927836,0.831791826317,1.00859735179e-05,-42057148.7312,1.6064413173e-05,0.0,5792780.76204,679.101403727,647.796769882,66890403.4583,1697.57047921,35136352.5646,70012625.2039,4374.07174447,4365.28192489,0.0
1.18541148441,0.831198008493,9.92609962251e-06,4529112.94272,2.55116583861e-05,0.0,6186543.68189,687.021700608,656.160147939,65620939.8163,1865.3435583,52406546.3627,66924241.7769,4920.64307179,4909.53837505,0.0
1.08656487031,1.02325308286,9.92219575118e-06,-27521494.7957,1.56443694693e-05,0.0,5768121.10612,680.967161724,649.950772493,66853925.7114,1742.78148873,35952227.9076,69354697.3816,4510.33077666,4501.74588434,0.0
1.07847609306,1.08483783554,1.01165130494e-05,-30897613.8192,1.47243408024e-05,0.0,5792268.89069,680.33525268,649.425199575,66929828.2319,1732.73998567,35191302.5575,69293116.4587,4476.75426229,4468.48681237,0.0
1.05339174537,0.90794607924,9.75015264804e-06,-43691880.4532,1.48735428546e-05,0.0,5819029.62047,679.227692446,647.71725281,66965349.1776,1697.29234572,35535264.4135,70612569.769,4372.62913503,4363.84465734,0.0
1.07285303689,1.14267525923,1.00808455455e-05,-33401216.7593,1.3777880852e-05,0.0,5815107.95303,679.836206464,648.928752492,66989063.5132,1725.37195648,34861270.9088,69782066.795,4453.41295613,4445.23257702,0.0
1.0865657953,0.920486333997,1.02030014856e-05,-26623517.2589,1.70257550183e-05,0.0,5748891.69838,680.80252065,649.941540343,66799711.6782,1742.85615065,36053763.2708,69204024.4217,4510.33461629,4501.74970954,0.0
1.07221860608,1.03915944831,9.52554515974e-06,-34580628.4599,1.43077389009e-05,0.0,5823671.24528,680.406432019,649.019785845,67004461.6676,1723.97069238,34785871.6621,70205456.2885,4450.77943384,4442.41714584,0.0
1.13772753488,1.2000451696,9.79758077691e-06,-10196982.2365,1.7254576061e-05,0.0,5644800.66504,683.925066985,653.195591448,66529660.4417,1809.03948115,44639008.5502,68067885.5803,4722.70699729,4713.50502719,0.0
1.10032695494,1.00403551035,9.63432647527e-06,-22095016.2105,1.64933742042e-05,0.0,5669527.91864,682.009628922,650.811414455,66541459.0931,1757.42335558,37897605.2472,68764617.5019,4567.45718996,4557.41551741,0.0
1.12808924024,1.01013280894,1.02135817172e-05,-12214605.4764,1.91279542628e-05,0.0,5593858.46575,683.110439746,652.46146979,66336014.7472,1794.80302958,42931752.1838,67281531.1248,4682.69843624,4672.85522151,0.0
1.28337414179,1.20522864688,9.94831628569e-06,25421672.2316,2.67317750535e-05,0.0,27102045.1261,692.779185068,662.253518996,64372867.2472,1976.70589446,67716958.6066,68621789.9546,5327.28606257,5314.36127825,0.0
1.11285947764,0.711169883764,1.0156103674e-05,-16253131.3195,2.19533531231e-05,0.0,5624915.91013,682.423486573,651.550435598,66429219.3124,1775.54035433,40473157.3828,69203254.1149,4619.47969168,4609.99067143,0.0
0.972032235759,0.875484506023,1.03307317881e-05,-94317120.6291,1.46949982926e-05,0.0,6019524.3638,682.137900916,642.547883112,67464107.1174,1613.64297122,69311127.8981,69542651.7458,4034.90581064,4028.37641153,0.0
1.21712553535,1.00976488108,1.0157125854e-05,12571104.7288,2.50403417381e-05,0.0,13829175.5573,688.773178191,658.165864148,65136651.1053,1901.24053518,58001789.4285,66377373.8501,5052.28809724,5040.24884671,0.0
1.24517606638,0.952328633511,1.03173644557e-05,18830415.9915,2.96202884293e-05,0.0,20570497.1595,690.521573147,659.89468553,64672568.7711,1933.27584794,63078344.9122,65059165.1478,5168.72585154,5156.17949059,0.0
1.04535163125,0.89088687594,1.02195035585e-05,-47714886.6328,1.51650895289e-05,0.0,5811344.43356,678.533614434,647.205376844,66938126.9061,1686.63682589,36641673.3123,70389115.5506,4339.25462132,4330.54573521,0.0
1.27681029956,0.939793356603,9.80989649826e-06,24068594.1407,3.13407847138e-05,0.0,25824524.4594,692.79080713,661.892257466,64246774.6411,1969.44676487,66900897.3013,67838988.0493,5300.03955347,5286.81502042,0.0
1.04391822276,0.775896395591,1.0126742038e-05,-49038307.9359,1.62526593346e-05,0.0,5813262.78875,678.591168301,647.119757901,66943563.7017,1685.00283763,37098202.7653,70984041.435,4333.30454268,4324.70740403,0.0
1.18685916339,1.02825369503,1.02360508506e-05,5602341.17739,2.22388256208e-05,0.0,7129699.4399,686.81649487,656.254529576,65515928.8613,1865.36959012,52855784.8319,66743530.0051,4926.65238723,4915.19363765,0.0
1.08672984084,0.999869525724,9.98723870696e-06,-27246054.2047,1.60058265938e-05,0.0,5762998.76569,680.937393328,649.958996403,66839950.7027,1743.01643554,35964882.8136,69319143.1408,4511.01556933,4502.4281033,0.0
1.11283331309,1.01283496267,1.01236734051e-05,-16465110.0807,1.76518163442e-05,0.0,5655317.03877,682.282350856,651.554604961,66521823.97,1775.23115607,40511868.3741,69279726.3451,4619.37108264,4609.88255701,0.0
1.01152458241,0.896614911543,9.4488406006e-06,-86668335.5131,1.43083175826e-05,0.0,5964729.08131,678.405804467,645.08401526,67324544.6243,1643.27169859,62723287.7266,71110924.658,4198.83854158,4191.59109602,0.0
1.08782333518,0.873314662001,9.87165303723e-06,-27197902.0425,1.74423332329e-05,0.0,5756137.87365,681.13819855,650.029739661,66818289.8391,1744.55176456,36006446.7374,69329716.7952,4515.55466433,4506.95013067,0.0
1.10297506548,1.13150101653,9.75174159904e-06,-20754935.205,1.51456398037e-05,0.0,5668596.29251,682.032499826,650.99296681,66544625.5839,1760.81501073,38474806.2859,68534719.6179,4578.44949681,4568.36124257,0.0
0.980046034367,0.781803591629,1.0152504026e-05,-94748482.578,1.51179694979e-05,0.0,5992574.5795,681.031128197,643.060880867,67378076.3852,1613.32398476,69690719.1801,69927870.0298,4068.17108866,4061.20075806,0.0
1.08612852946,1.09770860997,1.00637615187e-05,-27266306.4464,1.47991483886e-05,0.0,5768550.91604,680.803000019,649.917725137,66856545.9942,1742.13892019,35969263.7546,69313713.4845,4508.51952579,4499.94143932,0.0
1.10545585893,0.890725918691,1.00271911781e-05,-20849740.693,1.88159219331e-05,0.0,5701780.40359,682.060509183,651.163414825,66668063.1919,1767.68922439,38046838.7334,68694185.1685,4588.74727042,4579.86549944,0.0
0.992926155401,1.08322204417,1.01484480477e-05,-95271193.9589,1.2935033956e-05,0.0,5926731.13959,678.975990301,643.872798672,67188804.2255,1615.57867007,70151150.5444,70395674.4911,4121.63647107,4113.5230386,0.0
1.16332064679,0.86059776873,9.94656017899e-06,-929104.32912,2.31395054353e-05,0.0,5431395.6883,685.685357989,654.818346848,65845308.8618,1837.5890557,49484714.9696,67743337.9239,4828.94400483,4818.01148627,0.0
1.0387560179,0.769748323729,9.61867849481e-06,-54458955.9843,1.61557840393e-05,0.0,5826984.60711,678.767554025,646.77782667,66970174.7752,1676.83772235,39681778.6647,71336438.206,4311.8762303,4303.01466722,0.0
1.0031868237,0.799176646669,9.9003949105e-06,-95944057.729,1.4997772308e-05,0.0,5934174.91962,678.396835627,644.536882364,67220554.9223,1631.02565428,70749351.6101,70844218.5136,4164.22850518,4156.58222542,0.0
1.07301386904,1.16957455289,9.95299346508e-06,-33301935.5605,1.32348908333e-05,0.0,5804574.63252,679.942026387,648.943543531,66946250.6431,1724.38852899,34960074.6548,69743697.8855,4454.08057039,4445.51600728,0.0
1.09564204919,1.00115342635,9.89970982267e-06,-24532208.6698,1.66342740193e-05,0.0,5741860.21871,681.468480465,650.490194769,66785869.1641,1754.65795226,36692779.337,69135518.6785,4548.01014619,4539.28317168,0.0
1.0794692784,1.04126077101,9.96308845027e-06,-29897135.8496,1.4959028096e-05,0.0,5786610.92089,680.510464647,649.483907036,66900338.5731,1733.47234078,35518316.4882,69351456.8469,4480.87697464,4472.40248137,0.0
1.00260955782,1.02035314167,1.00862154155e-05,-94498592.7985,1.34193713235e-05,0.0,5899070.26879,678.074528139,644.488482995,67116266.4595,1628.36813368,69480699.5977,70696627.3968,4161.83227451,4153.48139726,0.0
1.0925341847,0.98589430209,9.89556939534e-06,-25553886.0255,1.65584213535e-05,0.0,5749759.85547,681.288277534,650.282563464,66806402.0372,1750.61950411,36393210.6366,69268031.6418,4535.10940069,4526.43117997,0.0
1.23735080909,0.806018176619,9.92119450033e-06,16971102.5005,3.08984038886e-05,0.0,18506827.8396,690.262581794,659.407885968,64883655.1651,1925.89099873,61610829.0863,66821858.2183,5136.24320853,5124.12062669,0.0
1.02038221152,0.899458512755,1.04569357011e-05,-68110265.7877,1.44967722009e-05,0.0,5856921.99624,677.408252891,645.618801986,67042822.5061,1653.42724075,48070652.6062,70633253.2059,4235.60656002,4227.38544632,0.0
1.07411208787,0.984082384659,9.91044706171e-06,-32422244.0585,1.52677734476e-05,0.0,5802796.56768,680.071622224,648.999421007,66950815.5981,1726.48089043,35028145.7427,69760304.0903,4458.63927675,4450.24774614,0.0
1.08491726476,1.06102597381,1.02033228731e-05,-27208441.8456,1.52366938821e-05,0.0,5763326.72,680.652333426,649.840462839,66841402.1684,1740.57947697,35900500.9148,69255509.1823,4503.49156602,4494.93236071,0.0
1.08980037903,1.09057260509,1.02184730413e-05,-25231766.6372,1.53201672699e-05,0.0,5750449.93653,680.851505304,650.105110448,66802010.7445,1746.7745552,36379337.8893,69155837.4243,4523.76137335,4515.12160791,0.0
1.22726086087,0.999899686268,1.02112283798e-05,14795461.1392,2.63711069581e-05,0.0,16232263.379,689.334104167,658.835568057,65164690.7651,1914.75918976,59964892.9073,66535639.0062,5094.35983347,5082.82855641,0.0
1.06246727773,0.922405431908,9.96606506343e-06,-37906533.7335,1.52312279865e-05,0.0,5815122.9885,679.491448311,648.30083641,66968807.6151,1710.72968053,34667766.9205,70023171.4826,4410.30166986,4401.90085583,0.0
1.25134417659,0.722705290305,1.0168214429e-05,20374671.4881,3.61217585358e-05,0.0,22229125.7789,691.132958256,660.293893161,64653271.1358,1942.36168432,64377858.5792,65255808.328,5194.32967703,5182.25022503,0.0
1.11719261859,1.08065926508,9.68213646856e-06,-17996260.815,1.69283184139e-05,0.0,5691664.9104,682.848240177,651.861640767,66658078.3801,1782.47239977,39877732.271,69270637.5289,4637.46655977,4628.29605249,0.0
1.14216429503,0.816777616072,1.02171478269e-05,-8319860.3374,2.35352457673e-05,0.0,5511960.63429,684.160295523,653.387899235,66098460.2344,1812.6176691,45172787.4747,68240676.7277,4741.12398867,4730.91306894,0.0
1.09804882301,0.794247536282,1.0410494927e-05,-20361102.0502,1.96507718273e-05,0.0,5632461.25907,681.456607585,650.673971055,66417940.4886,1754.84483472,38389296.5687,68313523.6338,4558.00066431,4548.18605097,0.0
1.02641410609,0.928181067512,9.64102896285e-06,-67355818.3036,1.41798588979e-05,0.0,5930622.23851,678.232443844,646.027432127,67276793.2724,1663.86521199,47592909.9619,71107531.3656,4260.64495438,4253.3615565,0.0
1.16010649793,0.910839624746,1.00247600744e-05,-2585409.32063,2.38776875607e-05,0.0,5523474.17854,685.367525804,654.651141954,66155630.0949,1837.0582808,48549060.3878,68335914.127,4815.60207291,4805.92512933,0.0
1.17765321911,0.759191501183,1.00591518109e-05,1944425.22769,2.85570551515e-05,0.0,5411827.62027,686.556669714,655.711295526,65797505.1533,1858.1843156,50899659.9111,66875762.1193,4888.43851253,4878.13531481,0.0
1.00123006867,0.8136243275,1.00919823458e-05,-95850721.2961,1.51312145334e-05,0.0,5890300.14193,678.261167978,644.400920555,67087253.1821,1626.65870001,70660827.569,70660827.569,4156.10601505,4147.78015031,0.0
1.0087650517,0.887766282101,1.03033488662e-05,-84156066.6087,1.47924074925e-05,0.0,5869130.64512,677.586956065,644.880004569,67038619.9715,1636.88065516,60606496.4466,70608493.5462,4187.38372961,4179.01468727,0.0
1.11232422922,0.772778171664,1.00212064851e-05,-16783728.3034,2.08488682796e-05,0.0,5661097.47806,682.452909173,651.55095974,66536876.4497,1775.77068224,40410915.2171,69130256.7819,4617.25787549,4608.07540266,0.0
1.20646759003,1.21807168642,9.55760069025e-06,9744216.17547,1.98416648141e-05,0.0,11139968.7091,688.225962467,657.512683519,65663862.5593,1890.82529646,56048966.0917,67181613.8218,5008.04696621,4996.88572589,0.0
1.23385190183,1.00562040743,1.02798978835e-05,16266314.9377,2.69133425855e-05,0.0,17860170.0122,689.690322142,659.204720214,65009265.6764,1921.6801249,61121624.891,66792753.66,5121.7192445,5109.84003366,0.0
1.0457920032,1.11099560473,1.01084421918e-05,-48242121.1241,1.31135280505e-05,0.0,5830596.50967,678.55952368,647.238764867,66999534.5382,1687.25013609,36880526.7213,70753736.9093,4341.08260528,4332.4537665,0.0
1.1076745728,1.17798088915,9.9638964307e-06,-18232903.8634,1.50718631499e-05,0.0,5664616.24092,682.091231539,651.265807832,66542109.8297,1767.33890598,39558317.15,68934489.303,4597.95715169,4588.07056106,0.0
1.09621322916,1.06421859431,9.80012224738e-06,-24417318.1746,1.56529535842e-05,0.0,5752176.22335,681.535657672,650.523831088,66816149.2994,1755.50241205,36764580.4824,69241722.6273,4550.38111424,4541.64505665,0.0
0.937928476801,0.884251745446,1.02328245978e-05,-92972102.6771,1.37805595455e-05,0.0,6106333.66513,686.826265062,640.352691764,67665500.8306,1604.29389287,68126823.6559,68340537.6003,3893.3411072,3887.26997136,0.0
1.01515773204,1.03597545223,1.02938831058e-05,-76426960.3883,1.31684589374e-05,0.0,5934473.56199,677.366291846,645.31263668,67266079.0826,1648.69819198,54332373.6805,70915241.8162,4213.9197457,4206.79676592,0.0
1.2663216437,1.05547063103,9.96783122584e-06,22547336.6211,2.89018514034e-05,0.0,24478412.9505,691.979307121,661.251496777,64504851.4396,1958.00136891,65921742.0354,66855987.9263,5256.501143,5243.67935261,0.0
1.11385545533,0.925560344655,1.01984265794e-05,-15952949.7468,1.89284063801e-05,0.0,5633641.12312,682.321813937,651.598424612,66453896.2592,1776.25220639,40746706.4635,69348978.2993,4623.61399507,4614.00997726,0.0
1.05795908726,1.20600610827,9.74521727018e-06,-42022014.2104,1.23151908954e-05,0.0,5833207.08368,679.328833438,647.989621189,67015212.4681,1703.63746195,35215970.0554,70237153.172,4391.58817122,4382.91013231,0.0
0.950649254328,0.958360124535,9.73751629087e-06,-93469760.321,1.42639078289e-05,0.0,6062920.91884,686.942152012,641.16538831,67540484.6527,1613.71124252,68565025.4419,68783185.8206,3946.14505472,3939.30710051,0.0
1.11564082625,0.838167283849,1.02810335975e-05,-15494500.7536,2.03432188565e-05,0.0,5624674.74441,682.429653529,651.709928068,66417898.6966,1779.29586625,40910544.6379,69102341.3876,4631.02506976,4621.48951379,0.0
1.18246284023,0.934098726827,1.04576774557e-05,4954826.41111,2.41005085306e-05,0.0,6508106.69421,686.48758168,655.963492949,65456841.6156,1859.73804746,52357716.2691,66721516.288,4908.40324979,4896.92014023,0.0
1.14387311662,1.10214228392,9.74110035764e-06,-7880426.31012,1.84935868285e-05,0.0,5569794.05747,684.242145888,653.430815581,66292441.1973,1814.60563909,45912012.5241,68476182.1648,4748.21730709,4738.08453959,0.0
1.08810588531,0.968206791244,1.01272514835e-05,-26319453.969,1.65582455688e-05,0.0,5751106.19242,680.913168975,650.029642996,66806724.8027,1744.83351116,36135481.1257,69233780.2648,4516.72752992,4508.11858387,0.0
1.06516042611,1.13815277441,9.7293132669e-06,-37670169.0117,1.30508159276e-05,0.0,5831117.16539,679.73009687,648.476968048,67019143.2157,1714.10519933,34723119.5103,70204673.8292,4421.48092878,4413.03804749,0.0
1.24233601382,0.957728981395,9.71774458013e-06,17797841.897,2.76170938451e-05,0.0,19262003.9907,690.621470199,659.754992479,64900720.538,1931.49220943,62293309.2362,67033752.1974,5156.93679337,5144.6593314,0.0
1.01907274278,0.976862247912,9.9112174497e-06,-73858753.4623,1.36245667837e-05,0.0,5940864.83292,677.813509492,645.561588483,67294968.4021,1654.10774317,52352117.9036,71276408.3657,4230.17095528,4222.99217263,0.0
1.0100018163,0.837925972682,9.52788349158e-06,-90814171.7931,1.51296480429e-05,0.0,5887659.79681,678.636253935,644.96222122,67084534.5692,1637.97406207,66269618.9419,70856484.2635,4192.51753946,4183.96408004,0.0
1.17354356546,1.16416648029,1.0181334016e-05,2200444.88129,1.90594562125e-05,0.0,5430526.9881,685.919515641,655.441089237,65834574.658,1849.9883454,51035904.0604,67089239.4225,4871.37934022,4860.47426816,0.0
1.01863663964,1.02283459949,9.83098491693e-06,-75128401.3198,1.32114268273e-05,0.0,5947306.69614,677.888332053,645.528744589,67310462.4476,1653.48238488,53327946.4893,70915083.4116,4228.36069115,4221.1881027,0.0
1.06289273974,0.926466297746,1.01593125827e-05,-36944451.0121,1.52971936867e-05,0.0,5806796.01583,679.36609698,648.328312177,66937121.1389,1711.30648442,34637415.0942,70047597.7472,4412.06776266,4403.66030859,0.0
1.12158301006,0.975384995391,9.95117954069e-06,-14424390.047,1.89422340962e-05,0.0,5653819.4256,682.829427236,652.031793336,66529393.7103,1787.55374145,41660286.6984,68851689.1275,4655.69107476,4646.35935542,0.0
1.13919021382,0.999904497775,1.00558867863e-05,-9710023.32566,2.01649360635e-05,0.0,5550063.24375,684.017856824,653.248558213,66206316.9111,1808.69669512,44569690.0374,68014204.6816,4728.77857757,4718.61891103,0.0
1.20484838026,0.898266837102,9.6811110723e-06,9704562.28187,2.55183995577e-05,0.0,11097910.5929,688.275792838,657.413800799,65531788.7404,1889.14425138,55935581.2677,66996809.7986,5001.32562646,4990.17909547,0.0
1.11052664789,1.11422030606,9.40385178593e-06,-20793804.6358,1.59548413906e-05,0.0,5738404.45573,682.681706768,651.496586163,66795117.4144,1774.62335285,38254897.889,68949420.4918,4609.79611539,4600.934159,0.0
1.04310483978,1.08577355099,9.76603261804e-06,-51450215.0905,1.28922671116e-05,0.0,5889003.76543,678.60997608,647.067932426,67174396.5623,1685.63147804,38222569.833,71085820.5005,4329.92818993,4322.22099235,0.0
1.15257422583,0.881188331644,9.98894671288e-06,-6498251.42267,2.37372270565e-05,0.0,5557992.01039,684.900658051,654.143108649,66271062.0223,1828.41367571,46381564.0694,68670861.2117,4784.33561142,4774.89341931,0.0
1.13652415821,0.772100748082,1.01990440656e-05,-10579800.5047,2.43156472567e-05,0.0,5594065.24065,683.828889736,653.117556932,66365029.2255,1808.06554698,43956671.066,67851251.5868,4717.71178073,4708.55265301,0.0
1.04678893699,0.988370168129,1.03974697258e-05,-46192945.8106,1.43610615813e-05,0.0,5806845.76994,678.410642555,647.289313645,66930078.5059,1688.50161938,36108878.4069,70220395.9225,4345.22087745,4336.48852573,0.0
1.24116971805,1.03679102723,9.77296233107e-06,17409865.0775,2.60674621083e-05,0.0,18957899.2506,690.410532219,659.61633559,64857564.1296,1929.15514263,61994064.7979,66935563.9296,5152.09549963,5139.50088782,0.0
0.968638546271,0.975169553978,1.05476409176e-05,-93949028.1314,1.35053944497e-05,0.0,5961442.32986,682.140910423,642.310011961,67267297.4154,1607.98452211,68987187.5096,69216596.445,4020.81860557,4013.08933551,0.0
1.06781782404,1.14644182517,9.62841185474e-06,-36195977.2731,1.30239727623e-05,0.0,5839693.90433,679.930257634,648.652807066,67047148.5507,1718.11051927,34716950.0681,70418940.6088,4432.51178759,4424.21730217,0.0
1.04932659562,0.85943658,9.86033818012e-06,-46121096.736,1.54473082496e-05,0.0,5817336.83482,678.969376316,647.454013771,66954409.2103,1691.80252161,36172254.6373,70526540.0681,4355.75469842,4347.03815669,0.0
1.15707905432,0.951768226245,1.03662213701e-05,-2576369.50057,2.12606454613e-05,0.0,5455938.21574,684.989666836,654.431453861,65892017.2215,1830.11097193,48181734.924,67710935.0543,4803.03515448,4792.33489268,0.0
1.12043182473,0.967846118366,1.04636032755e-05,-13917714.7713,1.92582118217e-05,0.0,5607714.99943,682.566696431,652.032256025,66377220.0833,1785.19879844,41825746.1657,67996886.1068,4650.91250445,4641.29806505,0.0
1.06286018268,0.931294721418,9.83133768335e-06,-38277375.3301,1.50990349528e-05,0.0,5819921.87073,679.611920581,648.327695795,66982488.5255,1711.21819085,34719466.3751,70044028.18,4411.9326183,4403.52567242,0.0
1.11542518886,0.880037287347,9.87169619895e-06,-16258368.3976,1.94949446499e-05,0.0,5667840.20011,682.655030323,651.727452176,66574973.9571,1779.70164854,40683885.6986,69333025.7623,4630.12995896,4620.89729678,0.0
1.10235651623,0.99214743929,9.53474658325e-06,-21087842.9385,1.64659169106e-05,0.0,5710031.09961,682.155337278,650.965443776,66681551.0977,1761.76983754,38387925.8167,68560472.9553,4575.88189887,4566.46909271,0.0
1.13456865016,1.09723721986,1.04445127374e-05,-10644406.2672,1.91250317207e-05,0.0,5616752.79604,683.386094283,652.990330526,66437168.3354,1805.1422657,43831154.6453,67869865.1894,4709.59446681,4700.4663272,0.0
1.13822577653,0.976499110787,1.00221550155e-05,-8787160.33339,2.03663215882e-05,0.0,5552223.16395,683.9687573,653.190157461,66229126.5621,1807.14979171,45269904.613,68087166.8619,4724.77519838,4714.63602362,0.0
0.990663025318,0.702626213555,9.63799572243e-06,-95276683.2353,1.63908817852e-05,0.0,5981449.84677,680.953229542,643.746266915,67352431.5562,1620.720765,70155732.5754,70399256.3753,4112.24221809,4105.11769384,0.0
1.07062013802,1.04905961062,9.71237520482e-06,-34623566.0314,1.42075826791e-05,0.0,5823775.63082,680.058992368,648.833739341,67005622.4442,1721.87139728,34760836.7442,70157379.0788,4444.14419292,4435.8065587,0.0
1.11148360514,0.861943157934,9.83192200692e-06,-17354566.065,1.9172112467e-05,0.0,5682978.38163,682.49081173,651.513499642,66613501.0689,1774.68971143,40111911.4025,69080958.073,4613.76844494,4604.60037446,0.0
0.972196177456,0.873768403651,9.83815438624e-06,-94641838.5426,1.46200434644e-05,0.0,6040090.1918,682.733053889,642.562418023,67503928.3608,1613.787302,69596674.9556,69830938.4064,4035.58633262,4028.98053784,0.0
1.13289739813,1.03045997927,9.99118886166e-06,-10844703.4333,1.93828253557e-05,0.0,5632089.19163,683.589029911,652.884475904,66483786.6134,1802.65296615,44014659.7803,67767609.2296,4702.65709964,4693.4534596,0.0
0.977300769396,0.927517645075,1.0205758803e-05,-94749093.1119,1.43625962394e-05,0.0,6016006.00544,681.160048853,642.888881693,67450793.3827,1612.5634796,69691487.0863,69927023.0389,4056.77549376,4050.18248244,0.0
1.11735931943,0.936131994957,9.50528504831e-06,-16167658.3459,1.84570642726e-05,0.0,5652962.35352,683.031997762,651.850179539,66512532.6422,1780.98315499,40725209.4582,69426093.0457,4638.15853495,4628.39698496,0.0
1.08120229414,0.936823131737,9.7993722078e-06,-29816189.5651,1.61696881715e-05,0.0,5781680.75957,680.771238131,649.596566096,66896825.6032,1735.81970359,35588547.7475,69372874.1177,4488.07072298,4479.56932012,0.0
1.18435837651,0.966136539197,9.85328809492e-06,3986843.96732,2.28044123633e-05,0.0,5762743.01436,686.937186985,656.086419101,65613824.2167,1862.8352571,52121280.1687,66921640.9964,4916.27162089,4904.76250896,0.0
1.0705755331,1.06520772068,1.05858014821e-05,-32382351.7775,1.46930263864e-05,0.0,5791873.18588,679.522774449,648.890621781,66909237.0721,1722.37181452,34819016.0531,69375778.4552,4443.9590379,4435.81163015,0.0
1.19395463229,0.899241999439,1.00804987263e-05,7166930.05333,2.49606676268e-05,0.0,8622271.01546,687.462770647,656.755147192,65489695.8692,1875.02283653,53930366.5673,66550015.398,4956.10567864,4944.82497659,0.0
1.1372860961,0.918752734738,1.04411267133e-05,-9873995.22766,2.21740645414e-05,0.0,5592792.36959,683.613265599,653.136044886,66368208.9103,1808.79223171,44244155.0793,67963420.842,4720.87458491,4711.70337148,0.0
1.12892104231,0.860022292936,1.0117044038e-05,-12180377.3893,2.12496437666e-05,0.0,5579530.5227,683.41333577,652.595301018,66291748.3818,1796.05866632,42997454.0721,67263030.7707,4686.15124663,4676.29396007,0.0
1.16484405034,0.927858023358,9.78917125132e-06,-850886.354936,2.18997674244e-05,0.0,5442180.41853,685.827764298,654.916512909,65875781.4141,1839.49631136,49546813.2514,67790160.0922,4835.26765296,4824.30784297,0.0
1.04589422717,0.84905391692,9.8372785569e-06,-46769878.1777,1.51948779314e-05,0.0,5844407.47292,678.802908696,647.252296551,67025774.6805,1688.06932643,36430378.4108,70890919.2933,4341.50693698,4333.18410407,0.0
1.23437462507,0.913561915405,9.8984502991e-06,16491083.0823,2.82261204996e-05,0.0,17929326.1316,689.989944141,659.283071263,65099047.1084,1923.22521683,61322751.5901,66838770.7992,5123.88906867,5112.22295195,0.0
0.993031765282,0.771734802676,9.56232644248e-06,-95388407.0584,1.55121963024e-05,0.0,5925608.2946,680.282763158,643.883905407,67173796.1799,1616.07164743,70254344.6914,70493424.2632,4122.07485769,4113.80227746,0.0
1.11496288813,0.851900177468,1.0274444862e-05,-15738637.8879,2.00663031704e-05,0.0,5628633.48596,682.384003819,651.667374268,66428658.6382,1778.41155335,40853123.755,69198041.8848,4628.21094863,4618.6866637,0.0
1.12163798279,1.04791477033,1.0133948826e-05,-13861586.8397,1.79198984652e-05,0.0,5620093.02612,682.810362076,652.109491082,66421934.8782,1786.32566529,42060164.4934,68255586.9613,4655.91926656,4646.1844227,0.0
1.11083516601,0.942356464099,9.46046985482e-06,-18886505.1279,1.7927774328e-05,0.0,5638887.51677,682.776132892,651.469952933,66461016.4432,1771.28015082,39414923.6053,68894507.7323,4611.07677411,4600.84948913,0.0
1.08470119887,0.859506742228,9.67470721264e-06,-28515361.0407,1.70648146053e-05,0.0,5769838.62006,681.106224238,649.834901929,66857901.2685,1740.25655392,35805577.8156,69397684.1535,4502.59467651,4493.94190247,0.0
1.1297896823,1.15311869186,9.67132912361e-06,-12510509.3504,1.68446724382e-05,0.0,5642533.99547,683.567701421,652.658694292,66509522.1683,1797.67762779,42832665.3026,67938926.6682,4689.75697123,4680.16346802,0.0
1.0567509718,1.00705421998,9.76024828837e-06,-43915524.7828,1.43369434718e-05,0.0,5805085.91189,679.388285534,647.915610615,66931399.2538,1701.36905318,35587635.6454,70326661.7803,4386.57328394,4377.58662765,0.0
0.996872580504,1.11615819889,9.86327089181e-06,-95725612.5084,1.25054940366e-05,0.0,5982069.41039,678.869166356,644.142848873,67357973.9516,1622.9133064,70551009.111,70834822.9812,4138.01808167,4130.81306057,0.0
0.895726081653,0.966793241347,9.5465183079e-06,-91137937.3553,1.34957151996e-05,0.0,6198109.58231,694.437868499,637.627427362,67864587.3014,1599.68735759,66512568.4673,67864587.3014,3718.15896494,3712.09435238,0.0
1.20653641817,1.11697234759,9.98997115708e-06,9952676.29705,2.20013742266e-05,0.0,11335870.6331,688.079255597,657.453024132,65325095.685,1888.69226734,55991277.1337,66990630.383,5008.33267182,4996.3799914,0.0
1.07603035962,1.02578699307,9.66908480673e-06,-32465612.0584,1.47571219513e-05,0.0,5810360.86132,680.330937188,649.121468825,66974080.9513,1728.9529552,35036170.9034,69867552.3006,4466.60202278,4458.18082392,0.0
1.06037824474,1.15215137492,9.87079464966e-06,-39336748.5814,1.278426063e-05,0.0,5837850.70549,679.363521498,648.167329253,67033498.5478,1707.76542807,34815757.9015,69917465.6238,4401.63009392,4393.26185156,0.0
1.13775793675,0.861574992854,1.01416896686e-05,-10167308.6801,2.26404242708e-05,0.0,5595322.88023,683.895742745,653.191472765,66362832.2737,1809.25723203,44240323.3935,67927270.7564,4722.83319545,4713.54890288,0.0
1.0754799679,0.83526401922,1.02165694107e-05,-31737292.595,1.74952214107e-05,0.0,5779877.52073,680.178181675,649.221525853,66888965.2956,1728.99861154,35007926.0147,69377766.456,4464.31734675,4456.09713127,0.0
1.17674042157,0.905921857866,9.94347730931e-06,2647123.55674,2.32101593254e-05,0.0,5429077.68483,686.384196658,655.647614405,65844039.9374,1855.39218677,51396219.9116,67145411.6844,4884.64948994,4874.01554418,0.0
1.07352884905,1.13230873636,1.01658337008e-05,-32771237.1009,1.39619196216e-05,0.0,5809530.7858,679.799618293,648.956923458,66975160.2593,1726.25362096,34904274.6128,69669235.6121,4456.21825241,4448.02612458,0.0
1.17956517986,0.850130950115,1.00150731652e-05,3578291.69336,2.47183173104e-05,0.0,5554860.57621,686.622341121,655.796687319,65601749.7373,1857.0899916,51795427.7193,66921578.6366,4896.3750616,4885.04274684,0.0
1.2098830417,1.06230342983,1.01700614736e-05,10875857.9393,2.33319635545e-05,0.0,12141268.1658,688.202159477,657.666593312,65281009.1704,1893.12709718,56674600.6435,66378618.0572,5022.2245061,5010.45393915,0.0
1.04510333236,1.18672618607,9.91356684388e-06,-46934619.9127,1.21168751703e-05,0.0,5862515.1166,678.580992128,647.202218032,67081351.6559,1686.81447791,36496833.4532,70955831.4953,4338.22393263,4329.91349949,0.0
1.05554515991,0.939491004832,1.00669733264e-05,-40829721.1676,1.47400293606e-05,0.0,5828723.09711,679.021564241,647.836911832,67000037.212,1701.50970729,34969019.1955,70122965.9697,4381.56795879,4373.27631473,0.0
1.18960895873,0.757000031445,1.02201914733e-05,6161966.89525,2.82251462128e-05,0.0,7610838.41976,687.267234195,656.450667584,65346008.3132,1869.3329871,53095032.1956,66499409.0151,4938.06678769,4926.55513922,0.0
1.02052562673,0.904759333928,9.93381468435e-06,-71884999.0044,1.42297184396e-05,0.0,5933055.2689,677.823949707,645.649649673,67274093.401,1656.09325659,50854904.0148,71893556.1928,4236.20187656,4229.00244137,0.0
1.10836279082,1.04062356286,9.74176994215e-06,-18756911.7577,1.64625022681e-05,0.0,5692870.3944,682.332741802,651.332043827,66634732.4885,1769.86954521,39437164.1381,68864074.9914,4600.81394469,4591.39899854,0.0
1.16901655593,0.748546503916,9.74228791121e-06,-739400.833515,2.67230026797e-05,0.0,5434063.3659,686.259005925,655.188147661,65878950.2982,1846.70127217,49465528.4971,68521885.4103,4852.58772367,4842.02289717,0.0
1.00557885985,1.01160361244,9.79793197755e-06,-91312934.9957,1.3174512379e-05,0.0,5980659.16896,678.065823842,644.70196983,67373216.1261,1635.87860333,66684564.5281,70994095.3005,4174.15784724,4167.16966607,0.0
1.05703266265,1.10143218207,9.90420143248e-06,-40801064.6718,1.31102303844e-05,0.0,5841500.35438,679.160123317,647.931772551,67038943.7181,1703.35282089,34996454.3475,70145835.6155,4387.74258266,4379.42639576,0.0
1.11155805188,1.19348649514,9.85030663294e-06,-17376317.2647,1.51127044523e-05,0.0,5658176.86505,682.376983084,651.499062049,66527944.8821,1772.36654348,40144939.1561,69133579.4763,4614.07747335,4604.12390994,0.0
1.06190659398,0.928159943436,1.00010225675e-05,-38037957.0022,1.51570004464e-05,0.0,5815503.97834,679.432683713,648.264635713,66970368.8749,1709.98293261,34679889.2422,69996184.5214,4407.97427161,4399.5822047,0.0
1.01773104174,1.09122746788,1.02706443991e-05,-73683104.1401,1.27128207619e-05,0.0,5931546.26656,677.411338492,645.471178751,67271385.4704,1652.10148088,52206757.5438,70798871.6148,4224.60155426,4217.44210142,0.0
1.10370222724,0.900147247832,1.00288966783e-05,-21369640.471,1.85332538627e-05,0.0,5707851.26708,681.95792739,651.058980947,66683847.0102,1765.38571337,37790373.6751,68617653.4079,4581.46794527,4572.61389646,0.0
1.16288202011,0.883918608821,1.01837420968e-05,-589005.375448,2.29253243688e-05,0.0,5424384.03702,685.489615945,654.785809835,65810336.7064,1836.85562806,49463627.4699,67593725.7381,4827.12326548,4816.21127856,0.0
1.01180185699,0.869596933389,9.88050838857e-06,-82825208.5855,1.4379580519e-05,0.0,5955966.79896,677.832368882,645.096804773,67309439.4365,1644.35477603,59505425.8962,70838877.5607,4199.98950837,4192.91369956,0.0
0.966578055458,1.02604446264,9.96847291242e-06,-94150167.3621,1.35616427476e-05,0.0,6007094.48686,683.613739848,642.186585227,67393140.39,1611.65660608,69164043.3639,69392902.6021,4012.26550821,4004.88050508,0.0
1.14800322425,1.13454907892,9.89169958286e-06,-8065525.16188,1.90289063163e-05,0.0,5601644.96132,684.479513708,653.793414395,66395850.7852,1822.4032451,45534316.1168,68571028.4729,4765.36138386,4755.99255125,0.0
1.13354044083,0.869777609111,1.03729898505e-05,-11024875.0178,2.24977574663e-05,0.0,5605004.76904,683.479446815,652.925683079,66396543.7928,1804.07439703,43672578.4487,67743285.9754,4705.32636989,4696.21450667,0.0
1.05712122355,0.846720240609,1.00794436084e-05,-39960303.1707,1.57651733654e-05,0.0,5819240.39978,679.129069169,647.940282334,66974033.339,1703.67681292,34841721.8285,69656168.8318,4388.11019896,4379.79263581,0.0
1.13230658358,0.958655240117,1.00334206356e-05,-11487208.0566,2.00770448834e-05,0.0,5582906.8607,683.524639599,652.747347485,66305711.3973,1800.30346801,43392656.0757,67522262.3963,4700.20462844,4690.29037244,0.0
1.0920579352,1.028286425,1.01203897322e-05,-25061421.3407,1.61274085611e-05,0.0,5744759.8839,681.07948381,650.246341801,66793784.8512,1749.94216322,36485729.2177,69120475.5106,4533.13248902,4524.46172946,0.0
1.14996154337,1.01124059359,1.03497383632e-05,-6408024.60806,2.16775720206e-05,0.0,5560932.08462,684.438619854,653.971381329,66282713.5371,1824.77200515,46261870.1255,68590809.5226,4773.49036653,4764.09013352,0.0
1.10985527076,0.861840456694,1.06152741714e-05,-16377694.2723,1.97037894451e-05,0.0,5630377.01388,681.855376808,651.354806128,66432420.6525,1771.72774765,40397827.7166,69060886.9857,4607.00922892,4597.57122692,0.0
1.08002215219,0.947246725916,1.02241516238e-05,-28804743.1186,1.62395813816e-05,0.0,5756460.97915,680.422157899,649.535980752,66802585.7088,1733.58712188,35511317.6874,69212069.0349,4483.17195374,4474.49716975,0.0
1.02372518974,1.17081099007,1.00478025684e-05,-66624709.5771,1.21072828567e-05,0.0,5926820.23149,677.68706004,645.849332968,67262844.2758,1659.81376863,47069757.3058,70965842.5895,4249.48326261,4242.1486135,0.0
1.04435289633,0.869046618703,9.79905889304e-06,-51049256.5771,1.53930776924e-05,0.0,5813736.92229,678.829625569,647.129491903,66938700.2396,1684.41604259,38028596.1197,70927885.8566,4335.10887267,4326.15395878,0.0
1.1427172573,1.10550010536,9.4904052717e-06,-8565362.46659,1.81871456297e-05,0.0,5597267.04851,684.47900703,653.489111455,66379413.2735,1813.76817693,45533037.2173,68316828.2405,4743.41933505,4733.50990564,0.0
1.10248578774,0.870341925971,1.02100154648e-05,-21482040.4902,1.90182423554e-05,0.0,5698535.27175,681.76116808,650.976222918,66657245.6249,1763.67177505,37723414.6383,68563917.8516,4576.41850491,4567.58377822,0.0
1.09438835024,0.866090163916,9.92479231372e-06,-24815883.7234,1.81072388448e-05,0.0,5734613.65896,681.427365289,650.400001157,66763656.9695,1753.13720219,36594796.5419,69149894.302,4542.80604185,4534.09874784,0.0
1.10279165752,0.987637125468,9.82513865838e-06,-22198485.9525,1.72315429458e-05,0.0,5726357.85612,682.005217617,651.005522521,66748050.8178,1764.15913985,37522448.0957,68570927.4486,4577.68817037,4568.8485023,0.0
1.10748970427,0.902337197583,1.04295135726e-05,-17491554.5747,1.87543512792e-05,0.0,5650727.07668,681.860321088,651.246784112,66487089.308,1768.64906545,39835823.4957,68888496.2991,4597.18976242,4587.79090162,0.0
1.00954639066,1.00703884116,9.77786813235e-06,-86660113.4586,1.3261764595e-05,0.0,5971665.80131,677.967026089,644.956837189,67353784.2971,1641.22786853,62713202.1354,71013137.8655,4190.62706763,4183.58307259,0.0
1.13294301789,1.06147681585,1.03942404665e-05,-11180128.9321,1.94767744071e-05,0.0,5621555.54664,683.336012333,652.885745509,66447902.9502,1803.11995244,43570623.7472,67754832.4816,4702.84646726,4693.74405571,0.0
1.06105985127,1.03061908755,1.01770195957e-05,-37746976.2098,1.40975188603e-05,0.0,5817218.97139,679.211583829,648.209645174,66976799.5959,1708.8128181,34654415.149,69974714.8093,4404.45944262,4396.08057852,0.0
1.07121841163,1.05771886409,1.01796763385e-05,-32328085.6062,1.43958417404e-05,0.0,5793731.54902,679.689847453,648.813192128,66913576.4872,1721.94317741,35053559.5043,69602263.6887,4446.62762668,4438.09009692,0.0
1.02584037954,1.11159588617,1.03908299738e-05,-64888554.882,1.26880068369e-05,0.0,5837447.57193,677.505530106,645.942181409,66993920.4192,1659.13733015,45827529.6975,70521213.0421,4258.26341547,4249.44662369,0.0
1.04600038266,0.796626403206,9.95056300762e-06,-48820515.0553,1.61414714362e-05,0.0,5812951.69985,678.943990089,647.335427159,66943814.3983,1687.71892544,37086771.8517,70951474.4289,4341.94758842,4333.31676489,0.0
1.09519914799,0.948476400255,1.03476717279e-05,-22974390.0792,1.74096595492e-05,0.0,5703986.65819,681.206613089,650.496744495,66660056.5214,1753.21814536,37067555.6995,68974138.3162,4546.17166331,4537.15806271,0.0
1.16621798741,0.846371116409,9.95157573792e-06,125680.041783,2.36604394757e-05,0.0,5417547.73214,685.855455741,654.996370642,65805924.1208,1841.05429121,50037046.6979,67651201.9046,4840.97086574,4829.98798013,0.0
1.13780944572,0.930895393623,1.01156219449e-05,-10224198.8841,2.15025252619e-05,0.0,5602097.96243,683.886577188,653.196461632,66383163.6633,1809.26770631,44195860.8726,67942889.8864,4723.04700918,4713.76189141,0.0
1.02504196976,1.20213102194,1.00131009763e-05,-65485405.4695,1.17912157514e-05,0.0,5932711.20676,677.737507637,645.934092992,67285630.3113,1661.95956947,46284638.0701,70979492.4809,4254.94921647,4247.68542068,0.0
1.02437367305,0.869035800755,1.01471376922e-05,-64611067.7476,1.46917966155e-05,0.0,5906475.10623,677.697218915,645.889734792,67203352.5503,1660.86393708,45683493.4594,70862676.232,4252.17511683,4244.83112233,0.0
1.09557135483,0.957536405447,9.61826272607e-06,-24954848.908,1.67246178216e-05,0.0,5748689.50085,681.660347594,650.470124465,66808119.7348,1754.42155664,36618373.832,69286831.7287,4547.7166939,4538.89232363,0.0
1.1450437554,0.946777014306,9.84982561369e-06,-7502823.80568,2.13076695315e-05,0.0,5569307.61346,684.41741043,653.589767048,66302961.735,1817.36977054,46098316.5613,68511175.7963,4753.07662867,4743.33769654,0.0
1.02494968141,0.887292389268,1.02073424713e-05,-65295564.0656,1.47100181536e-05,0.0,5853142.05801,677.753107059,645.902896471,67035932.3964,1659.34564806,46106512.77,70842586.3837,4254.56612753,4246.18654521,0.0
1.02632357252,0.897457697688,1.02677650378e-05,-63649332.1719,1.4648783505e-05,0.0,5848462.07932,677.720071928,645.981050979,67022963.8827,1661.1895444,44988752.7542,70820145.9026,4260.26914953,4251.86748335,0.0
1.0582897561,0.903393268557,9.74720639777e-06,-40794762.6028,1.51215522798e-05,0.0,5832251.47941,679.424938482,648.012431504,67010520.6834,1705.13277878,35012250.9968,70117461.8486,4392.96077757,4384.62504658,0.0
1.12082499681,0.992229984371,1.00888043118e-05,-14133122.8985,1.86314105808e-05,0.0,5622586.54759,682.80666946,652.047850717,66428448.1772,1785.35374613,41898128.6967,68456339.7055,4652.54456176,4642.82340484,0.0
1.00969127702,0.924821256774,9.69372560665e-06,-87279010.7522,1.39516184178e-05,0.0,5970922.32011,678.112814741,644.967398781,67349818.4348,1641.44017895,63234698.5541,71080939.8386,4191.22849091,4184.18245407,0.0
1.00714912586,0.876917533786,9.76610145252e-06,-89999022.7364,1.44347892357e-05,0.0,5919585.18643,678.318712343,644.790296007,67179610.201,1635.81405794,65586504.1811,71126862.9178,4180.67602144,4172.66341814,0.0
1.02739066242,0.819908731788,9.75364120134e-06,-65108422.8067,1.5159594716e-05,0.0,5918338.8764,678.184297828,646.090453445,67244181.9922,1665.24662475,46038021.4301,70946016.1941,4264.69863971,4257.40127723,0.0
1.11296357718,0.892078723711,1.01888342565e-05,-16473245.5278,1.94049452085e-05,0.0,5659463.39418,682.288568894,651.566984018,66538635.5139,1776.27599364,40522871.5392,69228191.4891,4619.91180887,4610.71911437,0.0
1.19002806559,1.13337624101,9.9663515293e-06,5918137.26971,2.02705663661e-05,0.0,7461869.84901,687.074975309,656.472639904,65682909.259,1870.1359643,53288668.4863,66861280.8023,4939.80650026,4928.62325842,0.0
1.11357749312,1.02894809429,1.00519922073e-05,-16445068.8269,1.75610109752e-05,0.0,5677180.56372,682.358782161,651.612815744,66589562.0624,1777.12879526,40571224.9796,69278196.0768,4622.46017394,4613.25743024,0.0
0.986866612689,0.958077883662,1.04493042708e-05,-94924846.0914,1.38558246367e-05,0.0,5922012.88458,679.080552661,643.482294127,67169197.8335,1608.53545751,69846245.5901,70088240.5492,4096.48330927,4088.46833692,0.0
0.930346792418,1.02400969333,1.02851307513e-05,-92379186.1072,1.31995644382e-05,0.0,6058855.01345,688.131423919,639.845572315,67495423.8139,1601.15184091,67605229.2439,67812904.7702,3861.86953533,3854.73379446,0.0
0.976374448734,0.870052129421,9.94711036568e-06,-94788643.684,1.4639894041e-05,0.0,6025586.45928,681.843882177,642.830211478,67467933.4449,1613.64835244,69726010.9824,69962384.0911,4052.93033669,4046.26688384,0.0
1.05881995595,1.00702882268,1.02521277469e-05,-38858852.6473,1.43973142973e-05,0.0,5821169.43218,679.050300985,648.066044379,66979744.3648,1706.13068862,34730935.3384,69794810.5136,4395.16163715,4386.91184874,0.0
1.02437298819,1.07767362709,9.70698989988e-06,-69364042.5592,1.27997699103e-05,0.0,5940933.86243,678.072160182,645.897128802,67305109.2509,1661.07079102,49021956.1729,71021848.926,4252.17227398,4244.91802697,0.0
1.11615059951,1.00852476497,9.8656808718e-06,-16101026.2663,1.79135280802e-05,0.0,5675852.45397,682.630821968,651.763887941,66601230.4997,1780.52941818,40786327.472,69414333.9488,4633.14113857,4623.89764776,0.0
1.06456368361,0.974513913546,1.02747524277e-05,-36114006.2826,1.50614650126e-05,0.0,5804358.28423,679.359961881,648.439754432,66939531.2759,1713.79180082,34626089.2632,70014328.1824,4419.00385067,4410.66384976,0.0
1.03428861882,0.85853307002,1.00730361614e-05,-57516891.7766,1.50805935109e-05,0.0,5842613.81059,678.190686232,646.502014281,67016597.4927,1672.17141572,41207807.419,70959975.9548,4293.33205672,4284.88864598,0.0
1.04419273445,1.04219803557,9.84659878389e-06,-50969355.0947,1.37341386888e-05,0.0,5823611.67625,678.711218545,647.11996628,66969684.3316,1684.07440042,37943059.6613,70948463.0935,4334.4440407,4325.49180147,0.0
1.21569349718,0.657359724648,9.98003305142e-06,12137449.9294,3.33903338996e-05,0.0,13385207.6691,689.100679357,658.073222971,65047386.5737,1901.40869716,57641629.542,66118484.8027,5046.34370679,5034.56926805,0.0
1.07651532837,0.939499212514,9.75820929225e-06,-31106286.4878,1.5620599178e-05,0.0,5781366.45824,680.326019631,649.148265058,66879262.0206,1728.41965482,35261561.2114,69575413.7158,4468.61512806,4459.8065283,0.0
1.04701573874,1.05473950648,1.00635735033e-05,-47839105.2482,1.36712589899e-05,0.0,5825910.04863,678.674232274,647.314460351,66987390.1221,1688.90229656,36725575.1283,70541127.8774,4346.16233151,4337.5150624,0.0
0.999108297658,0.749348984959,9.84149543827e-06,-95820251.0811,1.54008572857e-05,0.0,5978867.98619,678.689154665,644.288675426,67362334.8271,1627.1677333,70634304.524,70858314.3092,4147.29854358,4140.4010254,0.0
1.04579740398,1.10041195327,9.73011722424e-06,-50607284.8361,1.3200663356e-05,0.0,5828271.88889,678.867461728,647.236115493,66984971.0371,1686.1411054,37852627.7599,71028950.0436,4341.10502392,4332.12597275,0.0
1.21890655691,0.919515318819,9.75489011375e-06,12319326.7175,2.62796680997e-05,0.0,13584622.817,689.167188033,658.283351726,65196059.6483,1904.66878016,57891095.2247,66317160.475,5059.68111773,5047.76442134,0.0
1.14437111103,1.06013207153,1.00074327741e-05,-8353965.67783,1.94735780745e-05,0.0,5551161.49218,684.146147573,653.445999576,66221772.7875,1815.54427679,45248895.1097,68407867.262,4750.28448189,4740.13936435,0.0
1.13534140515,0.776231836126,1.04063689926e-05,-10437861.2634,2.4333957451e-05,0.0,5588514.68785,683.616106812,653.037033384,66350492.6486,1806.46752188,43947410.6073,67822920.812,4712.80217278,4703.66179276,0.0
1.06859191087,0.795441063485,1.03998055414e-05,-32975090.5362,1.74207900664e-05,0.0,5778833.90865,679.501850801,648.659229837,66871329.5045,1719.00220512,34843316.9076,69545237.8797,4435.72502202,4427.32278641,0.0
1.00146620385,0.988600317232,9.99740482999e-06,-95872245.714,1.37664917113e-05,0.0,5903099.42117,678.359249155,644.418870554,67125280.3893,1626.84638731,70678960.5672,70678960.5672,4157.08621218,4148.75401727,0.0
1.03488658812,0.910261358747,1.01680292922e-05,-54384562.1043,1.44025107543e-05,0.0,5836682.18168,678.095927805,646.543484462,66995598.5135,1672.43790176,39540469.9615,71025533.279,4295.81422729,4287.18727235,0.0
1.1634279772,0.876881094956,1.02019067332e-05,-417470.894107,2.31212957188e-05,0.0,5420182.46387,685.507858807,654.819661559,65798472.2031,1837.52553263,49556303.0713,68131789.8485,4829.38953336,4818.46797412,0.0
1.1192437376,1.05397120475,9.48142703388e-06,-15794681.0216,1.70036033963e-05,0.0,5658392.15308,683.088634643,651.954196047,66530972.8026,1783.41087265,40926533.4297,69561980.7228,4645.98075478,4636.18772295,0.0
1.12894960645,0.730317537702,9.93261088145e-06,-12256243.3744,2.3172100256e-05,0.0,5576261.07351,683.49892131,652.519161545,66295921.0173,1796.13876956,43152925.1212,67249857.7287,4686.26981637,4676.41246157,0.0
1.02479788149,0.825676795044,9.62667516009e-06,-69585489.8035,1.50594396516e-05,0.0,5930397.88595,678.247829593,645.925897001,67272611.0221,1661.75349463,49178822.3925,71000171.4055,4253.93600606,4246.67569491,0.0
1.14454625655,0.952405394149,9.63744355601e-06,-8143902.01678,2.04823118928e-05,0.0,5544014.57095,684.582529051,653.565672865,66214656.0416,1815.28404134,45787305.5484,68375130.0907,4751.01151094,4740.67769474,0.0
0.963106107032,1.12384301812,1.01086515263e-05,-93964466.8965,1.26292791575e-05,0.0,6047513.43469,684.035609177,641.970713502,67525425.1513,1613.44552827,69000513.6028,69226231.1987,3997.85345029,3991.15276683,0.0
1.17382063546,1.02110385869,9.97728391473e-06,2055380.3469,2.11028824022e-05,0.0,5416884.88465,686.155640363,655.459688505,65801171.2178,1850.40096384,51028849.1402,67054613.5382,4872.52945779,4861.51436654,0.0
1.12897253869,0.885089400804,1.03190562637e-05,-11760503.1476,2.10954520759e-05,0.0,5574406.28825,683.171557475,652.524887359,66280048.8437,1796.03036509,43170965.0809,67357244.3499,4686.3650081,4676.50685011,0.0
1.11335926934,0.825457731561,1.03232334405e-05,-16008208.9126,2.03250675937e-05,0.0,5629331.50072,682.271658573,651.56798437,66430206.6543,1776.37716025,40590207.4439,69231350.7308,4621.55432703,4612.0575937,0.0
1.20329207976,0.850485638804,9.91594646949e-06,9799064.23036,2.6672083464e-05,0.0,11185405.8014,688.084044467,657.307946258,65453808.8614,1886.76207807,55935905.9577,66925115.6785,4994.86542308,4983.65723262,0.0
1.07106928563,0.743765671694,1.00889381171e-05,-32680519.3018,1.79720499647e-05,0.0,5776884.19871,679.892018273,648.816709209,66858973.328,1721.98926892,35009070.9423,69621594.4433,4446.00860465,4437.47341728,0.0
1.22374723148,1.19434454064,1.00510251011e-05,13479467.1822,2.20827231794e-05,0.0,14815012.6998,689.12964468,658.593665124,65147337.4836,1909.01888094,58849921.245,66557560.1337,5079.77475787,5067.62974856,0.0
1.09821240761,0.997598505929,1.02551802435e-05,-22657184.607,1.71660228506e-05,0.0,5718879.53179,681.430213544,650.705778455,66712276.845,1757.99840182,37220845.8643,68524958.2909,4558.67970399,4549.91168798,0.0
1.15857443958,0.972471002911,1.00962914802e-05,-2799761.59859,2.07663444471e-05,0.0,5466540.10782,685.23134845,654.531122818,65956882.2418,1832.12906809,48266841.1905,67849631.0319,4809.2424987,4798.51581055,0.0
1.16084505943,0.993205699331,1.00887365786e-05,-974658.245606,2.08323620172e-05,0.0,5481423.50954,685.309573833,654.675677679,65985953.2447,1835.20856385,49402685.2745,67928504.6016,4818.66784169,4808.20792903,0.0
1.14763017106,0.892863444062,9.84129046397e-06,-7847918.15342,2.22788155765e-05,0.0,5530013.43777,684.567203748,653.66541783,66160210.2954,1819.94134494,45645393.1016,68543744.4645,4763.81284007,4753.6102102,0.0
1.05489719725,0.880099356348,9.97083269668e-06,-42469334.4957,1.54085424337e-05,0.0,5811612.60145,679.12901032,647.796719577,66946538.17,1699.82145417,35259169.6833,70540027.6927,4378.87826578,4370.24949077,0.0
1.05818818667,1.01035279838,9.93935666099e-06,-40064430.3184,1.40888537484e-05,0.0,5831939.60341,679.230776227,648.008586202,67012051.9913,1704.96073603,34885223.6626,69738662.3711,4392.53916287,4384.20501168,0.0
1.2092594901,0.876441326733,1.00821429388e-05,10891430.5789,2.68411385509e-05,0.0,12191848.0632,688.348048564,657.61759503,65224785.2151,1892.6580687,56643382.4008,66503740.4485,5019.63614341,5007.84554966,0.0
1.08563689855,1.09726412023,9.91290373275e-06,-27887669.1256,1.46760959865e-05,0.0,5776213.70503,680.893547019,649.895740444,66877357.2468,1741.50736769,35886457.8321,69371981.7859,4506.47876588,4497.908345,0.0
1.12867542238,0.833815803968,1.01104377595e-05,-12218999.0058,2.16097942063e-05,0.0,5580975.58465,683.312340589,652.500580888,66295567.7161,1795.77616076,42975205.3942,67244401.3829,4685.1316783,4675.2785478,0.0
1.06314581692,0.787020252517,9.66736947666e-06,-38767807.163,1.66301376507e-05,0.0,5816103.58383,679.813629973,648.347509302,66968426.0737,1711.66368432,34757486.7679,70020475.7387,4413.11828603,4404.70688125,0.0
1.16216346208,1.11389950588,9.80394858899e-06,-2662214.89907,1.86558922893e-05,0.0,5473842.23531,685.55510396,654.754576132,65988873.0298,1836.18694744,48409584.9299,68014469.4667,4824.14053109,4813.22807157,0.0
1.13122447086,1.00356064943,9.85738367871e-06,-11820475.4551,1.92809856518e-05,0.0,5615452.54419,683.626234699,652.756530046,66416299.6695,1799.60900629,43293641.2825,67484828.1232,4695.71277854,4686.09552395,0.0
1.0010018596,0.939518318807,9.80753035353e-06,-95692502.0445,1.40865135518e-05,0.0,5932450.88875,678.843693546,644.396487201,67213523.1565,1627.31854418,70522168.5204,70827333.2869,4155.1587192,4147.24269771,0.0
1.08978267992,1.12553398875,9.72398682826e-06,-26635680.9066,1.44305566863e-05,0.0,5772048.11043,681.239585041,650.150908851,66873389.517,1746.71264095,36165268.5865,69428260.4669,4523.68790435,4514.95508508,0.0
1.18391717532,1.04771200367,9.79088589933e-06,4230720.89968,2.1149768087e-05,0.0,6075096.65886,686.827007723,656.084842735,65806482.6546,1863.68244409,52408633.3761,67106035.8282,4914.44019475,4903.57801964,0.0
0.968871709384,0.882682874407,1.00466295425e-05,-94199939.1806,1.47064023138e-05,0.0,5990892.35138,683.135517991,642.333552167,67348553.3036,1611.50493073,69207894.2883,69437712.7259,4021.78646565,4014.3665921,0.0
1.17941030416,0.934198483609,1.01936193295e-05,3861782.05884,2.34712968262e-05,0.0,5851351.24508,686.374743169,655.793122071,65762013.5445,1858.25436523,51952626.8937,67028359.5932,4895.73217257,4885.04299529,0.0
1.07027937113,0.725666792973,1.01093996793e-05,-32955540.8378,1.81405768169e-05,0.0,5776905.53511,679.849911326,648.775175667,66858313.9971,1720.96370209,34929236.3039,69645288.7576,4442.72966956,4434.20688536,0.0
1.18235672912,1.13469369062,9.70491673817e-06,3795371.0227,1.94788040845e-05,0.0,5687647.46768,686.755422832,655.979993079,65782561.0775,1860.5120085,52172582.9633,67108792.5366,4907.96278258,4896.70449298,0.0
1.08824212094,0.72092745685,1.03287177553e-05,-25784249.9315,2.01000501279e-05,0.0,5729695.23156,680.852710822,650.014500716,66735958.0146,1745.55772297,36204109.4533,70665977.0887,4517.29304402,4508.77977372,0.0
1.18710038478,1.03429947474,1.0050274546e-05,5281138.2076,2.2027727819e-05,0.0,6899655.70342,686.875683513,656.2813369,65740376.1404,1867.61404676,52904488.8374,66991704.7921,4927.65369722,4916.84411059,0.0
1.03954359013,0.992963382485,9.71555746754e-06,-55835231.1539,1.40233507918e-05,0.0,5851189.69497,678.677397999,646.849173691,67047777.5845,1678.95304833,40334589.7558,71216580.95,4315.14544263,4306.61890258,0.0
0.976306598076,1.06970148613,1.00724206761e-05,-94661531.3809,1.28587251522e-05,0.0,6018519.08364,681.688487379,642.8212483,67449250.9184,1613.1857747,69614056.5904,69849035.7881,4052.64868861,4045.73287321,0.0
0.972628106456,0.865572737744,1.04396101918e-05,-94317030.555,1.46891513912e-05,0.0,6013504.26175,681.74238486,642.585426714,67448366.8336,1612.62693742,69311070.6428,69542446.5107,4037.3792699,4030.84173586,0.0
1.05279388788,0.657563617886,9.6072359238e-06,-44541269.0564,1.74148005533e-05,0.0,5809396.4152,679.425070865,647.686496884,66932048.9848,1696.66147745,35729670.2854,70605852.0786,4370.14742859,4361.37270835,0.0
1.11924290326,1.04732347494,1.00808501026e-05,-14563212.1437,1.76682231829e-05,0.0,5633838.26615,682.678782672,651.945736768,66459900.449,1783.2617702,41640261.5604,68767593.0708,4645.97729143,4636.28366239,0.0
1.11164927286,0.88305539542,9.96247413881e-06,-17166519.7793,1.91530961962e-05,0.0,5676335.1148,682.400141557,651.51720477,66595852.352,1774.78796636,40192568.9365,69110881.2079,4614.45613164,4605.28456837,0.0
1.09354908621,0.896619676679,1.03736058045e-05,-23939550.2574,1.81293430908e-05,0.0,5725503.35292,681.08174909,650.373289687,66731363.4177,1752.34511478,36775838.0691,68885728.7207,4539.32225686,4530.72577472,0.0
0.901038281249,0.967952332556,9.77354043754e-06,-91369146.4531,1.34227052526e-05,0.0,6191193.89523,693.088513999,637.972265086,67854770.0991,1599.43224614,66715973.9553,67854770.0991,3740.20990546,3734.32907255,0.0
1.01103951328,1.01467972204,1.02105683194e-05,-82771577.0063,1.35387541249e-05,0.0,5873334.13232,677.574158026,645.024047212,67051971.0261,1639.64726043,59461688.334,70568836.8751,4196.82501963,4188.33646092,0.0
1.22823743142,1.20172400506,1.01159905638e-05,14876552.3195,2.24502202281e-05,0.0,16289175.4735,689.306168933,658.898582884,65270025.1305,1915.74473109,60040359.3765,66829956.5114,5098.41357782,5086.86459081,0.0
1.02607702657,0.771907180787,1.00506600428e-05,-65493451.5054,1.57846641157e-05,0.0,5849379.0884,677.983453699,645.975810186,67024743.9528,1660.88997892,46252039.1813,70910709.4535,4259.24573729,4250.84803581,0.0
1.09805851379,0.824347921803,9.767036481e-06,-23475546.6464,1.85495197196e-05,0.0,5726957.10742,681.796556344,650.661485654,66733542.3191,1757.86817209,37017986.3796,69197448.1336,4558.04089074,4549.17695865,0.0
1.21405844055,0.963757524034,9.80792012186e-06,11661481.086,2.50643776122e-05,0.0,12992270.922,688.719892731,657.956986882,65348288.0479,1899.41337242,57358817.7505,66414644.1971,5039.55658672,5028.03669691,0.0
1.12112614226,1.01909152919,1.03544970817e-05,-13988388.963,1.85072763091e-05,0.0,5614803.94777,682.658220661,652.078057612,66397672.5725,1786.06436747,41834867.8533,68101345.1411,4653.79461652,4644.16766865,0.0
1.01558675703,1.19451584665,9.78175844423e-06,-79303364.1933,1.17422691697e-05,0.0,5965804.12327,677.838308152,645.334787319,67355822.9413,1649.28063347,56637344.3601,71035424.6158,4215.70062843,4208.57129529,0.0
1.18961047106,0.96093867548,1.01536459306e-05,6090757.81453,2.37162860894e-05,0.0,7616209.90694,687.048759716,656.462375151,65636431.0138,1870.65394925,53284581.039,66809894.674,4938.07306537,4927.21964005,0.0
1.11037817382,1.03735580624,9.84731451744e-06,-17663886.3202,1.69237445011e-05,0.0,5648990.24228,682.393858699,651.429443462,66496659.3473,1770.99127699,39862876.3254,69029921.4224,4609.17979953,4599.24571574,0.0
1.00284733605,0.710030051456,9.57534382546e-06,-95812943.3424,1.61534852472e-05,0.0,5895829.28668,679.12042247,644.50864088,67099142.8836,1628.54424204,70628168.5217,70771642.7731,4162.81929194,4154.38373461,0.0
1.16528279644,1.00266166826,9.92455254088e-06,-507349.598919,2.08388513554e-05,0.0,5442094.78365,685.717157822,654.940462465,65880096.3719,1839.82684313,49678658.2857,67739691.0972,4837.08888802,4826.12121308,0.0
1.03923150598,0.952017149021,1.0047840788e-05,-51882835.4172,1.42905615684e-05,0.0,5832224.84009,678.370258095,646.816872461,66992850.7306,1678.169557,38314894.385,70843012.7148,4313.84998132,4305.15349557,0.0
1.18059782127,0.723285888674,1.03784216875e-05,4112672.44041,2.8344897906e-05,0.0,5948947.37255,686.556525585,655.854537082,65524114.6869,1859.25598249,51924757.2777,66770748.8223,4900.66155609,4889.62951341,0.0
1.16908287164,0.733972369742,1.01655095898e-05,1107023.91103,2.662317178e-05,0.0,5412500.93488,685.952015995,655.186829952,65782611.6063,1845.831419,50377381.5334,67386915.4086,4852.86300018,4842.24550753,0.0
1.07728305404,0.958924032716,9.42860215895e-06,-32763336.3187,1.54430172166e-05,0.0,5812413.02043,680.607768622,649.208093705,66978019.0698,1730.64207313,35034843.6644,69985798.8168,4471.80195732,4463.3613609,0.0
1.01821267403,1.03474653185,1.02109128037e-05,-71547718.5232,1.33001599312e-05,0.0,5876626.04068,677.58417183,645.484072563,67090035.0138,1650.23465046,50582722.727,70874027.6965,4226.6008099,4218.3291765,0.0
1.02481587741,0.955355677625,1.01990794373e-05,-65516968.734,1.41469239147e-05,0.0,5857352.57082,677.732355936,645.893351134,67048643.4998,1659.12279219,46264347.6105,70876753.3893,4254.01070713,4245.63327431,0.0
1.16384611723,0.937477003661,9.80266754804e-06,-2309684.81756,2.34530149661e-05,0.0,5522677.81748,685.727181791,654.886393919,66160672.7376,1841.83582384,48878197.2297,68281394.1454,4831.12523262,4821.3811271,0.0
1.10334041411,0.678242646596,1.04850669775e-05,-18514842.6128,2.22761675913e-05,0.0,5596725.83402,681.777483223,650.980235114,66318674.116,1761.85574086,39311391.8552,68590179.0915,4579.96605897,4570.05932277,0.0
1.12183825252,0.802971149799,1.02249826862e-05,-13746868.2184,2.14278527578e-05,0.0,5594142.10678,682.907641396,652.122258717,66326612.6345,1787.01665217,42005137.9641,68039531.2028,4656.75058621,4647.01286536,0.0
1.12890785839,0.79405907541,9.841785437e-06,-12399779.9879,2.20857488759e-05,0.0,5607473.71395,683.588047668,652.601654838,66389688.14,1796.90627135,42814430.4174,67686642.4187,4686.09652018,4676.54309048,0.0
1.10369868619,1.04369486452,9.80841805291e-06,-22221314.9158,1.6730388546e-05,0.0,5739286.5669,682.043996874,651.069036085,66785681.9035,1765.94663755,37557064.6078,68572297.8061,4581.45324637,4572.79972426,0.0
1.10487071799,0.955326770493,9.98886134915e-06,-21132129.3864,1.79387989614e-05,0.0,5710355.55436,682.028399677,651.132110296,66691787.677,1766.87259379,37939881.8823,68681124.7894,4586.31835038,4577.44583349,0.0
1.16363805633,1.09143544104,9.7297028025e-06,-2469612.73219,2.05968859154e-05,0.0,5542800.10212,685.669514069,654.876247809,66221767.9139,1841.4468113,48788863.5542,68417180.7273,4830.26157183,4820.520871,0.0
1.03094830532,0.753652360954,9.94765557222e-06,-59739821.366,1.58356264421e-05,0.0,5899002.65858,678.12453461,646.314704826,67191720.7941,1670.06581653,42599139.77,70964174.8544,4279.46641538,4272.11808294,0.0
1.18849118575,0.7359365197,9.8700242373e-06,5542413.05957,2.80929463944e-05,0.0,7140069.96795,687.316052764,656.370774651,65595417.8292,1869.63478939,53107038.9561,66870923.6128,4933.42691205,4922.45695608,0.0
1.25799672285,1.05596108843,9.77162945458e-06,20715076.3759,2.75308218777e-05,0.0,22540452.9728,691.526253553,660.697059233,64637908.054,1948.79011599,64652099.8515,65508544.6628,5221.94439655,5209.15358852,0.0
1.09918799582,0.937833990475,1.01727082163e-05,-22545565.9311,1.78691943816e-05,0.0,5715281.37823,681.574538229,650.771368461,66701146.8073,1759.33437807,37270615.8823,68517223.7375,4562.72937065,4553.94587337,0.0
0.915975555275,1.0845372174,9.91256011297e-06,-91935012.061,1.25465250837e-05,0.0,6128404.02667,690.827427987,638.926535907,67683124.262,1600.78370319,67214051.4812,67683124.262,3802.21452995,3795.58217933,0.0
1.15335639262,0.974368326372,1.01122510548e-05,-6009698.32029,2.23372036466e-05,0.0,5560414.91216,684.692236919,654.097963583,66281619.5557,1829.23501048,46610125.9092,68607902.3559,4787.58238577,4778.12761748,0.0
1.17186447406,1.11374994873,1.02800630686e-05,2071170.61203,1.97963622374e-05,0.0,5426549.01082,685.783399343,655.335706535,65811782.6202,1847.87032549,50909821.471,67074356.9713,4864.40943182,4853.52982932,0.0
1.09538354542,1.0711135184,9.73393453492e-06,-25032432.2015,1.54848820408e-05,0.0,5684650.95068,681.587168559,650.441275457,66590770.7492,1751.10931876,36750300.1357,69215493.6169,4546.93709704,4536.97050945,0.0
1.1371488429,0.78551019003,9.74384880929e-06,-9780718.53752,2.28851279269e-05,0.0,5561590.38328,684.096842832,653.059262617,66257387.2112,1806.49679765,44618999.392,67861060.3477,4720.30484688,4710.28476647,0.0
1.066844429,0.905056154152,9.79098593394e-06,-36597295.9074,1.55719474997e-05,0.0,5810008.94745,679.868245052,648.586657664,66958560.3896,1716.50936856,34697891.484,70262398.5767,4428.47122478,4420.00199554,0.0
1.12353037359,1.09369668327,9.87305694989e-06,-14073111.1476,1.73459121888e-05,0.0,5658450.78973,683.043579006,652.234686513,66545119.5422,1789.96523142,41881283.0425,68704024.2437,4663.77458077,4654.41115165,0.0
1.10726485665,0.908976616591,1.00568373555e-05,-18246545.1247,1.83682629146e-05,0.0,5644360.98402,682.134756991,651.241105285,66472100.5377,1767.2843352,39520432.8332,68851710.2198,4596.25641995,4586.47283325,0.0
1.02906774678,0.884009707376,9.91256323078e-06,-61383822.0826,1.46157458853e-05,0.0,5911027.21802,678.059657108,646.196631837,67225400.8784,1667.47659616,43518732.5818,71053899.2362,4271.66021688,4264.3388458,0.0
1.13317267736,1.01895127529,1.00249445252e-05,-10720877.1791,1.96271007002e-05,0.0,5628518.86024,683.588325763,652.901352397,66473873.4612,1803.00702721,44079478.4264,67793821.5649,4703.79978372,4694.5917492,0.0
1.00345870588,1.11577607917,1.03902655272e-05,-89187042.0764,1.26593995488e-05,0.0,5892940.24319,677.513795458,644.541857131,67104946.6401,1629.67992847,64838635.8792,70685079.5543,4165.35708811,4157.07410468,0.0
1.15462887665,1.02926364044,1.02674651991e-05,-2535053.90058,1.99491219904e-05,0.0,5506953.87414,684.790389973,654.288476198,66070437.7649,1827.74884608,48531872.5145,68193222.4344,4792.86446697,4782.6176418,0.0
1.26643551822,0.941877452109,1.04169169983e-05,22965935.4201,3.31010971347e-05,0.0,24769757.8748,691.897340698,661.263703733,64341669.8213,1957.71425074,66207426.199,67115734.1239,5256.97383613,5244.18869966,0.0
1.09015079716,0.895442310796,1.01965205877e-05,-25409666.813,1.76023449331e-05,0.0,5737469.84544,680.979536201,650.129053336,66768987.7824,1747.55919212,36320509.6301,69119771.3718,4525.21595901,4516.57505135,0.0
1.02652360745,0.792083418316,9.75216303122e-06,-66186259.5152,1.53864111116e-05,0.0,5919420.02263,678.162795748,646.024999175,67244944.1157,1664.10486777,46767224.4642,71010868.9981,4261.09949452,4253.81453136,0.0
1.19279096924,0.87604959876,9.95620177578e-06,6152715.17184,2.5415748535e-05,0.0,7680559.6427,687.532639194,656.657064373,65422480.8866,1873.0545753,53246010.1161,66621766.6588,4951.27531332,4939.59070907,0.0
1.08643087155,0.854283891859,1.02018352461e-05,-26652580.7125,1.78206028862e-05,0.0,5744693.33321,680.821913111,649.931220245,66786445.9718,1742.72333747,36013119.7401,69191541.0965,4509.7745478,4501.19174577,0.0
1.158721637,1.07735805824,1.00437348902e-05,-2595334.07872,1.91689089524e-05,0.0,5471350.5294,685.190198569,654.532998935,65983257.2964,1831.67613421,48346272.2503,68772924.9073,4809.85351519,4799.0146041,0.0
1.0579622311,1.18201287375,1.02251746024e-05,-39399950.4209,1.26072110763e-05,0.0,5831714.07319,679.079912388,648.094950295,67010405.48,1704.85770073,34796526.4417,69752540.5336,4391.6012213,4383.36465186,0.0
1.17160164772,0.717377759655,9.86424526689e-06,1500620.37376,2.66501688387e-05,0.0,5427613.14586,686.261308525,655.348070512,65831721.1636,1849.3595621,50871066.6239,67549257.5214,4863.31843969,4852.77238543,0.0
1.19002276751,0.926784540601,9.901724703e-06,5402228.42953,2.40789585989e-05,0.0,6997122.72513,687.317777447,656.457047966,65496271.5138,1869.69429504,52887500.7292,66785441.1601,4939.78450793,4928.15114168,0.0
1.188755083,1.02389937992,1.01064524348e-05,5857305.63275,2.24105746645e-05,0.0,7420985.70616,686.95966825,656.393595707,65696432.1076,1869.52652338,53197632.8565,66904481.8325,4934.52234953,4923.67935632,0.0
1.05518723556,0.900645061871,1.00709472592e-05,-42009562.8054,1.53552207576e-05,0.0,5840871.3983,678.984136565,647.820431693,67043632.0642,1701.79215295,35206458.84,70122885.4095,4380.08221481,4372.19530887,0.0
1.0309134738,1.12599413874,9.62375453944e-06,-62391299.5477,1.24146323141e-05,0.0,5933257.60121,678.310592842,646.317255287,67293695.0201,1669.87527914,44253193.5521,71186882.1121,4279.32182974,4272.01945401,0.0
1.10399922914,1.1273114394,9.9212009316e-06,-21609540.4218,1.55954584323e-05,0.0,5728858.98203,681.950823251,651.083383133,66745878.536,1765.59674883,37735675.0883,68663412.5008,4582.70080016,4573.8420587,0.0
1.1902538856,0.997278314406,9.87642865794e-06,5379126.81393,2.27595037637e-05,0.0,6978379.84343,687.291532473,656.471891938,65527524.2697,1869.88507862,52901010.3332,66821867.5183,4940.74387913,4929.10623832,0.0
0.991069195151,0.902947466111,1.01929423178e-05,-95145115.4057,1.44562198499e-05,0.0,5918797.12308,679.181803042,643.755057066,67162117.5108,1613.40424894,70040180.3134,70287558.3,4113.92822907,4105.84477833,0.0
0.9760453307,0.857312279926,9.79945099308e-06,-94805421.5322,1.48269547735e-05,0.0,6031763.88081,682.291446295,642.810019061,67483390.6291,1614.9845615,69740738.974,69977232.5913,4051.56416774,4044.90288001,0.0
1.21332189447,1.03191782199,9.72326658118e-06,11201825.6541,2.36221509776e-05,0.0,12536949.5529,688.696676174,657.886051683,65302188.4003,1897.52619608,57029377.8476,66514152.4818,5036.49918395,5024.5763162,0.0
1.04885238438,0.971131561672,9.76119171404e-06,-46094678.4708,1.40825971531e-05,0.0,5833377.44922,678.970670995,647.426737025,67000615.3093,1691.19371315,36156801.2311,70524244.1216,4353.78624756,4345.07713676,0.0
1.01955809162,0.91600036284,1.02651993005e-05,-69837035.5272,1.43251435858e-05,0.0,5864992.71093,677.5666624,645.562562467,67059754.6644,1652.12603861,49327010.8743,70924643.5908,4232.18563831,4223.89249231,0.0
1.11220269813,0.940703730812,1.00638970409e-05,-16831512.2194,1.84818247846e-05,0.0,5629569.35993,682.378437915,651.524061492,66435884.9276,1773.60800255,40321853.5019,69138803.5536,4616.75339994,4606.88442788,0.0
1.02988770066,0.920773249802,9.66236463491e-06,-64266228.9381,1.45317335287e-05,0.0,5861709.27885,678.399935757,646.220509326,67063366.3684,1665.61399272,45447510.818,71094311.6458,4275.06384544,4266.51868745,0.0
1.08475889015,0.691437174328,9.71834985881e-06,-28727051.3246,1.96321316793e-05,0.0,5757653.46682,681.164801539,649.845879542,66827532.7441,1740.70176516,35779595.8705,69332412.6042,4502.83415301,4494.27741518,0.0
1.00936576465,0.765398299786,9.90857023313e-06,-85579016.9248,1.5144232326e-05,0.0,5956451.16539,677.850600777,644.938464537,67306959.8107,1641.13289972,61801768.3032,70889308.2797,4189.87728906,4182.83583914,0.0
1.23370717496,0.853083744311,9.95505659908e-06,16197609.2625,2.94170398053e-05,0.0,17714001.097,690.02252201,659.22479865,64937189.7256,1921.30183893,61029529.2262,66716274.9126,5121.11848326,5109.00702634,0.0
1.09054901387,0.846675142411,9.74262135634e-06,-26250593.7561,1.77330053576e-05,0.0,5749467.44676,681.383603617,650.190626309,66805881.5293,1747.94516927,36224507.8071,69340952.0505,4526.86895657,4518.12403967,0.0
1.17125782883,0.797803111624,1.00343374951e-05,1243387.21018,2.50919108679e-05,0.0,5387209.93732,686.157008721,655.306174597,65699893.8108,1847.48138978,50456883.3525,67378266.438,4861.89124747,4850.81679532,0.0
0.926537425435,0.938132976691,9.89668496609e-06,-92316516.6848,1.41654861276e-05,0.0,6095282.19172,689.840394954,639.606482518,67595490.4918,1605.36178729,67549906.6006,67755770.791,3846.05685298,3839.26812419,0.0
1.14877095305,1.12924044871,9.86917337806e-06,-7500876.92703,1.86577579847e-05,0.0,5548999.71267,684.501896965,653.762343844,66221364.5159,1821.06597173,45846572.5304,68677621.2464,4768.54822611,4758.3259978,0.0
1.00615324035,1.07067291469,9.41370949454e-06,-95209654.6219,1.25604441652e-05,0.0,5971817.49827,678.728356749,644.739668415,67326457.4543,1634.88650518,70099442.1969,71119476.0772,4176.54210069,4169.02942568,0.0
1.01354802512,1.13535526305,9.896848618e-06,-80630717.055,1.21571480549e-05,0.0,5963768.53531,677.720725049,645.197481707,67336078.446,1646.57118582,57708175.4965,70831420.2326,4207.23785227,4200.13737136,0.0
1.09004771841,0.675502286452,1.0157475896e-05,-25507687.7055,2.07328396736e-05,0.0,5721794.09269,681.1080679,650.126084185,66721593.3209,1747.62221863,36282507.8963,69091464.2364,4524.78807912,4516.14878372,0.0
1.00576103129,1.10226355996,9.86023847501e-06,-90551398.9111,1.2356520632e-05,0.0,5982485.82457,677.93239602,644.715469259,67381270.6925,1636.08650319,66039022.2121,71013189.5728,4174.91404088,4167.92330116,0.0
0.970687286851,0.849550847236,9.89508600724e-06,-94304464.8173,1.50211872861e-05,0.0,6022388.96597,683.512073177,642.459244087,67453679.7254,1616.3504422,69299805.104,69531031.0115,4029.32292772,4022.4339266,0.0
1.00352686276,0.869814510662,9.86959672549e-06,-96104503.5528,1.46377209242e-05,0.0,5920333.66038,678.518192773,644.556526886,67180731.4534,1630.78084596,70882665.7153,70882665.7153,4165.64000732,4157.6846844,0.0
1.13992028459,1.1196971522,9.94897155247e-06,-9101389.27191,1.86318414151e-05,0.0,5617067.37009,683.987712953,653.314606656,66445879.3885,1811.50282277,45163685.2169,68190045.7223,4731.80910133,4722.466783,0.0
0.99072083689,0.948779619188,1.01340085902e-05,-95151933.4449,1.41471970068e-05,0.0,5924202.88972,679.362691177,643.732430936,67177075.0816,1613.07111521,70046168.7795,70293378.9949,4112.48219393,4104.40432499,0.0
1.13242336377,1.13223757513,1.01023496039e-05,-11388073.6535,1.76180661389e-05,0.0,5595496.42681,683.401927026,652.756899695,66346781.5334,1800.23800239,43456300.9703,67601218.7656,4700.68938301,4690.77275919,0.0
1.01082164625,0.856879450397,9.49670046929e-06,-87095350.6592,1.46124176747e-05,0.0,5962999.14991,678.370375702,645.041281047,67317429.6848,1642.36477216,63082090.0384,71048399.4606,4195.92065358,4188.68333048,0.0
1.06276815754,0.945704781865,1.01817238264e-05,-36164728.8946,1.51675839097e-05,0.0,5807596.67084,679.320828544,648.321517268,66939049.2107,1710.93010523,34629984.9983,70121207.6989,4411.55062195,4403.14540941,0.0
0.997509780128,0.748512805724,1.01491707031e-05,-95385914.2176,1.57229942848e-05,0.0,5896324.40943,678.606283453,644.165991227,67102571.9534,1621.91906711,70252317.6808,70628224.7731,4140.66309731,4132.47596433,0.0
1.04102213226,1.04904414239,1.00582765533e-05,-51927635.0698,1.35338349822e-05,0.0,5839371.73721,678.398716628,646.925199787,67016308.4703,1680.95754257,38408421.9593,70856854.844,4321.28287101,4312.73249633,0.0
1.04209794016,1.11401158306,9.72165983044e-06,-51763084.0833,1.27416523048e-05,0.0,5849185.36119,678.695767078,647.001106142,67045629.5969,1681.82368744,38326227.5495,70965588.7504,4325.7485496,4317.00507567,0.0
1.0454575115,1.09939308385,1.04223669961e-05,-45356707.4759,1.29253401912e-05,0.0,5830270.54946,678.226315637,647.2063122,66992094.2245,1687.15686202,35894166.9241,70305666.9817,4339.69413024,4331.21791296,0.0
1.0644792623,0.808274733008,9.88492112572e-06,-37282332.542,1.65605679539e-05,0.0,5806099.22932,679.706618866,648.430762104,66943567.3199,1713.46074909,34655657.849,70106731.4473,4418.65341781,4410.22118449,0.0
1.14310557742,1.08233276217,9.96165601568e-06,-8848390.34305,1.8978055714e-05,0.0,5560112.46386,684.118230422,653.385688589,66250037.2162,1813.93089452,44959680.4172,68304168.4049,4745.03125187,4734.9077375,0.0
1.1074927511,1.31590507905,1.03184642498e-05,-17856743.3153,1.4156360173e-05,0.0,5637660.39072,681.78048277,651.228456236,66456532.1741,1766.0712409,39719218.3387,68929305.0641,4597.20240982,4587.03419337,0.0
1.13731591884,1.11195274772,1.03269869176e-05,-10203694.6582,1.9021060219e-05,0.0,5614383.95875,683.60807882,653.15119908,66432470.2215,1808.68250935,44152872.4532,67999180.9091,4720.9983791,4711.8266925,0.0
1.05604174507,0.965404452917,9.78709399143e-06,-42710266.4588,1.45365106451e-05,0.0,5821314.30338,679.298982413,647.872690487,66976002.1782,1701.24363236,35347692.6722,70635279.3317,4383.62928379,4374.98210702,0.0
1.03401858033,0.884936760231,1.01066956263e-05,-56610390.6999,1.47713529606e-05,0.0,5841583.7005,678.135357657,646.484968637,67012071.249,1671.57969401,40710551.834,70925419.3611,4292.21112695,4283.68501525,0.0
1.07842348386,0.794602381332,9.88683732451e-06,-30613682.3359,1.77492976443e-05,0.0,5780194.02465,680.418372945,649.283130321,66889676.6992,1732.29048165,35383886.5908,69323024.5064,4476.5358815,4468.07760997,0.0
1.05116711297,1.13897554217,9.86995192913e-06,-46282333.7845,1.28447451032e-05,0.0,5823454.27321,678.981714161,647.574511044,66980700.1113,1693.87552196,36222079.4005,70613297.2353,4363.39468594,4354.50187669,0.0
1.17671862598,0.960862963526,9.85978311233e-06,2322218.72816,2.22650007362e-05,0.0,5404246.95357,686.45584942,655.639533037,65763977.9072,1854.29952611,51206927.1472,67005493.0264,4884.55901644,4873.49049528,0.0
1.02759395512,0.976047022693,9.74639953015e-06,-64981490.6104,1.38030759256e-05,0.0,5925511.09337,678.148445625,646.104289276,67265934.5892,1665.43327592,45957182.0234,70963442.7652,4265.5425077,4258.24223674,0.0
1.08827839259,1.10551400833,9.61903421964e-06,-27474032.5573,1.44706332614e-05,0.0,5779465.63059,681.243625022,650.063972482,66891663.6404,1744.75904177,36016978.6585,69472058.3888,4517.44360764,4508.73451575,0.0
1.00311321689,0.836314221632,1.00734964814e-05,-93733551.354,1.49988395167e-05,0.0,5887419.54132,678.149270734,644.523517921,67080822.3759,1629.15778573,68806770.8935,70715471.1379,4163.92296331,4155.56534791,0.0
1.17086018983,1.18415896657,1.0271366085e-05,1679670.62763,1.86987098006e-05,0.0,5438078.0144,685.690566157,655.276599312,65856557.6883,1846.60488737,50708925.7003,67107151.386,4860.24064798,4849.38314565,0.0
1.06396483729,0.926862696065,1.00069515531e-05,-37061308.4757,1.52841642043e-05,0.0,5810119.35768,679.538332632,648.398161714,66957496.1416,1712.71189574,34656066.7071,70103382.4369,4416.51803959,4408.09384413,0.0
1.12219830123,0.96136573668,9.98627153125e-06,-14059409.5278,1.90411044873e-05,0.0,5622845.34135,682.969546964,652.138534757,66431827.8597,1787.23672567,41884417.0599,68428712.9754,4658.24514841,4648.55155387,0.0
1.06325529078,1.0934294593,9.94811380708e-06,-37664168.6849,1.34694445689e-05,0.0,5824820.98763,679.479703549,648.352406847,67000243.9544,1711.64831391,34688813.8405,70098524.1053,4413.57271203,4405.15959805,0.0
1.05715446717,0.907864504286,9.5961134888e-06,-41145298.8982,1.47993430328e-05,0.0,5835368.21478,679.4760139,647.943250621,67015938.4915,1703.11174044,35006642.2294,70592000.4921,4388.24819322,4379.74629798,0.0
0.938943176164,0.726730947965,1.00025752598e-05,-93038773.2704,1.51872901655e-05,0.0,6106046.72946,687.430753524,640.419767498,67663847.5548,1607.34038513,68185526.9801,68399603.1825,3897.55312426,3891.4684163,0.0
1.07213860837,0.701588487465,9.85373810356e-06,-33949428.9725,1.84162026873e-05,0.0,5779802.59603,680.181831919,648.909257697,66866656.2539,1723.59610269,34821360.896,69798915.0608,4450.44736334,4441.8965606,0.0
1.07651024366,1.234840084,1.04356270067e-05,-31544777.0008,1.33132950041e-05,0.0,5720008.79988,680.014164456,649.26774709,66688445.1035,1726.5549322,34911126.7764,68967776.3308,4468.59402143,4458.94961107,0.0
1.04580213667,1.04195662675,9.83090474667e-06,-46892532.9835,1.33874418881e-05,0.0,5856005.07131,678.733453525,647.24729236,67060984.9582,1687.8179229,36482294.2396,70954791.3261,4341.12466932,4332.8032806,0.0
1.11072549509,1.09740325209,9.93489022562e-06,-17378737.2962,1.62402240699e-05,0.0,5649163.68303,682.318519999,651.445720349,66500455.7842,1771.35677179,40062839.0873,69074891.619,4610.62153012,4600.6814523,0.0
1.1279249585,0.72948435587,1.02011929618e-05,-11599016.6201,2.38134572156e-05,0.0,5623881.77128,683.26679037,652.553721431,66436434.172,1796.89489963,43312423.3147,67681370.6857,4682.01650273,4673.01358091,0.0
1.01679020126,0.84395205038,9.72781909629e-06,-78270715.1008,1.47162708207e-05,0.0,5947916.89344,678.032058662,645.420118063,67306444.1696,1651.07651791,55806248.3835,70984031.2516,4220.69612543,4213.54973765,0.0
1.07148552356,1.24814674024,1.05090747624e-05,-30659732.0961,1.24990967639e-05,0.0,5768916.48216,679.58021668,648.932527322,66829708.7374,1721.23818061,35055423.4482,69228357.0385,4447.7364083,4438.74663417,0.0
1.15028661598,0.927123551166,9.77932234437e-06,-7066020.40657,2.20068195627e-05,0.0,5538001.46743,684.884528707,653.957459314,66198556.0503,1823.74574339,45990555.8678,68680367.3812,4774.83974293,4764.79873984,0.0
1.19106580035,1.2464596212,9.99950419369e-06,5603849.50514,1.89398747494e-05,0.0,7159408.1565,687.106137264,656.52669471,65597674.3434,1870.40098963,52944335.1623,66820205.0523,4944.11413725,4932.48132912,0.0
1.17806349167,1.18025267709,1.03257600514e-05,3163020.59586,1.94309759261e-05,0.0,5374962.64742,686.126369738,655.690228045,65645966.8078,1854.39904234,51387747.3474,66954729.6923,4890.14155392,4878.73516688,0.0
1.02028026765,0.938321103151,1.01375811965e-05,-70215196.1989,1.41937514703e-05,0.0,5869267.13592,677.71123474,645.614674524,67072595.3773,1653.04595158,49605195.2893,70910074.3847,4235.18339102,4226.8786884,0.0
1.10516443788,1.13534488406,1.0155935622e-05,-20909303.7447,1.58361929292e-05,0.0,5713066.35557,681.83933434,651.13981937,66705360.4927,1766.92553383,38040863.9413,68740786.6126,4587.53758164,4578.66053381,0.0
1.17954778788,0.977422630129,1.0419033568e-05,3817140.26546,2.29077134877e-05,0.0,5714075.03213,686.256604746,655.786715631,65643722.2547,1857.49595764,51759038.1288,66902801.294,4896.30286749,4885.28953348,0.0
1.15373086381,1.15429370555,9.98757685371e-06,-4742135.52922,1.89239031288e-05,0.0,5551858.13285,684.824914123,654.204415019,66243857.8513,1828.02738084,47465570.6575,68631872.7912,4789.13681568,4779.25184471,0.0
1.09930196568,0.784154437436,1.00944278444e-05,-22695963.9567,1.98210919218e-05,0.0,5705899.74743,681.707522874,650.778088085,66671836.6311,1759.61905288,37231796.8627,68627652.828,4563.20245954,4554.4179281,0.0
1.01698429303,0.892022961298,1.00570283608e-05,-71756458.3486,1.43136655363e-05,0.0,5894991.39991,677.737988083,645.414499882,67135656.1753,1649.33698241,50766579.6281,70668621.1081,4221.50180037,4213.55935472,0.0
1.12057739262,0.906436000032,1.02225379535e-05,-14421850.5819,1.97649314445e-05,0.0,5613243.9226,682.754290554,652.04166769,66389761.4703,1785.45358679,41579793.175,68407354.2297,4651.51675677,4641.89890587,0.0
1.13225711551,0.821546795274,1.01374337772e-05,-11267183.362,2.22316135717e-05,0.0,5565220.31855,683.537399134,652.744645015,66253360.7837,1800.36138305,43488519.5951,67518154.8679,4699.99928648,4690.08548248,0.0
1.0389619488,0.781400440212,9.65268780583e-06,-54873954.8132,1.60432669707e-05,0.0,5826121.65138,678.775661002,646.799865378,66970127.9394,1677.28113415,39838146.7615,71327724.8387,4312.73104947,4303.86598779,0.0
1.10577246966,0.753868350809,1.01024012979e-05,-20767654.7016,2.0933485959e-05,0.0,5683194.47959,682.093360107,651.176909751,66613447.3894,1768.07303091,38083468.0382,68668800.6827,4590.06152156,4581.17485571,0.0
1.02607350949,0.747165492161,9.61925445008e-06,-68076948.7944,1.58106699979e-05,0.0,5923618.4078,678.315403746,646.013702823,67254609.3734,1663.49577792,48091307.8583,71101160.772,4259.23113789,4251.95260781,0.0
1.11796648383,0.73906717655,1.0100517484e-05,-14735216.0745,2.19510301188e-05,0.0,5608511.97201,682.756200887,651.862055965,66379710.8323,1781.95433966,41407405.1046,68852268.7063,4640.67887438,4631.00669377,0.0
1.11815009717,0.969620905799,1.00207354055e-05,-15211396.764,1.87638652886e-05,0.0,5659031.12433,682.662230216,651.880311842,66540301.892,1783.10925254,41223733.1899,69196861.6976,4641.44105335,4632.16512781,0.0
0.951853628808,0.627563474404,9.95213774311e-06,-93538974.8843,1.67634264504e-05,0.0,6070430.89365,685.997067622,641.251816148,67578975.2114,1612.17417519,68625990.5228,68846138.2103,3951.14441318,3944.88775716,0.0
1.23562744833,1.03736203303,9.64764297253e-06,16364753.1636,2.52870490888e-05,0.0,17774585.2456,690.120650483,659.37229344,65186847.3887,1924.90871768,61285336.181,66942571.8126,5129.08953802,5117.39682009,0.0
1.16366025659,0.863890686822,9.73375213021e-06,-886963.466244,2.28668624511e-05,0.0,5474145.95307,685.78528594,654.857846328,65976599.5205,1839.10997263,49636560.2616,68033628.5223,4830.35372511,4819.83194166,0.0
1.11133042768,1.04897839151,9.79993103215e-06,-19381752.9616,1.69749733835e-05,0.0,5702316.10571,682.467677688,651.517666434,66683801.1902,1774.89023738,38958722.0456,68980107.1788,4613.1326053,4604.05627799,0.0
1.11812335066,0.899389282913,1.00449045751e-05,-15123857.0708,1.96866269158e-05,0.0,5652419.05758,682.680155943,651.878968687,66520343.4566,1783.12636438,41223352.9722,69164210.0378,4641.33002859,4632.05360642,0.0
1.03037644613,0.810313786999,1.01204538247e-05,-59748829.6385,1.52896658868e-05,0.0,5844908.57828,678.017636409,646.256510645,67017099.4784,1666.79339784,42511943.1699,71012273.9078,4277.09262789,4268.62536113,0.0
1.06995421541,0.904443474818,9.50252082436e-06,-35666664.4504,1.53509253011e-05,0.0,5817013.77403,680.239572231,648.787276,66981082.2684,1720.61266819,34717434.9405,70331722.0145,4441.37994817,4432.86321072,0.0
1.1057363427,0.91789034197,9.90398126286e-06,-18457696.3438,1.82281499657e-05,0.0,5727369.96547,682.048419425,651.179729117,66743041.6729,1768.23109668,39565243.2689,68958492.049,4589.91155855,4581.25532288,0.0
1.03694602206,1.09355738391,9.60715497356e-06,-57819317.2269,1.28989305281e-05,0.0,5910990.73819,678.650704178,646.773577105,67235301.4969,1677.79749993,41512815.649,71241666.5451,4304.36293757,4296.92977456,0.0
1.14421273543,1.09062753089,1.00465651095e-05,-8304395.46888,1.90473530326e-05,0.0,5552859.47416,684.097277152,653.436336475,66229583.241,1815.279316,45258489.8838,68419906.6144,4749.62706477,4739.48305693,0.0
1.02955582913,0.689198402828,1.0373755571e-05,-59275918.6848,1.62719553826e-05,0.0,5807426.12212,677.806203682,646.188687926,66906688.8839,1664.46530129,42158840.1649,70568877.764,4273.68624672,4264.80806697,0.0
1.23140406325,0.747485040254,9.49991008256e-06,15371229.1924,3.11161755344e-05,0.0,16741132.8396,690.220307753,659.106032668,65074563.9358,1920.31448178,60373396.5307,66690685.1112,5111.55826655,5099.74088084,0.0
1.00030166075,1.19199401726,1.00130906361e-05,-95732694.8578,1.18336200105e-05,0.0,5918809.30851,678.333799369,644.342037096,67171771.3589,1625.15048706,70557384.2734,70741115.0894,4152.25219377,4143.9389585,0.0
1.12800427801,0.996559256947,1.03281417285e-05,-12003830.208,1.94489413187e-05,0.0,5587139.52796,683.045971946,652.458454326,66318498.7724,1794.67420534,43016002.1556,67314052.9067,4682.34575802,4672.50398017,0.0
1.10502209916,0.907384721452,1.00075617743e-05,-21041053.5113,1.8549617181e-05,0.0,5705600.60352,682.042062696,651.138134553,66677663.6015,1767.11117788,37964403.4662,68678254.1582,4586.94673361,4578.07182299,0.0
1.21740653436,0.970152254653,1.00475838187e-05,12456378.9235,2.5588546062e-05,0.0,13718355.1975,688.879539748,658.186520698,65143251.0222,1901.88292261,57933192.8139,66340217.9767,5053.45452413,5041.43047469,0.0
1.11723318809,1.03019535399,1.01868915848e-05,-15131323.8207,1.78508561267e-05,0.0,5639125.28743,682.483775789,651.8138204,66481788.0175,1780.86722871,41236020.1354,68985685.6059,4637.63496376,4628.07329772,0.0
1.04919473174,1.16175656912,1.01313777345e-05,-46488706.4284,1.27909564929e-05,0.0,5824561.95482,678.678715356,647.447002577,66989020.4326,1691.72680899,36255142.0002,70407678.9651,4355.20733145,4346.52472684,0.0
1.03891274496,1.20839697138,9.69779731149e-06,-56536506.0666,1.20867925978e-05,0.0,5866169.17732,678.585963463,646.80827391,67092476.4716,1677.97833394,40712373.066,71205343.3528,4312.52680433,4304.01042553,0.0
1.0794305238,0.841225097656,9.83249820503e-06,-30377106.7441,1.71900696627e-05,0.0,5782918.08616,680.495301764,649.349099097,66898553.8958,1733.56952412,35441063.2239,69348999.4415,4480.71610429,4472.24221239,0.0
1.04978029997,0.780780410911,9.97649901595e-06,-45317101.633,1.63014289283e-05,0.0,5806673.48855,678.939839978,647.490064821,66924852.5074,1692.49133656,35890210.577,70473004.2898,4357.63802518,4348.91409976,0.0
1.03249171989,0.932239874728,9.89488417885e-06,-59079551.907,1.42988496684e-05,0.0,5905281.28558,678.17160689,646.40906393,67213292.9673,1672.02028183,42217114.788,71041356.5791,4285.87312926,4278.50263757,0.0
1.17692887525,1.23599920854,1.01432914264e-05,2972226.70413,1.82048558711e-05,0.0,5451175.50937,686.077344069,655.650820767,65897838.7562,1854.96150898,51514998.9962,67199443.3939,4885.43176116,4874.79131198,0.0
1.09881843111,0.878606562734,1.00681342392e-05,-22938870.8968,1.84572598224e-05,0.0,5716359.94538,681.646237536,650.743182306,66701640.0159,1758.89443904,37119542.3299,68809075.1389,4561.19530754,4552.41838916,0.0
1.03528520465,0.839236989952,9.82839907857e-06,-57428921.7552,1.52308574152e-05,0.0,5896150.366,678.36352323,646.588806629,67191101.4224,1675.78612968,41212006.212,71102003.7716,4297.4688845,4290.05964932,0.0
1.10389755554,1.06469972589,9.78742125127e-06,-20343119.3885,1.60447961954e-05,0.0,5658236.49635,682.09506303,651.047006105,66514795.5705,1762.07467041,38659073.7829,68579206.1809,4582.27875305,4572.17429129,0.0
1.0342673266,0.799163180617,1.01087528412e-05,-56312520.5745,1.5528722576e-05,0.0,5836135.99344,678.173976019,646.501750484,66996081.3366,1671.96677337,40549092.7581,70861029.1197,4293.24367272,4284.71353609,0.0
1.06537185422,0.874376650204,1.02788260214e-05,-35723168.77,1.61544381194e-05,0.0,5796440.00399,679.439407226,648.49289851,66915829.2534,1714.91868459,34618577.0872,69934346.2842,4422.35856687,4414.00604604,0.0
1.12005321702,0.773639914717,1.05000108684e-05,-14129097.2054,2.24505706958e-05,0.0,5531919.71682,682.717162459,651.989774468,66138086.7026,1782.99016634,41620160.7304,68011977.4128,4649.34090385,4638.94956974,0.0
0.993451465434,0.845996198733,1.01551299778e-05,-95243359.2009,1.49218684294e-05,0.0,5911454.06959,678.989107592,643.904849946,67143065.9468,1616.41773197,70126692.908,70374543.7038,4123.81703302,4115.69516774,0.0
0.949262782889,0.996603086086,1.06073938364e-05,-93043503.1895,1.37578260905e-05,0.0,5997504.65556,684.90184985,641.06136058,67351930.3082,1604.33945344,68190113.2173,68405914.261,3940.38981177,3932.96367977,0.0
1.19544809379,0.986897248187,9.94934900825e-06,7246444.81049,2.32235245778e-05,0.0,8683362.81742,687.564279514,656.853576807,65557084.4734,1876.87044173,54024967.5484,66627109.7345,4962.30503732,4951.01778864,0.0
1.12808539538,0.917822300596,9.74091454516e-06,-12927394.6915,1.96997373762e-05,0.0,5575738.81024,683.591443705,652.525236131,66292825.8431,1793.79450453,42495257.9632,67666605.737,4682.68247622,4672.36064592,0.0
1.05160402334,1.13603472754,1.0076765701e-05,-42773386.7164,1.27843987679e-05,0.0,5839215.03208,678.765344238,647.601359256,67026069.4888,1695.52188616,35319784.319,70592757.5342,4365.20830088,4356.79572507,0.0
1.18458450762,0.909626851853,9.59743516942e-06,3990126.70583,2.33316123139e-05,0.0,5893892.74389,687.121780294,656.118016576,65683629.8007,1863.78075811,52271574.8547,67027065.8797,4917.21029113,4905.88940936,0.0
1.15219002814,0.95094880208,9.97769471063e-06,-6660684.97294,2.24625595297e-05,0.0,5565820.43364,684.846219234,654.119209717,66294160.2489,1827.85276752,46315527.3635,68704774.3883,4782.74080681,4773.30478958,0.0
1.068834341,1.03432748905,9.81914806345e-06,-35637709.6034,1.42804834274e-05,0.0,5812312.64509,679.900507977,648.714633746,66970581.5234,1719.00041197,34734318.1995,70159301.9901,4436.73134949,4428.23241315,0.0
1.01270044618,0.838953724751,9.70331378612e-06,-83476214.5991,1.4700660706e-05,0.0,5959354.60435,678.07053751,645.158806186,67318739.0365,1645.54559436,60049838.6752,71211213.9383,4203.71955209,4196.63105145,0.0
1.10340763846,0.934887349692,9.83733478618e-06,-22199529.8198,1.8070008671e-05,0.0,5731237.03844,682.052249853,651.048741996,66761391.1435,1765.65211256,37533189.2379,68541826.6855,4580.24510725,4571.59609759,0.0
1.12085648423,1.00266213802,9.99017689023e-06,-14443296.0247,1.84797908439e-05,0.0,5602653.48389,682.908433928,652.040435701,66361707.8283,1784.51808174,41576111.1974,68291397.5306,4652.67526604,4642.56062318,0.0
1.0513457307,0.776324675784,9.85657068689e-06,-46136061.209,1.65215043323e-05,0.0,5798869.38542,679.159777825,647.586120765,66904208.869,1694.39403643,36125949.2256,70536453.2965,4364.13612814,4355.24036755,0.0
1.05911974573,0.935434065108,9.69934344106e-06,-39736962.9659,1.48664888078e-05,0.0,5834712.50091,679.481251213,648.071225062,67018056.8313,1706.07073616,34864198.6376,69852265.1872,4396.40606453,4388.05771849,0.0
1.13741333403,1.11614414025,1.00078055786e-05,-9085009.12375,1.81405600045e-05,0.0,5570212.15806,683.855998715,653.150402118,66282952.7857,1805.95753008,45125439.4593,68063082.5354,4721.40274956,4711.27754753,0.0
1.05803550713,1.26036727406,9.92926593328e-06,-39428286.4546,1.17204811081e-05,0.0,5813713.45601,679.267736278,648.057914896,66943840.0944,1702.77357007,34766685.3636,69801175.9953,4391.9053901,4382.86524892,0.0
1.00817359404,1.08037074,1.00206504746e-05,-87629661.5592,1.28750023418e-05,0.0,5892469.86383,677.881129505,644.844109769,67103194.9935,1635.71566561,63537003.2043,70781852.8697,4184.92858886,4176.48700837,0.0
1.27012675091,1.02583578124,9.94430291474e-06,23072384.0636,3.01567795411e-05,0.0,24975275.0609,692.303424336,661.499149439,64390289.7278,1962.3300338,66346070.5868,67316420.1605,5272.29614303,5259.28035979,0.0
1.10135929194,1.08003188231,1.0082327854e-05,-22210131.7584,1.61751658778e-05,0.0,5723430.29382,681.703442657,650.91140771,66728963.3052,1762.02368091,37472474.1255,68528196.1384,4571.74242084,4562.9254675,0.0
0.988993353969,0.757013827666,9.90777957678e-06,-95125343.5946,1.54981918429e-05,0.0,5924174.48108,680.11212443,643.621800017,67171594.3959,1612.72043233,70022729.8802,70267272.8092,4105.31141233,4097.18132809,0.0
1.16110109126,0.960436465398,1.00824746309e-05,-1010625.08121,2.13183929508e-05,0.0,5447049.58848,685.382589926,654.678359759,65877038.0572,1834.50973162,49315698.3156,67695920.1141,4819.73062982,4808.86506391,0.0
1.18327163235,0.873645055338,9.94931980305e-06,4375724.81556,2.46419590012e-05,0.0,6151778.19482,686.794888902,656.033056835,65756821.5627,1863.32092684,52402134.1736,67016522.6033,4911.76054588,4901.01769408,0.0
1.14842783643,1.05415287522,1.02292485469e-05,-6179557.78487,2.06786963706e-05,0.0,5576799.82442,684.375336463,653.877238774,66311068.5943,1822.59863251,46606366.9107,68741003.8414,4767.12394902,4757.7646221,0.0
1.13939066095,0.979418746605,9.76800507644e-06,-9632719.66029,2.05893745597e-05,0.0,5622379.29437,684.152125337,653.302007933,66464390.0495,1811.34971034,44823419.2225,68105002.0073,4729.6106336,4720.38384945,0.0
1.06464140573,1.01479920018,1.01256461957e-05,-35543297.3741,1.44879345997e-05,0.0,5809624.46797,679.438831819,648.443332395,66948440.7093,1713.32547454,34665123.5004,70114804.77,4419.32647519,4410.89328865,0.0
1.06615311378,1.34267593152,1.00567059962e-05,-35937541.9981,1.16225596337e-05,0.0,5825872.60467,679.479107769,648.541196131,67000274.4673,1715.31669891,34684282.1539,70156476.3776,4425.6015753,4417.14316646,0.0
1.22166592983,0.90630721253,1.01202174708e-05,13333845.8757,2.74718455364e-05,0.0,14561057.8409,689.178827956,658.459168841,65038137.9409,1906.97412633,58641995.2755,66396255.1829,5071.13527472,5059.02922182,0.0
1.11692691467,1.18266962786,1.03619807071e-05,-15081477.9005,1.60328827334e-05,0.0,5645325.24537,682.288918772,651.792966095,66485434.855,1780.56723258,41137034.3093,68878013.3982,4636.3636228,4626.80758683,0.0
1.16422089965,0.833135617253,9.88292429564e-06,-767040.993842,2.36595473909e-05,0.0,5427587.98174,685.800901462,654.875405781,65833186.9995,1838.79649212,49474973.5959,67715003.416,4832.68095445,4821.73231127,0.0
1.07134228023,0.760134441852,9.87153590651e-06,-34248149.3648,1.76057753409e-05,0.0,5785419.10377,680.107641503,648.867216493,66882674.0257,1722.50466529,34795892.5011,69856058.4543,4447.14180523,4438.60351407,0.0
0.946117199341,1.20550140581,1.00731034216e-05,-93385965.0937,1.16231498565e-05,0.0,6108559.99175,686.099804396,640.88168877,67685287.818,1608.46595282,68491100.4854,68708726.3772,3927.33249446,3921.15264452,0.0
1.14781395967,0.830666686162,1.01136259828e-05,-7201191.04134,2.32618830786e-05,0.0,5513473.46893,684.460892294,653.702301164,66112928.5124,1820.2051063,45778168.6702,68534016.154,4764.57574659,4754.39013958,0.0
1.03650881418,1.07551518695,1.00776419093e-05,-53871866.2997,1.29975414556e-05,0.0,5845625.17632,678.165795243,646.634663795,67028432.034,1674.46819161,39280610.6222,71166314.3944,4302.54808766,4293.89478299,0.0
1.19212348098,0.909867071798,9.95929985458e-06,5968362.08616,2.46562997628e-05,0.0,7536723.08805,687.455517846,656.611509865,65446324.7544,1872.18654851,53163168.651,66664355.4097,4948.50456955,4936.83232812,0.0
1.05137888684,0.846628943998,1.00139909168e-05,-43087338.6499,1.55120566878e-05,0.0,5825005.42621,678.917259959,647.591582912,66981236.1025,1695.40488151,35371922.9912,70553298.5224,4364.27375927,4355.86472944,0.0
1.04321734788,1.02444694718,9.98706932481e-06,-50505227.9254,1.38373835567e-05,0.0,5835420.78167,678.548036273,647.049009799,67007358.8552,1683.87105504,37740334.4911,70973058.517,4330.39521105,4321.80939908,0.0
1.07917570671,1.04290985178,9.52392991068e-06,-31648470.9283,1.46609937803e-05,0.0,5809530.74786,680.61079342,649.332258937,66974622.0658,1733.06448067,35241396.4674,69810294.1327,4479.65835855,4471.18842028,0.0
1.03675877867,1.1343741766,9.81438528458e-06,-56743945.2664,1.25660336944e-05,0.0,5908232.4959,678.340538316,646.688888893,67230666.669,1677.58845528,40891088.6748,71100029.5476,4303.58569026,4296.15522655,0.0
1.2580045041,1.14167059898,1.04124929302e-05,21534016.7244,2.74242277931e-05,0.0,23465416.9415,691.09668967,660.726226493,64717291.4663,1948.77677569,65285573.6245,66126879.334,5221.97669652,5209.78203197,0.0
1.0437900824,0.905845711012,1.01662915239e-05,-48680323.4471,1.4947641136e-05,0.0,5818014.6884,678.500860446,647.111478608,66953818.3858,1684.54418132,36950641.6479,70902470.7929,4332.77263204,4324.08921113,0.0
1.06896420384,0.864281535167,9.92794356969e-06,-34601950.5964,1.63608671348e-05,0.0,5806422.3473,679.883553915,648.726889514,66947845.7816,1719.7908364,34724321.8731,70032682.5957,4437.27041014,4428.95656675,0.0
1.12971080186,1.04387475165,9.73991165611e-06,-12403053.8474,1.84070314742e-05,0.0,5630151.21519,683.573711811,652.653709025,66472994.8134,1797.66536854,42916730.054,67793531.7275,4689.42953852,4679.83734042,0.0
1.09616873829,1.23304664972,1.00141081767e-05,-24065364.5514,1.40369423509e-05,0.0,5751208.2453,681.342627966,650.540707918,66817624.5245,1755.16110171,36815345.1256,69115668.2104,4550.19643264,4541.46118479,0.0
1.18969255386,0.947808857991,9.541884063e-06,5211930.45987,2.30739695978e-05,0.0,6914338.71761,687.397422799,656.445976299,65759563.0049,1871.10478152,53130354.6776,67094299.144,4938.41379107,4927.44322445,0.0
1.07680101697,0.874266687415,1.00819232426e-05,-30424234.7441,1.67861901962e-05,0.0,5766293.31815,680.340073995,649.302024929,66838433.447,1729.42532826,35375134.6828,69283633.0565,4469.80102144,4461.17710184,0.0
1.10970746384,0.79604834414,1.04422133467e-05,-16042228.767,1.99065707171e-05,0.0,5589398.79115,682.047113487,651.344320792,66286385.3594,1769.66744321,40541930.3262,68964018.194,4606.3956824,4596.22521437,0.0
1.02951390713,0.916941449226,1.00659814614e-05,-61723688.649,1.44285171746e-05,0.0,5856354.88408,678.020232992,646.206235745,67051268.3171,1665.78501112,43752816.5137,71019901.952,4273.5122285,4265.14530351,0.0
1.08800824227,1.0779210202,9.80570773133e-06,-27380699.1064,1.49990112607e-05,0.0,5772904.90939,681.107551445,650.043477628,66869454.6928,1744.62404498,36025301.1056,69400244.0254,4516.32221366,4507.71479254,0.0
1.25270957674,1.16700863103,9.85745542519e-06,20074786.7048,2.47858597421e-05,0.0,21841161.3233,690.996150223,660.380819968,64887487.1755,1943.30092077,64226367.237,65126775.4044,5199.99745305,5187.77545899,0.0
1.16315889883,1.04769345546,9.85296343708e-06,-2386842.39601,2.1451512241e-05,0.0,5533852.65615,685.587805586,654.843148951,66195219.3257,1840.80497082,48773886.7351,68323693.5595,4828.27258904,4818.5397273,0.0
0.99944641626,1.22012680206,9.86405614271e-06,-95907661.0533,1.15774894929e-05,0.0,5999068.51755,678.462337147,644.311631412,67425226.6479,1627.36322737,70711019.4642,70980884.2948,4148.7020739,4141.79983327,0.0
1.10776358992,0.929091561165,1.00143855391e-05,-20230881.464,1.85467600772e-05,0.0,5698735.11738,682.183429543,651.300686449,66661638.0218,1770.62620744,38370195.7619,68793658.8455,4598.32666176,4589.4083554,0.0
1.14714411343,1.01265753841,1.02571315859e-05,-7415938.84092,2.1296768846e-05,0.0,5575628.24276,684.294607408,653.76974737,66322922.0254,1821.25157117,45724516.2754,68573748.4058,4761.79521485,4752.44014406,0.0
1.11682998474,0.923975472845,1.02107304614e-05,-15149515.5014,1.91594172814e-05,0.0,5630136.81677,682.487393308,651.787104952,66437199.2173,1780.37957972,41153190.6028,68992618.6016,4635.96126666,4626.4062516,0.0
1.03281956662,1.00381276251,9.79961459454e-06,-57243548.6311,1.3297008928e-05,0.0,5867072.5324,678.24433708,646.411844767,67068812.1144,1669.56806084,41132261.9584,71221710.6491,4287.23402104,4278.76485041,0.0
1.13005740818,0.689040306371,9.48444533537e-06,-12765662.1212,2.36596742038e-05,0.0,5618090.19499,683.936415618,652.666048915,66435737.6675,1798.92884453,42626014.4578,68178793.7613,4690.86830136,4681.37303164,0.0
1.08035423176,0.879339876233,9.66341410085e-06,-29985975.8866,1.64894529772e-05,0.0,5770485.82376,680.659750574,649.405696597,66851487.9706,1733.5151968,35429248.1619,69420195.7612,4484.55041604,4475.68011275,0.0
1.10997019939,0.898021625514,9.80207170944e-06,-19733636.0608,1.87612615286e-05,0.0,5695339.49824,682.46002765,651.435937568,66659484.0861,1773.26034728,38714201.0551,68885017.8897,4607.48629767,4598.43176702,0.0
1.09699884864,1.01244638835,9.53145010239e-06,-24734711.7188,1.61582743035e-05,0.0,5752126.74092,681.780510427,650.563374407,66819235.4236,1756.25161663,36725126.6701,69330578.338,4553.6422207,4544.79521412,0.0
1.12956091985,1.06586136948,1.05543780237e-05,-11274187.4716,1.87345134132e-05,0.0,5577405.66819,682.962133653,652.567373156,66295268.3727,1796.49838649,43421387.4121,67527500.8939,4688.8073783,4678.93926132,0.0
1.12135351582,0.895392992513,9.8255444032e-06,-14758557.5777,1.98336559082e-05,0.0,5659252.32326,683.024286118,652.09561294,66548176.8131,1787.6917093,41563197.7268,69061906.7536,4654.73844417,4645.5119633,0.0
1.02676782756,0.920137294621,1.00771134816e-05,-64701290.5471,1.45019005945e-05,0.0,5855312.05545,677.929362364,646.02682749,67043601.9219,1661.7172703,45716942.0645,70863288.6428,4262.1132522,4253.70444004,0.0
1.06432686896,0.922323734577,1.02235735802e-05,-36417091.2113,1.55588288256e-05,0.0,5804060.6377,679.403403372,648.424370148,66936682.4381,1713.51111897,34624961.8059,70069830.578,4418.02083305,4409.68449935,0.0
1.10128420008,0.907609457928,1.01886777861e-05,-21917125.1085,1.84280542241e-05,0.0,5706014.951,681.705546619,650.907336064,66677373.9528,1762.07418599,37568013.7162,68510095.717,4571.43071453,4562.61494544,0.0
0.991589563655,1.15421076043,9.71694592897e-06,-95544352.8024,1.22008602877e-05,0.0,6001786.08836,679.856444231,643.805326578,67409469.4083,1616.62254895,70391259.262,70633002.5394,4116.08827873,4108.95707964,0.0
1.15282869347,0.886576796493,9.86634649612e-06,-6596316.33343,2.24561686169e-05,0.0,5466446.2753,685.105148402,654.123316011,65968920.1557,1825.0210882,46096920.4714,68491368.8462,4785.39190659,4774.51381158,0.0
1.03874074832,1.05262004996,9.85580883002e-06,-55460021.5192,1.34198963819e-05,0.0,5851990.18325,678.490499273,646.791783125,67051114.3532,1677.87969169,40125150.7877,71181777.0687,4311.81284628,4303.29923704,0.0
0.949898888678,1.06780876755,1.0082700948e-05,-93510442.6229,1.28290069583e-05,0.0,6091765.81478,685.663218496,641.125237958,67643057.1534,1609.72911694,68600806.7191,68820083.3695,3943.0302869,3936.79994815,0.0
1.03210929876,0.895574444865,1.03808045495e-05,-56978258.2055,1.48327361563e-05,0.0,5828090.06253,677.816095466,646.357482764,66971186.0925,1668.65868711,40895202.9145,70727864.1506,4284.28569915,4275.70448249,0.0
1.19557566166,1.11567191392,9.82815171968e-06,6410940.76442,2.09819636152e-05,0.0,7948845.21955,687.596298161,656.838671129,65515547.8113,1876.17114102,53505992.2107,66698808.2782,4962.83457155,4951.11164723,0.0
1.09623167313,1.11079781587,1.00444177014e-05,-23914200.1187,1.53614519408e-05,0.0,5742282.0393,681.372272053,650.547043152,66791372.5737,1755.32669594,36855539.8419,69067477.3832,4550.45767516,4541.7214385,0.0
0.994246589462,1.13157574945,9.85052173627e-06,-95651391.6763,1.20540766366e-05,0.0,5989346.89477,679.021606573,643.975140791,67370886.5704,1619.2267954,70485729.131,70726322.4229,4127.11759286,4119.86373368,0.0
1.10986270482,1.13018434075,9.88997138148e-06,-17805838.912,1.57335987712e-05,0.0,5656841.12062,682.286241305,651.397360488,66521280.135,1770.21915878,39894736.6394,69031874.7568,4607.04008771,4597.11489719,0.0
1.12091878488,0.937768358115,1.00338878066e-05,-14196967.9462,1.92899944701e-05,0.0,5620606.58874,682.875589557,652.05520449,66421008.0971,1785.53691338,41886119.4973,68509455.2826,4652.93387604,4643.21114055,0.0
0.995420700216,0.935567381566,9.73925180527e-06,-95717815.8733,1.39504320663e-05,0.0,5999588.76087,679.251493214,644.056620622,67418426.8564,1622.08019917,70544273.0356,70782377.3665,4131.9913266,4125.14791115,0.0
1.16315559781,0.914414239092,9.55496452054e-06,-2754118.66938,2.16749589544e-05,0.0,5452649.2554,685.909309261,654.818288215,65913758.4493,1837.5877818,48556688.2596,68079439.0905,4828.25888651,4817.22591311,0.0
0.999074087928,0.786496879153,1.00437013477e-05,-95529572.159,1.53232469374e-05,0.0,5896270.47358,678.547863715,644.265846143,67101083.9471,1623.79176188,70378856.3403,70705400.1548,4147.15653899,4138.86322021,0.0
1.16783774777,0.91854923568,9.92404548268e-06,-768667.87443,2.43027638644e-05,0.0,5499697.06747,685.901633622,655.129878622,66097399.4274,1846.73069225,49560199.4259,67857759.161,4847.69449099,4837.88497373,0.0
1.07366456221,1.09985667933,9.87411474528e-06,-32774702.6781,1.39027885333e-05,0.0,5813125.75929,680.036451066,648.98190149,66980974.4373,1725.79678575,34982298.8124,69851107.9282,4456.78159773,4448.39698242,0.0
1.22600023804,0.929840211256,9.56860854267e-06,13741349.2875,2.63525957823e-05,0.0,15202582.1907,689.717008376,658.744959178,65132728.6778,1912.90067277,59051320.4319,66549724.8863,5089.1269881,5077.04651403,0.0
0.999873790988,1.00070000526,9.69700764064e-06,-96018327.3348,1.35429026005e-05,0.0,5993336.10762,678.638157403,644.339732577,67403270.7799,1627.94155316,70806533.2123,70973219.3712,4150.47610639,4143.56826025,0.0
1.15872363509,1.06090935411,1.00869904082e-05,-2767313.23614,1.95775995082e-05,0.0,5504580.54059,685.156891061,654.548051868,66081636.4319,1833.22669356,48387226.299,68098166.9355,4809.86180926,4799.54135782,0.0
1.04575010263,0.89158432048,9.90555950792e-06,-49771488.7418,1.52546362814e-05,0.0,5807808.65472,678.808896696,647.231851832,66924993.5536,1686.27603859,37465609.4872,70579305.9044,4340.90867602,4331.93041565,0.0
1.09208570804,1.00015770536,1.0237996671e-05,-24671417.3937,1.65915197048e-05,0.0,5737359.23511,681.017594779,650.251560917,66758700.1851,1749.99424616,36530118.5693,69013900.1644,4533.24777407,4524.57657949,0.0
1.0418096648,0.851584631637,1.01985688311e-05,-49645520.4507,1.53671006563e-05,0.0,5818251.50916,678.377352925,646.96140101,66951346.7286,1681.95572483,37406312.0978,70910139.7283,4324.55191858,4315.90075043,0.0
1.15081647304,0.878389460329,1.01942520457e-05,-4531271.28243,2.197322353e-05,0.0,5515110.15907,684.520774495,653.91880231,66109123.8953,1823.47618514,47399185.9218,68052362.3223,4777.03917959,4766.85385606,0.0
0.994560419856,1.02325545898,1.01544314619e-05,-95321866.5352,1.35215822078e-05,0.0,5918473.81598,678.791652931,643.97631484,67166273.7236,1617.78728126,70195794.5566,70459182.3868,4128.42030282,4120.28062382,0.0
0.969380609488,0.877811396443,1.0145900214e-05,-94434454.9192,1.46059080384e-05,0.0,6036012.83204,682.437400513,642.379855115,67496661.5983,1611.27648826,69414181.8226,69645798.1368,4023.89890998,4017.41138975,0.0
1.10956518124,0.839255207678,1.0151390315e-05,-17514979.1918,1.97235713463e-05,0.0,5654019.25523,682.188045058,651.381747546,66519291.2779,1771.34909625,39942308.5322,68999092.2522,4605.80506733,4596.47077614,0.0
1.10954688896,0.847330993972,1.01498130467e-05,-17533602.4786,1.96062514746e-05,0.0,5654875.92807,682.185225792,651.379922978,66522317.799,1771.31430871,39943820.9769,68985903.9029,4605.72913607,4596.39514518,0.0
1.09960904294,1.03448315078,9.78520591684e-06,-22896177.1489,1.60193049098e-05,0.0,5715780.25221,681.821194718,650.773965463,66695764.4914,1758.7125958,37326495.5486,69235845.266,4564.47713724,4555.19638271,0.0
1.28333664352,0.758190176591,9.73446545491e-06,25359261.8398,3.68816086725e-05,0.0,27086767.447,693.347024139,662.289095566,64154910.0167,1978.10797912,67732895.6276,68651262.8229,5327.13040725,5314.13877041,0.0
1.01320442344,1.0340953791,1.02688952623e-05,-79039544.6655,1.3160864641e-05,0.0,5940548.19837,677.375466329,645.186642305,67271567.3679,1646.069215,56410335.0091,70785693.1015,4205.8115617,4198.71621422,0.0
1.09952714917,0.894964814508,9.93851121455e-06,-23074885.2123,1.82223628668e-05,0.0,5721138.33914,681.765095484,650.785587741,66730137.7504,1759.82012065,37124823.4099,68941789.5075,4564.1371962,4555.34756565,0.0
1.05270567204,1.12239282463,9.91768645246e-06,-45261631.3587,1.30611327462e-05,0.0,5817127.92345,679.028589169,647.673922929,66962929.1013,1695.9422261,35885242.3452,70494279.2965,4369.78124464,4360.86300062,0.0
0.959714203216,0.984629720306,9.80928665564e-06,-93946026.5202,1.39920829874e-05,0.0,6074575.6806,685.245589244,641.758816183,67603194.7102,1615.78158847,68984286.3582,69208550.6011,3983.77365755,3977.41129339,0.0
1.07205730095,1.01601370351,9.32687436475e-06,-33703797.2014,1.41403599229e-05,0.0,5808266.17846,680.417656717,648.913519333,66947938.6247,1721.86583748,34955228.8755,70179916.8327,4450.10985624,4441.18651726,0.0
1.12510092295,1.03028923395,9.68641462859e-06,-13846607.0806,1.78306906177e-05,0.0,5602966.14495,683.352280562,652.316813178,66370897.3948,1789.87196005,41965985.106,67665339.2554,4670.29393117,4660.0244386,0.0
1.14409754135,1.04724689548,1.01952058106e-05,-8424264.53376,2.03653258731e-05,0.0,5595520.26859,683.964457886,653.44648469,66379322.4667,1817.39198611,45174521.7004,68373330.9316,4749.14889414,4739.84422575,0.0
1.10244383049,1.1290670416,1.01538239275e-05,-21665099.6955,1.56998547595e-05,0.0,5720733.41472,681.695935163,650.980079254,66724034.1189,1763.3950556,37656813.1939,68620384.2974,4576.24434036,4567.41027592,0.0
1.13255472738,1.1588746849,9.87211950318e-06,-11501862.6158,1.71699300066e-05,0.0,5624085.46609,683.620647521,652.845545661,66445434.4119,1801.1458245,43519838.9861,67605906.4357,4701.23467335,4691.59537677,0.0
1.05664258476,1.29678770069,1.02883799429e-05,-39778535.428,1.16807467884e-05,0.0,5840652.01143,678.796252985,647.91668461,67036462.4557,1703.04824674,34820426.5636,69686982.7464,4386.12336934,4377.90712083,0.0
1.05330452026,0.985203089711,9.7962561628e-06,-45429610.3803,1.44413026118e-05,0.0,5810837.59099,679.216378957,647.715371904,66942553.8146,1696.82142723,35906653.6803,70530322.104,4372.2670636,4363.33752038,0.0
1.02723709876,0.946186757057,9.78055457548e-06,-65057323.8856,1.40453878954e-05,0.0,5923647.59835,678.114428583,646.080398909,67259831.6958,1664.97980545,46002522.7841,70943755.7271,4264.06119695,4256.76603116,0.0
1.05062705967,1.06841764138,1.03973753686e-05,-42159232.8935,1.3412905525e-05,0.0,5838093.2544,678.481542721,647.536409135,67029214.4587,1695.17906155,35195245.5552,70441989.1055,4361.15292469,4353.02904585,0.0
1.10177972548,0.959336358944,9.91516072006e-06,-22250069.3911,1.75539231433e-05,0.0,5723291.35544,681.895916541,650.940065841,66738642.1708,1762.85215426,37473265.7738,68592296.6269,4573.48764047,4564.6639428,0.0
1.21440299684,0.789727514673,9.67030954883e-06,11812483.4293,2.8676202512e-05,0.0,13146588.4105,688.960410586,657.976174787,65295658.5183,1900.14308806,57453599.169,66393800.4871,5040.98683988,5029.4333055,0.0
1.14475233102,1.08459265839,1.00756331874e-05,-8529905.44257,1.97059083866e-05,0.0,5599956.08849,684.179596721,653.574620776,66391480.6838,1818.24545751,45205328.7691,68387859.8923,4751.86692606,4742.55012516,0.0
1.12049603374,1.07907028622,9.51802091286e-06,-15427898.5721,1.68030177962e-05,0.0,5654752.41652,683.116015601,652.024805879,66523193.3996,1784.96985576,41231512.9539,69422191.3336,4651.17903605,4641.36476961,0.0
1.1537512073,0.985465587161,1.01741670798e-05,-5749511.46979,2.22542784264e-05,0.0,5556913.059,684.670944443,654.120552808,66272864.5108,1829.68624553,46685501.9084,68558290.0691,4789.2212615,4779.76183178,0.0
1.03080622607,0.845537305094,9.33220406648e-06,-65314025.0888,1.51597502131e-05,0.0,5860793.67282,678.761384484,646.288107942,67057584.8963,1666.34411923,46157440.978,71129030.77,4278.87664442,4270.14682747,0.0
1.01753936008,1.0035911132,1.05370365006e-05,-68260561.3979,1.33962394055e-05,0.0,5882933.34443,677.197551605,645.437697189,67111637.4162,1650.28150083,48185455.4726,70671322.7032,4223.80588369,4215.94096739,0.0
1.05874413897,0.874261561409,9.62914942475e-06,-43456693.2369,1.57895564164e-05,0.0,5795408.61499,679.646979713,648.037611144,66903015.9146,1704.08387749,35446593.3308,70315474.4904,4394.84692086,4385.8271683,0.0
1.11198570452,0.870163249025,1.02739598992e-05,-16888808.3093,1.96221945915e-05,0.0,5644172.87904,682.219213938,651.510681831,66477887.7859,1774.72592745,40313243.809,69111880.6643,4615.85265946,4606.47761753,0.0
1.1530819797,0.958172425946,1.04099941134e-05,-3748505.37491,2.11695175095e-05,0.0,5458867.67359,684.728205392,654.178748464,65912781.2669,1824.72779264,47432377.017,67994551.0316,4786.44329773,4775.70566427,0.0
0.954649948689,0.960503147959,1.0149322572e-05,-93581540.0347,1.38957991741e-05,0.0,6057006.06475,685.111782019,641.425812153,67540549.3811,1610.73332941,68663422.5329,68884847.248,3962.75193701,3956.16969902,0.0
0.988514680218,0.950588639394,1.00827008254e-05,-95296818.7082,1.38174819619e-05,0.0,5983994.83891,679.432155695,643.60524857,67355477.4306,1612.78337739,70173397.9777,70414019.5508,4103.32443758,4096.23779846,0.0
1.1904346953,0.639772886977,1.04395525829e-05,6986840.53633,3.20497097367e-05,0.0,8420626.57903,687.288793354,656.480277593,65223487.0086,1870.27917706,53520675.4031,66957359.3992,4941.49442019,4929.97013737,0.0
1.04603525701,0.897473636687,1.02238468197e-05,-47315551.2379,1.51360521759e-05,0.0,5806991.03896,678.674989044,647.327484266,66925622.6396,1687.5466491,36490919.635,70232637.563,4342.09235185,4333.37230796,0.0
1.07512223443,0.908855603628,9.75632553479e-06,-32524142.9731,1.60502604492e-05,0.0,5801670.52656,680.269084532,649.065673793,66946671.8394,1727.85697247,35025952.4585,69816797.9759,4462.83239512,4454.42524681,0.0
1.04031592835,0.983245425339,9.56267368459e-06,-54545118.2094,1.41447322087e-05,0.0,5839476.69946,678.808548279,646.874040185,67012371.0269,1678.90434258,39697398.7049,71358150.3314,4318.35141858,4309.46382379,0.0
1.086182352,0.885366916217,1.00403556779e-05,-27246812.3985,1.72928502136e-05,0.0,5754455.91112,680.916707094,649.923717543,66813716.1829,1742.38928106,35940258.9536,69276736.3381,4508.74294315,4500.1640173,0.0
1.09266886954,0.908918366785,1.00668866829e-05,-24981148.3333,1.75530755342e-05,0.0,5736614.86906,681.212509105,650.286365847,66770227.9206,1750.84792697,36511813.2376,69112218.5392,4535.66847746,4526.98814622,0.0
1.06434005015,1.20211036232,1.04846770647e-05,-34918863.3032,1.28792727478e-05,0.0,5820456.48799,679.090546584,648.430326085,66990046.2308,1713.83984064,34661877.9746,69918642.0289,4418.07554817,4409.92734639,0.0
1.02662722186,0.862297298379,9.54907387209e-06,-68108314.7825,1.47786254727e-05,0.0,5930364.81294,678.36490357,646.050234132,67275507.9996,1664.15601418,48119342.0684,71151535.8829,4261.52959794,4254.24315351,0.0
1.10790520008,0.909903809742,9.7107594671e-06,-19358029.0803,1.83655677441e-05,0.0,5632180.93762,682.459292668,651.285812855,66441076.4192,1767.35584415,39156821.5985,68751382.5309,4598.91448553,4588.73813138,0.0
1.12398470255,0.831795540863,9.7394130357e-06,-14215054.3838,2.08840548801e-05,0.0,5641122.72692,683.281223542,652.264263445,66505357.0352,1790.7783309,41799932.9626,68757007.1607,4665.66050029,4656.28960355,0.0
1.13572886076,0.761351110604,9.76294105148e-06,-10752054.1896,2.3380516335e-05,0.0,5581982.94021,684.110994546,653.056955664,66317598.8104,1805.68445241,44003875.8323,67673220.14,4714.41050101,4704.71770842,0.0
1.02615287822,0.916572491355,9.76155357507e-06,-66597450.2573,1.4269181094e-05,0.0,5925912.84552,678.103556009,645.999549445,67264302.2383,1663.54170363,47054623.9297,71011599.255,4259.56059749,4252.2809332,0.0
1.17085081348,1.0953397109,1.00962726088e-05,1239333.00087,1.98918250662e-05,0.0,5453699.40435,685.842016049,655.29002918,65910923.3836,1847.52554277,50528038.5764,67556496.2289,4860.20172676,4849.55343308,0.0
1.11828528099,0.945548461534,9.87646309705e-06,-15320393.3231,1.88824309901e-05,0.0,5611973.28589,682.846244138,651.874018554,66383299.0812,1781.294271,41163984.1985,69079561.3892,4642.00220139,4631.932202,0.0
0.992613487815,0.950230264412,9.91358580912e-06,-95310178.745,1.40508181537e-05,0.0,5926666.55843,679.495187439,643.852807396,67181547.8098,1615.14388554,70185409.3212,70433953.0274,4120.33858792,4112.15003462,0.0
1.08481417244,1.01364588615,1.02333558156e-05,-27161004.7734,1.58431156048e-05,0.0,5758843.5133,680.644445189,649.833261842,66828286.0155,1740.48228244,35888825.6895,69231461.4199,4503.0636298,4494.5060307,0.0
1.10971282035,0.813617130249,1.00449897445e-05,-17290125.8021,1.99142768816e-05,0.0,5621991.83253,682.332070561,651.37937107,66401867.0228,1770.32401694,39994870.695,68955268.75,4606.41791727,4596.49531209,0.0
1.15319380345,1.01987072742,1.03197689785e-05,-4518700.81279,2.17789268257e-05,0.0,5549858.12769,684.704125117,654.221383301,66233564.7894,1828.58784735,47404406.9932,68493882.5416,4786.90747812,4777.45993277,0.0
1.1533308582,0.921996521947,1.03557782435e-05,-5383045.84657,2.35162657115e-05,0.0,5538855.96588,684.764585756,654.2302602,66179980.3922,1829.12811813,46745770.3692,68425225.1091,4787.47639239,4778.02372301,0.0
1.10490740437,0.95627090953,9.97058163716e-06,-21167359.4669,1.79156368747e-05,0.0,5711281.71302,682.040880471,651.134061511,66693734.0025,1766.92505048,37925116.4779,68681271.7886,4586.47063554,4577.59753856,0.0
1.18765805446,0.871030678171,1.06118849754e-05,6556933.32038,2.58759309507e-05,0.0,7944925.37383,686.776753453,656.346888202,65445167.4049,1866.98041727,53246571.3352,66386100.6604,4929.96858406,4918.81444745,0.0
1.1038288798,0.989209278868,9.97758928095e-06,-21474594.4204,1.74268188403e-05,0.0,5716663.78039,681.960919864,651.069862948,66708291.152,1765.48785671,37787056.6185,68634037.6892,4581.99368005,4573.13763025,0.0
1.15550129229,1.1195639992,9.74941309907e-06,-4983664.94554,1.950965612e-05,0.0,5576164.92214,685.08194746,654.329941092,66338111.2082,1831.44414296,47498749.9327,68784293.4687,4796.4858643,4786.90502917,0.0
1.00409811965,0.946261077438,9.99252090172e-06,-92248650.3623,1.41521505017e-05,0.0,5894184.20666,678.186984277,644.585973499,67101959.8368,1630.37975446,67479008.3054,70909303.4799,4168.01129467,4159.63633894,0.0
1.01391060539,0.922186694109,1.03694163976e-05,-77112953.2111,1.40887912825e-05,0.0,5929441.33561,677.30229967,645.221541476,67240372.8936,1647.10514909,54865100.014,70625506.4754,4208.74292297,4201.63759085,0.0
1.22222951636,1.19372644267,1.0228958188e-05,13528238.3293,2.21172247495e-05,0.0,14773073.3703,688.908926549,658.501875697,65210182.4019,1907.52082015,58871769.6512,66595259.8225,5073.47472241,5061.5827067,0.0
1.08329012962,0.810014158459,9.96641652198e-06,-28480069.7816,1.79822766582e-05,0.0,5760483.13369,680.851111982,649.752530523,66826410.6863,1738.6672555,35746876.1753,69284712.3227,4496.73732805,4488.20345964,0.0
1.08756108264,1.19002466423,9.91370189689e-06,-27245770.5781,1.38152958679e-05,0.0,5776701.5776,680.959419195,650.012726384,66881857.4734,1743.95916172,36023069.2739,69388684.1293,4514.46605404,4505.86561497,0.0
1.16624270134,1.12308850763,1.01415350644e-05,312831.314292,1.90269590194e-05,0.0,5442436.82877,685.544331942,654.995098483,65865937.1815,1840.58448916,50019399.1622,67517286.6129,4841.07345326,4830.0953779,0.0
1.00243456791,1.12261991713,1.00075061639e-05,-95818101.5907,1.24359087354e-05,0.0,5909521.83165,678.199033776,644.48099742,67146788.4099,1628.03470505,70634027.1144,70757541.2088,4161.10589139,4152.7578668,0.0
1.12036250419,1.06829530591,1.02730035465e-05,-14414845.0321,1.75819699597e-05,0.0,5625528.07006,682.627361215,652.028504032,66428944.933,1785.00652415,41572933.4446,68400337.6743,4650.62475489,4641.01141049,0.0
1.18695495838,0.935822957755,1.02315849196e-05,5664295.4229,2.39898772131e-05,0.0,7183500.37342,686.896922779,656.26111319,65475993.1144,1865.64387589,52877755.7122,66700534.1525,4927.05003224,4915.58952879,0.0
1.1053835979,0.882460502694,1.04295428822e-05,-17837127.5813,1.88330621648e-05,0.0,5655304.97444,681.737136115,651.118044591,66513998.5549,1765.65524939,39708424.153,68816877.9876,4588.44731488,4579.08364183,0.0
1.16354553501,0.831421441924,9.75551141108e-06,-2227663.66606,2.54209574173e-05,0.0,5514824.85377,685.841370449,654.905400196,66135526.7806,1841.65026455,48955040.4838,68304123.2149,4829.87751583,4820.13832886,0.0
1.0006704876,0.927194775911,1.00476706371e-05,-95753017.9813,1.42582866616e-05,0.0,5899399.87436,678.355006542,644.365982508,67113892.3081,1625.83405302,70574549.2051,70709053.094,4153.78319403,4145.46643796,0.0
1.10021595403,0.8572261373,9.88887518555e-06,-22787299.8034,1.86377771022e-05,0.0,5721083.26222,681.858913701,650.830859007,66728548.3303,1760.91044632,37227775.4504,68928589.8085,4566.99642518,4558.1973839,0.0
1.2527834794,1.13956821707,1.04829985751e-05,20674801.4897,2.7072186399e-05,0.0,22609643.005,690.694500575,660.388383347,64813472.9834,1942.97527109,64704947.1242,65518866.213,5200.30422299,5188.32367907,0.0
1.08114529066,0.976187065235,9.90278817726e-06,-29463978.976,1.58104704104e-05,0.0,5780071.20718,680.685484622,649.598912961,66882015.8914,1735.72318365,35611818.8782,69351395.2285,4487.83410153,4479.33358436,0.0
1.02815842428,1.00890332636,9.97805507849e-06,-61846965.3607,1.35221310054e-05,0.0,5916400.74406,677.930735207,646.137051041,67240858.5965,1666.2056444,43825255.792,71000669.0551,4267.88561919,4260.57726984,0.0
1.17041062671,0.76802779244,9.88493163714e-06,970383.84037,2.54225150313e-05,0.0,5402441.0082,686.199632805,655.264370774,65749688.4467,1846.81125247,50484722.5577,67512803.0767,4858.37451147,4847.42061814,0.0
1.05556063811,0.729790885877,9.40032061584e-06,-42465538.6851,1.64221738549e-05,0.0,5801633.89599,679.686318789,647.850354815,66897703.1372,1699.32748966,35275098.2033,70639289.165,4381.63220879,4372.45598815,0.0
1.09529191635,1.15563825705,1.02577662636e-05,-23598878.5936,1.49161137424e-05,0.0,5738670.15485,681.164531178,650.496464932,66768029.003,1754.04813649,36905846.2858,68957319.6702,4546.55674477,4537.83526846,0.0
1.15915262155,0.887245685559,9.94866976432e-06,-3040865.12839,2.21972571086e-05,0.0,5454024.67732,685.431151816,654.566097368,65929084.1144,1832.72208558,48065413.8113,67722557.753,4811.64253205,4800.8095248,0.0
0.980826966473,0.853340965301,1.03323080196e-05,-94856215.2346,1.4864618137e-05,0.0,5999718.41129,680.33234755,643.114256482,67408721.1164,1612.13074164,69785800.1801,70022751.2885,4071.41273783,4064.77136701,0.0
1.20352553125,0.884438470375,1.01725236252e-05,9046953.9313,2.63919727798e-05,0.0,10422307.7773,688.004558935,657.284389491,65243001.6385,1885.54378408,55193052.7513,66692630.9786,4995.83448022,4983.96543622,0.0
1.20555201416,0.705932442599,1.01320476878e-05,10140698.9912,3.12878728262e-05,0.0,11466445.6981,688.311558827,657.387449215,65110548.6863,1888.18710377,56014554.9528,66752815.0604,5004.24641078,4992.33908001,0.0
1.07511420696,0.842739720463,9.96904673128e-06,-31755880.0983,1.69540550104e-05,0.0,5788874.19029,680.137548392,649.060524276,66911282.6372,1727.90148479,35119387.0008,69612923.7571,4462.79907309,4454.39204894,0.0
1.03793035479,0.823648648291,9.82084876489e-06,-55867437.2556,1.54824903511e-05,0.0,5889211.54243,678.469115494,646.750866781,67171870.2165,1679.33416786,40383773.7748,71108847.5582,4308.44890273,4301.00154273,0.0
1.14976273623,1.10896891822,9.99890845694e-06,-7367026.05627,1.96563369197e-05,0.0,5588144.7166,684.577706971,653.947412226,66362203.6815,1824.57562833,45873016.3702,68817960.9839,4772.66511809,4763.26975466,0.0
1.1528539769,0.896189357103,1.0481308599e-05,-3634891.54113,2.22057286764e-05,0.0,5449048.20468,684.706442098,654.162138568,65883530.4017,1824.47316723,47446981.775,67917673.4895,4785.49685811,4774.76327564,0.0
1.13992848807,1.16369747958,1.02982544985e-05,-8966857.19187,1.79602148646e-05,0.0,5553335.60231,683.777054007,653.2623885,66226178.6181,1809.3652148,44828001.4705,68196991.7603,4731.84315398,4721.69617129,0.0
1.07918373299,1.11861904643,1.03146945683e-05,-29106828.3134,1.44026810583e-05,0.0,5782158.20615,680.235215764,649.484113575,66896783.6053,1733.38056019,35554602.8408,69251888.3834,4479.69167564,4471.31810197,0.0
0.951127285582,0.984089616354,1.01483699581e-05,-93529313.3682,1.35840858177e-05,0.0,6081808.00689,685.358223489,641.203892826,67615070.5616,1609.4823537,68617430.0417,68837323.3435,3948.12936245,3941.88258518,0.0
1.16815850947,1.17942195117,9.8531464673e-06,-917439.10778,1.97072651691e-05,0.0,5528553.90924,685.813854015,655.152017081,66184502.1455,1846.87617633,49549093.5273,67995556.3213,4849.02597281,4839.2111915,0.0
1.17841450112,0.929161146949,9.42738235753e-06,2013512.70833,2.24006771118e-05,0.0,5409485.85796,686.852646528,655.758730123,65803363.3155,1856.55161728,51237199.7031,67016435.6515,4891.59859415,4880.40240392,0.0
1.18101509125,0.787097373016,1.02264899306e-05,4396788.54827,2.67466792197e-05,0.0,6039430.09091,686.654509784,655.871814621,65462611.0418,1858.4892832,52129242.5812,66784998.8613,4902.39364378,4890.9294324,0.0
1.04694401411,0.76869805503,9.90664098714e-06,-47212831.8185,1.62612332651e-05,0.0,5815458.67917,678.862701693,647.308044479,66944666.3988,1688.71049282,36569486.5125,70409743.7908,4345.86460257,4337.18679405,0.0
1.13722978768,0.729584123601,9.63133258883e-06,-10708556.6684,2.39430697453e-05,0.0,5587706.47163,684.296135188,653.156275606,66341678.2471,1807.98957222,43987570.1924,67729229.3808,4720.64084866,4711.02781815,0.0
1.08291736373,0.855778467562,1.02654932027e-05,-27662282.1323,1.7575458061e-05,0.0,5752042.25941,680.584104882,649.716888277,66804710.3184,1738.11770224,35797867.7678,69196410.5904,4495.18997684,4486.66190861,0.0
1.17075462279,1.00791532635,1.00465029898e-05,1174917.62064,2.13163739388e-05,0.0,5446754.54073,685.93222504,655.293407383,65887905.2329,1847.57980605,50502660.9195,67530254.5386,4859.8024392,4849.15582226,0.0
1.09101517804,1.11651287658,1.04375462751e-05,-24644860.3904,1.53138280729e-05,0.0,5745081.7015,680.793129971,650.190384739,66791690.1507,1748.84292841,36538859.7468,69004047.5403,4528.80400404,4520.2462376,0.0
1.07907330887,0.798311288023,1.02181342989e-05,-29104837.172,1.79994246271e-05,0.0,5749008.69216,680.428301157,649.469424553,66790854.46,1732.48065337,35458093.2383,69190072.2399,4479.23330512,4470.57278553,0.0
1.09564893992,0.994654430325,1.00140893807e-05,-24164692.3862,1.68001242222e-05,0.0,5736503.34062,681.40484159,650.501374745,66771797.9209,1754.66898445,36758679.6078,69063743.5794,4548.03874961,4539.31166688,0.0
1.1957877506,1.05983527673,9.43385862178e-06,6642620.50264,2.14215926583e-05,0.0,8184492.98993,687.760837493,656.848671408,65780880.6561,1878.57659693,54073204.8987,67067619.3811,4963.71495274,4952.74194186,0.0
1.19887539196,0.894618530546,1.04225567708e-05,9413322.24255,2.60675480211e-05,0.0,10735655.0131,687.488667386,657.028061192,65425644.228,1880.90483349,55477620.2859,66723339.7671,4976.53175203,4965.40819307,0.0
1.17258540136,1.1131643151,9.87146504439e-06,1227340.11959,1.94568613436e-05,0.0,5422090.86386,686.11342156,655.389048095,65821457.4637,1848.41276911,50554336.8307,67555860.4883,4867.40200105,4856.19911421,0.0
0.999469543533,0.898877716572,9.93370740588e-06,-95694203.4195,1.43763157061e-05,0.0,5975588.0228,678.818404125,644.312116917,67358234.9486,1627.66592319,70523651.1464,70809987.3488,4148.79807521,4141.80544637,0.0
1.03992746823,1.05098224359,1.02610652877e-05,-50386850.265,1.34310900283e-05,0.0,5832739.83468,678.150826143,646.834152803,66992657.662,1679.31621003,37654427.6153,70821834.2034,4316.73892062,4308.11699081,0.0
1.04697265369,1.11925492677,1.01144746183e-05,-46194227.8332,1.29293499167e-05,0.0,5829554.2533,678.548902834,647.304343686,66992471.3705,1688.53616876,36107830.3744,70410212.0188,4345.98348547,4337.30521177,0.0
1.09162572084,1.07532593912,9.96841315899e-06,-25666240.1055,1.53947692724e-05,0.0,5755939.61017,681.148214794,650.227738748,66824927.4937,1749.34701713,36347448.9208,69269572.5264,4531.33836721,4522.67437667,0.0
1.05973250824,1.13931344464,9.67661664702e-06,-40483342.9137,1.29470010277e-05,0.0,5828541.70838,679.480661959,648.105186177,67002266.0603,1705.86295419,34977718.2687,69848152.1616,4398.9496417,4390.24314252,0.0
1.14653571902,1.0717339847,9.91229056156e-06,-8395949.5718,1.98691461007e-05,0.0,5600308.78526,684.402323583,653.693026223,66391904.8855,1820.60446,45330498.1262,68462690.61,4759.26976965,4749.9261119,0.0
0.951797722893,1.04572064888,1.01761611544e-05,-93477656.9652,1.30704189433e-05,0.0,6067373.94068,685.359348834,641.242113179,67567376.3815,1609.49065058,68571970.1173,68792078.0103,3950.91234773,3944.36985689,0.0
1.17462707375,0.75506118971,9.72086029173e-06,1931861.47204,2.59902712347e-05,0.0,5391675.18344,686.569272439,655.520897971,65737363.7891,1852.05084701,51114156.5326,66981365.3262,4875.87698314,4864.84746429,0.0
1.13199430433,1.28505181889,9.97609790621e-06,-10779499.9056,1.56705723047e-05,0.0,5631011.725,683.447076691,652.818657171,66469654.1818,1800.07040494,44065961.5864,67725005.9399,4698.90835727,4689.30707735,0.0
1.10821055209,0.783098023395,1.01842417507e-05,-17806083.3775,2.04541692995e-05,0.0,5651598.31073,682.121864352,651.300036119,66510669.2134,1769.67184825,39815550.8711,68910449.5708,4600.18200173,4590.86930647,0.0
1.24674486422,1.00002703244,1.02317749704e-05,19046643.5331,2.85397150994e-05,0.0,20805189.5212,690.614211656,659.994648716,64717040.7244,1935.38776198,63259885.9306,64784539.5539,5175.23793138,5162.74684041,0.0
1.09766142141,0.934207278168,1.01596708593e-05,-23052583.6395,1.77623474659e-05,0.0,5720013.98647,681.484968229,650.665533027,66712920.1504,1757.33803141,37085006.4096,68859077.1391,4556.39256027,4547.63378568,0.0
1.15027231657,1.18007762842,9.71689687246e-06,-6218002.17606,1.79056475555e-05,0.0,5574694.12395,684.742469335,653.96713625,66317597.495,1823.51384374,46847778.0837,68879681.281,4774.78038608,4764.8610308,0.0
1.17096827351,0.796749016514,1.01342735647e-05,1500705.88182,2.5376396028e-05,0.0,5415561.78939,686.026083354,655.293860986,65794132.8554,1848.07866524,50590253.4176,67410021.122,4860.68930334,4850.03896204,0.0
1.07384618116,0.837965849544,9.77199715768e-06,-32984103.9116,1.68020044957e-05,0.0,5799954.09871,680.233212693,649.000635376,66939013.5474,1726.23827218,34926879.3889,69872506.3532,4457.535498,4449.14807654,0.0
1.00218707084,1.05349272784,9.85468510573e-06,-95829502.5498,1.30738678597e-05,0.0,5934723.31291,678.583467719,644.469763206,67222597.5334,1628.86084756,70642366.1764,70939207.1956,4160.07853106,4152.14397429,0.0
1.19066006311,1.10384094354,1.01148587423e-05,5756479.31794,2.11435676438e-05,0.0,7288142.86191,687.116275599,656.513440902,65504631.3669,1869.96382616,52956864.7733,66701676.0262,4942.42992197,4930.80461082,0.0
1.09342957938,0.956341006007,9.77635079891e-06,-25373626.5494,1.67659582017e-05,0.0,5753046.64287,681.436615705,650.340918659,66814470.5617,1751.95980597,36478361.4454,69331391.7284,4538.82618401,4530.1338187,0.0
1.05438064357,0.880463226943,9.87339143259e-06,-44525400.9087,1.55848069315e-05,0.0,5797889.11833,679.243655563,647.772148311,66906584.698,1698.35267823,35660070.7186,70344761.6341,4376.73405146,4367.78669084,0.0
1.04762112716,1.01401167261,9.66663895883e-06,-49036738.4059,1.38724448683e-05,0.0,5831548.2217,679.04166524,647.359160908,66997649.9145,1689.21240648,37203302.6495,70939954.8282,4348.67529884,4339.8409994,0.0
0.987113738774,0.783024112392,1.0138139718e-05,-94971987.8849,1.53073219616e-05,0.0,5925450.70485,679.943987665,643.501330618,67172343.5071,1611.47200126,69887791.725,70129641.3782,4097.50912965,4089.4889659,0.0
1.12833134568,0.839318591504,9.67859976299e-06,-12843963.6828,2.12982979311e-05,0.0,5564135.11841,683.710302125,652.542580492,66256705.6836,1794.10575724,42548493.2305,67902727.2842,4683.70341592,4673.33567604,0.0
1.03171691572,0.969856991294,9.69628135463e-06,-60644461.1785,1.39457549969e-05,0.0,5916743.25638,678.324389716,646.369111343,67245281.546,1670.92159279,43106698.8506,71107078.0087,4282.65691715,4275.2975531,0.0
1.14613446579,0.710098985002,9.76407883267e-06,-7282592.15208,2.56341998312e-05,0.0,5545268.25313,684.685249505,653.662930928,66227600.2129,1819.09194821,46228232.1147,68494384.2293,4757.60416749,4747.84551621,0.0
1.05029065703,0.856649764765,1.02808890807e-05,-44887028.2646,1.57568494604e-05,0.0,5794508.53177,678.735437965,647.517894169,66897217.6825,1693.2483552,35720469.5607,70361790.2361,4359.75651733,4350.96688989,0.0
1.08670306369,0.900661583982,1.00821002664e-05,-26935420.3097,1.71811684225e-05,0.0,5752417.85146,680.905475991,649.952513602,66808288.5829,1743.0541922,35984399.4683,69256324.9828,4510.90441738,4502.31736912,0.0
1.0197690875,0.919059404003,1.02757524597e-05,-71115307.8987,1.42713850127e-05,0.0,5917612.9967,677.474128529,645.596592471,67229774.0299,1654.92133455,50257469.2818,70648044.6134,4233.06148221,4225.87308653,0.0
0.975493256872,0.880690557538,9.91440200634e-06,-94760911.2969,1.4567105135e-05,0.0,6029199.00625,682.056546668,642.773886448,67477816.1248,1613.77860204,69701692.9888,69937536.6757,4049.27250928,4042.62123436,0.0
1.07314161271,1.09919975153,1.00726592259e-05,-31893533.1734,1.40121887589e-05,0.0,5795676.22051,679.845599201,648.924500499,66921659.9639,1724.43735773,35145021.397,69600352.9383,4454.61083436,4446.04455168,0.0
1.08396483855,0.946246179982,1.00197379861e-05,-28092186.9209,1.64119564264e-05,0.0,5765653.95107,680.790581368,649.790292538,66844126.2439,1739.43662508,35787964.7153,69299794.6091,4499.53804482,4490.99367393,0.0
1.06275531955,0.855214606038,1.03163057771e-05,-36736848.5173,1.62091425744e-05,0.0,5800346.96047,679.271025421,648.321504914,66924009.2293,1711.48285085,34608158.8636,70021334.9711,4411.49733145,4403.18531721,0.0
1.08198872746,0.938897838618,9.83330652847e-06,-29413884.4256,1.62248456438e-05,0.0,5778258.04851,680.798124147,649.654699823,66888577.6159,1736.85960937,35648045.6179,69363132.5736,4491.33520769,4482.82158186,0.0
0.985715375095,0.874723797247,9.70324793945e-06,-95091151.7969,1.48387330182e-05,0.0,5999362.88054,681.428401132,643.428395404,67401432.263,1618.97490072,69992401.488,70233020.9782,4091.70452202,4084.6513305,0.0
1.19844941809,0.910879166953,1.03572628608e-05,9203878.17795,2.55824742923e-05,0.0,10568009.7524,687.494903256,657.008445176,65447952.4801,1880.44706018,55366599.6383,66715873.2817,4974.76353449,4963.64752468,0.0
1.23906595639,1.04865990351,9.82630426611e-06,17426193.0381,2.5682207716e-05,0.0,18969833.2956,690.144471785,659.516867623,65122906.4167,1928.60910589,62093024.3648,67097811.0248,5143.36278497,5131.66996706,0.0
1.12881198156,0.675808689664,1.01030818682e-05,-12137091.9437,2.44291316264e-05,0.0,5562060.24287,683.438246489,652.509994875,66237397.212,1796.17764844,42998964.1692,67197456.2956,4685.69853546,4675.84309437,0.0
1.05048628979,0.786661218041,1.03846609264e-05,-42942449.2267,1.62554775182e-05,0.0,5804449.10984,678.623424676,647.523430002,66926602.2301,1694.32184922,35228923.3545,70380637.6697,4360.56858892,4352.10212274,0.0
1.01446782293,0.949890540979,9.85591824546e-06,-79837208.9396,1.37731970209e-05,0.0,5953886.99255,677.835643857,645.254653048,67306708.8608,1647.90549269,57064022.5494,70806447.0611,4211.05593298,4203.94244124,0.0
1.00183771459,1.11906662104,9.83896467587e-06,-95774206.6948,1.25051006858e-05,0.0,5940030.32092,678.624312956,644.448540866,67238005.4727,1628.33603645,70594232.1331,70996115.71,4158.62835326,4150.69926186,0.0
1.20799818109,1.08372217535,1.02745774412e-05,10581392.206,2.30622666343e-05,0.0,11859508.283,688.016111106,657.529532931,65252932.8262,1890.14673282,56381040.3623,66627933.3446,5014.4004497,5002.4474524,0.0
1.17887741777,0.940813117359,1.01236687427e-05,3535850.94639,2.30843686451e-05,0.0,5640917.32781,686.381264753,655.76800592,65783667.9129,1857.72457266,51803507.3467,67080361.2813,4893.52016116,4882.84589748,0.0
1.0400791968,0.821620789004,1.00435207872e-05,-52812936.869,1.5640618107e-05,0.0,5828077.00864,678.473732693,646.876460796,66979142.7758,1679.85887798,38782573.7207,70979829.2547,4317.36874592,4308.8335748,0.0
1.11315544684,0.857169670104,1.00741986414e-05,-16495246.7283,1.9663895594e-05,0.0,5618241.4847,682.458696505,651.570699826,66402642.9365,1774.92140068,40489868.2007,69192126.7807,4620.70825983,4610.82295094,0.0
1.05932203656,0.927721415327,9.9642024376e-06,-39404747.3185,1.50088919468e-05,0.0,5823090.11167,679.321550895,648.098177335,66988275.8837,1706.53491647,34792219.0522,69814070.868,4397.24577376,4388.8939798,0.0
1.12018222695,0.791982487686,9.80535520156e-06,-16682082.6316,2.12670355079e-05,0.0,5653015.75742,683.049420572,652.016332262,66531983.5777,1786.58737135,40438513.6527,69254870.5185,4649.87642407,4640.65773542,0.0
1.05012644592,0.704410862038,9.91892342901e-06,-45398931.8646,1.71163446169e-05,0.0,5802746.38375,679.036152302,647.512113946,66912248.971,1693.00015531,35935454.647,70482093.5757,4359.07487701,4350.34531665,0.0
1.1094964972,0.925988129856,9.68499637285e-06,-18716227.6252,1.80215690022e-05,0.0,5680580.36656,682.488373686,651.400825582,66598576.5342,1771.34416958,39461226.2184,68896334.8949,4605.51995988,4596.08726819,0.0
1.12644776714,0.949100093523,9.97951552955e-06,-13327758.1317,2.01743299693e-05,0.0,5652810.38422,683.216952905,652.44929703,66544091.29,1794.88672184,42430353.0688,68286416.0402,4675.8846814,4666.88651601,0.0
1.03228050908,0.957777370413,1.02890394949e-05,-58141129.9939,1.43109963217e-05,0.0,5837933.15389,677.885701811,646.367451117,67001891.357,1669.05939586,41557202.4675,70877954.8658,4284.99639319,4276.49870349,0.0
1.06713764522,0.781071994535,9.98860175392e-06,-34844642.0338,1.71758607893e-05,0.0,5793800.82297,679.771972286,648.605199973,66912298.1062,1716.77882519,34710813.881,70042184.1576,4429.68836531,4421.21483923,0.0
1.12199839,0.954923612218,9.71025592626e-06,-14514772.2533,1.89731720318e-05,0.0,5601953.95342,683.193727433,652.113363481,66364740.6736,1785.89814199,41568267.5888,68554935.4626,4657.41531689,4647.18333431,0.0
1.06456067744,1.06992450575,1.00673248988e-05,-35793928.9822,1.38644278161e-05,0.0,5815929.09006,679.45424713,648.437868238,66976281.1967,1713.18450026,34673698.2903,70179153.679,4418.99137205,4410.55816224,0.0
1.23553858131,0.965142587706,9.84593657863e-06,16564818.506,2.72976643938e-05,0.0,18036431.142,689.923937916,659.254548225,65111917.9761,1924.60116489,61403449.0196,66881767.3716,5128.72065102,5117.00438221,0.0
0.966629912384,1.16532930454,1.01371260602e-05,-94109150.4618,1.2311765379e-05,0.0,6039808.21288,683.429843335,642.197335561,67510533.7965,1613.93971532,69127869.3896,69355569.1331,4012.48076631,4005.73045868,0.0
1.17229302352,0.982622836488,1.00139015242e-05,1498248.89892,2.18451588473e-05,0.0,5439532.49055,686.053178309,655.379818254,65866968.0141,1849.53810843,50700549.2398,67381196.5873,4866.18834063,4855.51489487,0.0
0.950033665414,0.872488491376,9.79968263011e-06,-93419364.5003,1.48447908402e-05,0.0,6058200.46204,686.866837079,641.125406212,67525817.0196,1612.88115468,68520672.4753,68738593.4427,3943.58974513,3936.76068294,0.0
1.12097922814,0.614983698932,1.04700904651e-05,-13647786.5594,2.54112752544e-05,0.0,5566172.26403,682.830698391,652.068574084,66251157.8991,1786.36196481,41951262.1568,67727249.5008,4653.18477601,4643.56107722,0.0
1.08024565624,0.899256793466,1.01035318712e-05,-30169584.6857,1.69716729845e-05,0.0,5776057.62699,680.535439906,649.549871877,66883194.4728,1735.19359931,35321092.4776,69256687.4493,4484.09971905,4475.80702943,0.0
1.195819201,1.20609313509,9.82255697369e-06,6990995.81174,1.94429017636e-05,0.0,8527068.0801,687.513337167,656.872262998,65644879.2788,1877.11088636,54003111.6002,66777495.3338,4963.84550335,4952.53124295,0.0
1.17094496832,0.834805443,9.92232640292e-06,1149628.88826,2.41210171797e-05,0.0,5408013.26046,686.157929836,655.298260175,65768160.1936,1847.32471512,50568347.3928,67494717.6642,4860.5925635,4849.62913253,0.0
1.06277300142,1.01730432606,9.57894247383e-06,-39358266.0067,1.40674075254e-05,0.0,5832242.10325,679.888122287,648.408009558,67015549.3937,1710.97175577,34848291.7089,70007490.3517,4411.57072889,4403.16514375,0.0
0.976545643957,0.896228582469,9.59397685575e-06,-94743076.1135,1.45956687428e-05,0.0,6027583.71012,683.034066575,642.840015897,67469960.1086,1618.07305208,69685852.2148,69921776.6842,4053.64096807,4046.71902198,0.0
1.07129350251,0.920741559236,9.5651476537e-06,-34825120.4288,1.55753667712e-05,0.0,5819663.50895,680.255360468,648.877857957,66991351.663,1722.84998091,34770027.0279,70208834.4246,4446.93932892,4438.59131279,0.0
1.04765681573,0.749595141067,9.78122402522e-06,-47338354.9008,1.64864985991e-05,0.0,5817079.81615,679.008983253,647.355208988,66948713.8872,1689.64860857,36560286.0518,70522315.5669,4348.8234421,4340.13405298,0.0
0.992466201458,1.01325436095,1.00972716728e-05,-95244628.5175,1.36364219294e-05,0.0,5924985.51189,679.202911981,643.844079336,67181873.1308,1615.07351158,70127770.8104,70379164.5008,4119.72720225,4111.62135134,0.0
1.20324673326,0.93571945689,1.02338420865e-05,9078807.10875,2.54040708729e-05,0.0,10429825.3923,687.911789026,657.266853064,65257060.3651,1885.01786537,55206556.1351,66700456.0537,4994.67718976,4982.79989749,0.0
1.12766775197,1.05389576286,9.91631659255e-06,-12738618.9691,1.78479113201e-05,0.0,5614160.83376,683.327829147,652.508835117,66407058.8247,1794.22757217,42769862.6281,67578638.0404,4680.94883843,4671.13083752,0.0
1.10825872485,0.94195175955,1.02263985823e-05,-16696228.2258,1.80547878724e-05,0.0,5668709.84685,681.972774662,651.298718108,66555889.2908,1769.39841591,40460600.5882,69096972.3666,4600.38196685,4591.08874664,0.0
1.15573657323,1.10246925132,1.04874489067e-05,-3008115.30351,1.91642080297e-05,0.0,5460558.11257,684.746859056,654.339277208,65922717.1775,1827.73901504,47765792.6808,67793380.7742,4797.46251548,4786.67767316,0.0
1.01705662091,0.873799557394,9.76132286611e-06,-77613294.2673,1.44576382171e-05,0.0,5947411.1483,677.985028181,645.432386757,67305396.5197,1651.4284929,55282848.4195,70958533.6819,4221.8020334,4214.65186769,0.0
1.13597463147,1.08986294871,1.02353576085e-05,-10762324.1019,1.91451473396e-05,0.0,5624056.40015,683.498665476,652.999088608,66457203.2696,1807.02465751,43896577.1055,67915569.601,4715.43069523,4706.28027995,0.0
1.18715183065,0.847224266747,9.90936372961e-06,5078981.29906,2.54450944774e-05,0.0,6664039.19465,687.175358823,656.263349878,65497778.3865,1866.23703681,52699714.392,66814759.8074,4927.86724903,4916.30829637,0.0
1.05197505131,0.815537426437,9.8906068044e-06,-45686694.8045,1.61458737341e-05,0.0,5798650.44361,679.149050502,647.628777309,66904900.4804,1695.20785785,36006788.3631,70497365.034,4366.74843799,4357.84227589,0.0
1.16143043114,0.826485448654,9.73720066273e-06,-4177931.22904,2.51997914493e-05,0.0,5523695.71817,685.713558158,654.742860409,66160606.0547,1839.43716226,47707798.7033,68442723.768,4821.09771966,4811.39024136,0.0
1.22577616323,0.717595076,9.73413757483e-06,13933832.1749,3.20149827251e-05,0.0,15291317.1537,689.856893889,658.725211598,64928153.9271,1912.5312749,59123727.4669,66366465.5576,5088.19685357,5075.95154237,0.0
1.04811015784,0.881875848984,1.01518261447e-05,-46846957.7176,1.54025666322e-05,0.0,5808905.6705,678.724483189,647.379816381,66939635.3839,1690.49100391,36332151.5609,70228572.8419,4350.70526519,4342.04025577,0.0
1.15502521286,0.971607750737,1.05413153218e-05,-3017883.32199,2.12608264848e-05,0.0,5445554.89941,684.754400558,654.293820611,65876573.7144,1826.9976899,47741256.1804,67741344.9873,4794.50965858,4783.7374749,0.0
1.19415561414,0.950755656644,9.90170108413e-06,6290135.65806,2.39272899456e-05,0.0,7838193.33281,687.584613874,656.744271131,65453241.3244,1874.64237207,53374807.8969,66635822.5513,4956.9399543,4945.24334548,0.0
1.0256329592,0.992843407661,9.51250250693e-06,-69716160.1098,1.36214376659e-05,0.0,5940784.55108,678.329827527,645.98077773,67304435.0033,1662.75165137,49283129.5319,71073966.7475,4257.40241364,4250.13017784,0.0
1.09148174007,0.710522296769,9.84309553779e-06,-25994289.3247,2.00476861059e-05,0.0,5734359.09829,681.411277568,650.231683841,66756397.7709,1749.49146763,36269993.8915,69259432.3907,4530.74070303,4522.07896694,0.0
1.09386234206,0.839316639531,9.77561261168e-06,-25204693.065,1.82210489104e-05,0.0,5743067.67552,681.510271511,650.363695713,66784393.1611,1752.62905647,36513267.542,69289270.4488,4540.62258189,4531.9234298,0.0
0.982854294578,1.09906860376,1.01936150643e-05,-94846610.5537,1.26865711731e-05,0.0,5951716.177,680.28897316,643.228226894,67245216.8468,1609.92623567,69777171.23,70017066.0634,4079.82817679,4071.87574012,0.0
1.09206457745,0.961505574307,9.86491522709e-06,-25801022.2177,1.67657945177e-05,0.0,5750716.21628,681.304686596,650.261381018,66808188.2463,1750.02782639,36336461.2382,69299562.7363,4533.160061,4524.4891974,0.0
1.05775963304,1.00526788936,9.98923146036e-06,-40066208.2153,1.41470287086e-05,0.0,5830606.77355,679.171005955,647.980141078,67008558.1375,1704.40505643,34889941.6446,69715247.2411,4390.76023675,4382.4327499,0.0
1.0229455278,0.999076296058,1.02111250674e-05,-67143531.4176,1.37420596483e-05,0.0,5863624.40955,677.668833105,645.786556704,67063576.5541,1656.59273408,47392075.7301,70886403.2325,4246.2468859,4237.899476,0.0
1.07574682862,0.778052212334,9.64773650576e-06,-32608527.6904,1.7607292859e-05,0.0,5795916.21715,680.439290222,649.108946981,66928003.2282,1728.77886467,35003029.8064,69848478.8958,4465.4250856,4457.00809472,0.0
1.02099080192,0.874231567859,9.96352859917e-06,-71124786.5979,1.44926329005e-05,0.0,5929206.68872,677.809414907,645.680139416,67265136.1942,1656.73395489,50297056.6639,70845651.7516,4238.13281877,4230.92676584,0.0
0.992945496006,0.568205125965,9.66158484238e-06,-95323773.8361,1.81054305995e-05,0.0,5963681.90317,680.654201542,643.892523421,67302123.5837,1621.13806043,70197256.5969,70441992.181,4121.71675392,4114.56185839,0.0
1.16470173165,0.948949566624,9.46771367793e-06,-2421951.39613,2.24319458629e-05,0.0,5501352.07947,686.02554015,654.935834329,66091718.9224,1841.69314326,48844347.9665,68115147.5849,4834.67688808,4824.37883717,0.0
1.23511640035,0.784275599068,1.00794537528e-05,16451190.6222,3.16468249077e-05,0.0,18072491.3136,690.07489877,659.289985423,64908651.0749,1923.81814206,61232426.659,66721445.2052,5126.96817785,5115.03722664,0.0
1.22091112455,0.850790325895,9.99302644947e-06,13079222.1898,2.83340187181e-05,0.0,14310961.3629,689.245127493,658.411309567,65044500.6141,1906.35958904,58420090.1435,66364937.325,5068.00207801,5055.91008194,0.0
1.04579789096,0.995179480533,1.00383462579e-05,-48591292.597,1.42351342627e-05,0.0,5825529.82512,678.667692684,647.241278373,66982905.1837,1687.32441508,37044383.1593,70873856.735,4341.10704537,4332.47950006,0.0
1.10601451824,0.795185212983,1.01562710437e-05,-20566042.3098,2.03580106027e-05,0.0,5683730.42071,682.043265021,651.188184065,66616110.907,1768.33664309,38146930.4817,68695288.6306,4591.06626521,4582.17576939,0.0
1.15127406088,0.933378582302,1.00843141017e-05,-6643472.87724,2.27979223309e-05,0.0,5562666.6616,684.729626055,654.059289409,66286017.3809,1826.65849009,46226838.2599,68681849.7584,4778.93862671,4769.51900787,0.0
1.17650960698,1.11960644642,1.00616574478e-05,2926353.65458,1.96927588809e-05,0.0,5402265.16076,686.202468721,655.612190534,65741535.0495,1852.96478874,51471849.3724,67036072.7731,4883.69137857,4872.46574456,0.0
1.07111453019,0.812336394066,9.81001411314e-06,-34012171.2582,1.69488877e-05,0.0,5803512.2372,680.098676561,648.857697546,66946206.9035,1722.68067913,34780916.6275,70005366.063,4446.19641482,4437.8511586,0.0
1.24256117353,0.956915783512,1.01433808235e-05,18299955.3438,2.86865587165e-05,0.0,19932538.2537,690.377191253,659.752764795,64884273.7119,1931.72756394,62704310.749,66748289.055,5157.87143132,5145.8322116,0.0
1.12808922692,1.04144931023,9.60665278269e-06,-13364598.2163,1.82175963659e-05,0.0,5649500.41237,683.53170279,652.535671445,66532256.7253,1795.86023714,42338166.069,68375285.3581,4682.69838094,4673.23490165,0.0
1.12696931825,0.982823951526,1.02075239208e-05,-12961482.7865,1.99786775878e-05,0.0,5643535.98239,683.104657179,652.485569857,66503144.0145,1795.62638163,42541241.7467,67926058.0515,4678.04964006,4669.04234693,0.0
0.978061693503,0.965427039831,1.03878965456e-05,-94748514.305,1.39637242696e-05,0.0,6008693.2332,680.52021052,642.936452045,67432367.551,1610.81931564,69690975.5549,69926366.8535,4059.93408973,4053.32804407,0.0
1.06367122883,1.20917803071,1.00072193656e-05,-37257404.3175,1.24984040056e-05,0.0,5827735.98807,679.418296813,648.379766975,67010872.3026,1712.13876446,34678158.76,70140733.3685,4415.29927087,4406.87966163,0.0
1.0474110989,1.01184969473,9.61801293807e-06,-49417769.039,1.38744045477e-05,0.0,5833833.59532,679.072927276,647.348436591,67007408.5998,1688.92614252,37400723.9805,71067746.1395,4347.80347153,4338.97263276,0.0
0.946298536369,0.954516145548,1.01908172118e-05,-93238960.314,1.36925321636e-05,0.0,6075045.11157,686.0491469,640.887880481,67582135.0879,1607.66382447,68361826.507,68579292.7256,3928.08522447,3921.61907601,0.0
1.07041123544,0.964849981836,9.80420042853e-06,-34977566.2139,1.51235621504e-05,0.0,5804194.15329,680.028157004,648.817392969,66948417.2009,1721.12029651,34753218.0247,70049597.8819,4443.27703831,4434.75336585,0.0
1.18843438567,0.844218146232,9.85713936189e-06,5468195.11224,2.54874805972e-05,0.0,7109613.48229,687.222032195,656.366673795,65661840.3144,1869.37763442,53153486.6133,66936897.3871,4933.19113492,4922.22918728,0.0
1.22462967865,0.858064284119,1.00766855946e-05,13867424.184,2.87427866478e-05,0.0,15230960.2066,689.438884055,658.649960625,64979908.6197,1910.59312884,59121948.6309,66425938.9003,5083.43779608,5071.27625515,0.0
1.02251409919,0.900637680842,1.01835669404e-05,-67787507.6144,1.45429773953e-05,0.0,5860250.16794,677.719005084,645.754921086,67051575.5385,1656.06379609,47843677.8436,70831821.1591,4244.45602574,4236.11553494,0.0
1.12740519311,0.775232758484,9.77481213674e-06,-12893689.7687,2.21443547932e-05,0.0,5614211.17329,683.543053649,652.49988,66422095.9235,1795.02915849,42510750.4449,68059991.4224,4679.8589566,4670.33030768,0.0
1.19759184576,0.950500947652,9.91004526184e-06,7636013.06759,2.3999557863e-05,0.0,9079864.38409,687.736303539,656.979761602,65523112.6116,1879.55229818,54346184.3801,66631382.736,4971.20375175,4959.87793858,0.0
1.02236899831,1.00078962093,1.01526290107e-05,-67205294.7748,1.35683546955e-05,0.0,5916547.25962,677.613546401,645.769562253,67231317.9043,1658.12227646,47465076.8111,70897616.4033,4243.85371198,4236.53859083,0.0
1.22815001551,0.94968609898,1.00479402096e-05,14877596.1054,2.71440549831e-05,0.0,16278032.2349,689.392347114,658.806320802,65184161.758,1916.05091927,59993405.7799,66726519.0934,5098.05071438,5086.47485819,0.0
1.01877435628,1.10278359959,9.97189946019e-06,-73654233.2004,1.2479763968e-05,0.0,5945582.62573,677.711187345,645.541707557,67310485.4062,1653.64713717,52195328.1048,70930155.8801,4228.93235292,4221.75780866,0.0
1.22336101403,0.764678333328,1.03832970359e-05,14086117.1753,3.15176314221e-05,0.0,15406540.8535,689.261652445,658.572597987,64933133.6398,1909.3944618,59235436.1462,66375832.588,5078.17156924,5066.235222,0.0
1.11217464932,0.956976101147,9.61850976285e-06,-19569234.6634,1.80935380545e-05,0.0,5701279.51053,682.688242891,651.57542944,66677652.0729,1776.10729724,38897172.1996,68978086.5876,4616.63696933,4607.54710331,0.0
1.21366377968,0.901125801337,1.02772688916e-05,12216962.9665,2.7101920346e-05,0.0,13469002.6539,688.484363096,657.959044323,65298483.1302,1899.00046109,57734248.0469,66395475.1393,5037.91834945,5026.63646361,0.0
1.19003476643,0.770188557202,1.030911393e-05,6738703.85006,2.79476545076e-05,0.0,8221391.19608,687.199417227,656.492105923,65405192.5897,1870.07404665,53490136.6835,66456462.9399,4939.83431545,4928.53023691,0.0
1.17406461903,1.08674924748,1.00958817413e-05,2224865.62188,2.01696201957e-05,0.0,5424843.39723,686.045032585,655.471140079,65815176.7966,1850.7834769,51103774.0008,67076752.0882,4873.54223359,4862.62791509,0.0
0.974926430484,1.09897756167,9.9139598055e-06,-94778007.8087,1.26506165136e-05,0.0,6041680.19967,682.048802987,642.737558484,67515153.9238,1613.51382877,69716713.606,69952407.3375,4046.91961294,4040.27616641,0.0
1.05046967044,1.02303318338,9.75802731916e-06,-45297760.4473,1.36156713865e-05,0.0,5833239.36453,679.030559217,647.532262652,67003438.3606,1693.30835008,35987489.6078,70646913.34,4360.499602,4351.76400002,0.0
1.08942701137,0.980335749464,1.00906114374e-05,-25991809.8338,1.65037974104e-05,0.0,5749879.01201,680.996846868,650.102252458,66804696.7379,1746.55471501,36206630.1305,69231643.0026,4522.2115242,4513.58193472,0.0
0.996475217826,0.873748741002,9.48282426614e-06,-95569959.6532,1.47089289027e-05,0.0,5925750.68887,679.946821559,644.104673827,67178861.1881,1619.92940953,70414206.2842,70663461.9141,4136.3686292,4128.03732742,0.0
1.17473205165,0.676593212123,9.74456080707e-06,2050186.86505,2.79724864062e-05,0.0,5376522.5597,686.636758965,655.525155258,65691067.5485,1852.31765309,51148857.0235,66929315.6987,4876.3127464,4865.2813489,0.0
1.1770067894,1.03701468141,9.95859308141e-06,2521951.94888,2.10459456931e-05,0.0,5407621.12464,686.357776502,655.653398779,65776492.2947,1854.44648388,51249136.303,66990331.0701,4885.7551828,4874.68149737,0.0
1.06713157311,1.01499135761,1.02242023399e-05,-35191751.9752,1.47311848806e-05,0.0,5802746.68607,679.524576226,648.607175409,66938495.3115,1717.12459039,34676876.7016,69909222.8578,4429.66315998,4421.2833515,0.0
0.971562511313,1.00280893634,1.05179362705e-05,-94118891.3488,1.346740566e-05,0.0,5953659.63881,681.687258324,642.497345145,67245181.9855,1608.29241995,69136692.8711,69367484.2106,4032.95598446,4025.15210164,0.0
1.17011918263,0.9502133552,1.02481036704e-05,1573218.14102,2.24255737298e-05,0.0,5415769.17275,685.806602443,655.231389481,65784903.7585,1846.03163058,50617902.2512,67100363.5152,4857.1647271,4846.32034668,0.0
1.07889741465,1.0149012918,1.02503359984e-05,-28676633.8195,1.56423448519e-05,0.0,5763508.30033,680.299860057,649.462242474,66826201.1955,1731.96515647,35557720.9523,69259281.2384,4478.50316821,4469.88826087,0.0
1.0986169357,1.00967228461,1.01340899547e-05,-22847655.6272,1.69400677749e-05,0.0,5723888.21512,681.532346217,650.73420331,66726273.0216,1758.53031259,37194674.947,68729065.04,4560.35890009,4551.58439353,0.0
1.03986071864,0.884282264141,1.00189459135e-05,-51670294.4969,1.4928840012e-05,0.0,5827685.68288,678.447886712,646.855991341,66979941.7736,1679.0528703,38259180.8336,70775070.1194,4316.46184307,4307.75505164,0.0
1.06783696951,1.07862687906,1.02950827198e-05,-33809554.8366,1.41666648435e-05,0.0,5802829.88518,679.456439254,648.637635352,66941319.6758,1717.80696018,34801506.7038,69791163.5614,4432.59126044,4424.20204692,0.0
1.13617800981,0.85313300237,9.96302790396e-06,-11872028.1854,2.23772546842e-05,0.0,5519228.71715,684.080158161,653.064409956,66127238.3343,1804.46693592,43290401.2356,67495735.1192,4716.27491872,4705.75563887,0.0
1.12595800987,1.0052822355,9.91076982841e-06,-13131339.8536,1.8714377697e-05,0.0,5617900.38801,683.236472102,652.395872355,66420033.0663,1792.25998805,42468314.4912,67890286.5764,4673.85169897,4664.12000182,0.0
1.04624881803,1.05015196367,9.96820957872e-06,-48692135.2892,1.36743700354e-05,0.0,5830868.30372,678.721370896,647.27103775,66999941.1657,1687.86829653,37082969.6115,70927961.7859,4342.97884364,4334.34399741,0.0
1.03881209903,0.830755603691,9.84162140639e-06,-55451385.5286,1.55078111652e-05,0.0,5838636.39195,678.595611406,646.796716599,67009930.0476,1678.13573978,40108814.7893,71144743.0628,4312.10902307,4303.59426496,0.0
0.980427632706,0.692895969742,9.97519680493e-06,-94915473.1642,1.6112733198e-05,0.0,6005570.16055,681.257246137,643.090352696,67413799.8032,1614.34786022,69837833.4174,70076694.2139,4069.75510336,4063.03441609,0.0
1.08135212938,0.973013377915,9.77745946171e-06,-29846630.7284,1.57782286092e-05,0.0,5788682.76692,680.598340669,649.47936268,66918672.5578,1735.99717433,35617766.2008,69396768.8972,4488.69268906,4480.18895797,0.0
1.13511802417,0.862712333021,1.03527357858e-05,-10644339.1594,2.27591952348e-05,0.0,5599924.00473,683.593381174,653.026642575,66384564.0947,1806.10697725,43866241.569,67827844.5414,4711.87491833,4702.73807734,0.0
1.0580529776,0.696775343972,1.04886984839e-05,-37156357.2599,1.75845369361e-05,0.0,5791711.84617,678.92037728,648.013472119,66888354.0032,1704.87053236,34565573.8075,69832823.0273,4391.97791002,4383.64760714,0.0
1.2115777038,0.866791219576,1.04660507878e-05,11725372.8588,2.7905149137e-05,0.0,12945749.6361,688.34586246,657.806856712,65115527.1133,1895.13272742,57238006.7416,66142633.2754,5029.25904847,5017.45724156,0.0
1.01821792501,1.23286127839,1.00658256196e-05,-73421900.7351,1.15595843644e-05,0.0,5942769.39269,677.57533059,645.503285228,67298408.5099,1652.46512434,52016919.5852,70906356.0922,4226.62260672,4219.36711986,0.0
1.23521710859,1.28811617595,9.85946858519e-06,15916582.402,2.10058424059e-05,0.0,17440139.7591,689.862280584,659.324700592,65119447.2102,1922.67918982,60862136.8838,66893839.9937,5127.38621776,5115.1888327,0.0
1.15802234869,0.773176114019,9.97335201524e-06,-3217841.60753,2.42166004949e-05,0.0,5442595.49913,685.431419699,654.495606288,65893636.0189,1831.48376964,47933231.4299,67683023.3056,4806.95076941,4796.13789762,0.0
1.06882762392,1.02526167271,1.00599912447e-05,-33857245.4131,1.45583157677e-05,0.0,5802609.2894,679.708431982,648.709005713,66933446.7367,1718.8225149,34852854.7357,69875800.2767,4436.70346689,4428.20345868,0.0
1.02312856753,0.96418498423,9.67014840618e-06,-71209859.685,1.38191049245e-05,0.0,5939607.22851,678.125162819,645.819288851,67297394.4311,1659.46214625,50369020.4077,70969303.4179,4247.00668382,4239.77018496,0.0
1.13321903217,0.816888553718,1.01342634115e-05,-11066672.4534,2.24156572497e-05,0.0,5561270.49028,683.604277241,652.805360445,66242159.7244,1801.59185499,43636761.1913,67584553.9793,4703.99220254,4694.06127197,0.0
0.961253008319,0.715458087365,1.02514695878e-05,-93786597.673,1.57813317515e-05,0.0,6026007.60333,683.994595708,641.850556392,67459021.1414,1611.51492411,68844017.2096,69068600.5779,3990.16123753,3983.48658768,0.0
1.16150630205,1.11993560295,1.00864842704e-05,-946312.726955,1.87643199022e-05,0.0,5463680.41176,685.297706875,654.702511258,65928486.2856,1834.78586505,49277686.5215,67749180.3316,4821.41265981,4810.53986197,0.0
1.20413279935,0.759413146591,1.02879471833e-05,10240481.9399,2.95908240091e-05,0.0,11647988.7849,688.002691846,657.311031947,65258657.0107,1887.0378227,56151662.7032,66874296.3939,4998.3552501,4986.89744722,0.0
1.209366478,0.803800045113,9.68857024801e-06,10395554.2215,2.79137977338e-05,0.0,11782049.2483,688.642859618,657.643684557,65317538.1781,1893.79251858,56361986.7417,67083297.2811,5020.08025018,5008.4218807,0.0
1.06325283035,0.852046273279,9.86021675261e-06,-37950628.9998,1.59811916485e-05,0.0,5812891.97857,679.641577446,648.352014854,66961315.643,1711.80427477,34686905.1525,70051228.5192,4413.56249878,4405.14942322,0.0
0.944188655499,0.749526233986,1.03868925322e-05,-93082172.722,1.48792404537e-05,0.0,6063677.36739,685.785396666,640.750780854,67545525.7304,1604.83961314,68223842.7954,68440032.3554,3919.32710898,3912.89014883,0.0
1.11296973785,1.00619012647,1.03451806472e-05,-16166224.7447,1.79474068699e-05,0.0,5644929.20597,682.146715465,651.546787278,66476835.2653,1775.67996274,40589855.6034,69249324.7227,4619.93738182,4610.44620309,0.0
0.958991481182,0.768910483548,1.03574565597e-05,-93727099.1688,1.51764887787e-05,0.0,6027214.49029,683.911606276,641.703362513,67454479.8561,1609.31162718,68791573.6799,69013796.0621,3980.77363839,3974.1010372,0.0
1.13336679992,0.952938108016,9.83389891057e-06,-11341332.3948,2.0310056954e-05,0.0,5548969.28457,683.886076442,652.887358676,66204653.5449,1800.3649881,43547608.8254,67513918.4336,4704.60558647,4694.148112,0.0
1.00575085186,0.893322802574,1.0160469726e-05,-88806065.2369,1.45437155112e-05,0.0,5880975.2943,677.816297975,644.687352258,67066489.3176,1632.66091966,64530169.5685,70744131.8293,4174.87178607,4166.46952476,0.0
1.05108657556,0.845400912235,1.05608890392e-05,-40276595.3776,1.56013719099e-05,0.0,5815033.20702,678.412236658,647.547699512,66957084.4096,1695.49636262,34824399.9879,69861383.6125,4363.06037515,4354.83811095,0.0
1.08203310624,0.846026382938,9.81947795803e-06,-29417739.4619,1.73100737231e-05,0.0,5772684.91727,680.849097227,649.65719321,66870670.515,1736.98968182,35644329.1627,69346997.222,4491.519424,4483.00510821,0.0
1.07103753653,0.999583627599,1.00762877669e-05,-32805115.478,1.49945136361e-05,0.0,5794136.09166,679.797099323,648.818092609,66912953.4319,1721.75000781,34998293.2653,69684793.2572,4445.87681414,4437.34212543,0.0
1.01426444648,0.943866704889,9.88742862139e-06,-79782025.1346,1.38111564543e-05,0.0,5952706.35925,677.798874861,645.241342673,67303566.1706,1647.64119291,57018873.0656,70790796.9141,4210.21171734,4203.1011033,0.0
1.19767114285,1.11563873486,9.86061751928e-06,7337366.84646,2.10122637864e-05,0.0,8819691.0643,687.663228693,656.986553804,65594476.3252,1879.58947463,54104066.9109,66692427.3749,4971.53291397,4960.20316023,0.0
1.11444035355,0.895220964961,1.01403928234e-05,-15847263.1845,1.93084193756e-05,0.0,5639714.70498,682.405596651,651.637636414,66476813.3689,1777.43007462,40721559.6459,69357361.2697,4626.04190759,4616.52669372,0.0
1.16221437496,1.2410324472,9.7632974382e-06,-2758347.10361,1.83610506076e-05,0.0,5558916.53906,685.491193735,654.790516622,66270198.5301,1839.50621864,48625598.0748,68517344.5759,4824.35187046,4814.63425005,0.0
1.17519637893,0.835591152387,9.97104346549e-06,2203008.04721,2.46312820794e-05,0.0,5388039.63734,686.388710225,655.542777978,65713949.2023,1852.53016545,51064104.5671,66894890.7437,4878.24016894,4867.19891287,0.0
1.13630469482,1.09878479447,1.00734928199e-05,-10699041.0402,1.87354547032e-05,0.0,5623573.51392,683.735946377,653.100450287,66445704.1907,1807.21473685,43910559.3639,67896966.077,4716.8007882,4707.53976518,0.0
1.05646427981,0.986370275831,1.04672448907e-05,-38037815.0054,1.45359905093e-05,0.0,5814446.64157,678.744137158,647.910751429,66951397.4631,1702.58538763,34621178.1911,69806080.972,4385.38322549,4377.07616973,0.0
1.10647833122,1.26568675687,9.85507560142e-06,-18419069.5232,1.41821364188e-05,0.0,5749443.26451,681.992136542,651.226975624,66810834.3833,1768.94344296,39614133.5107,69061895.6083,4592.99155289,4584.3230361,0.0
1.06409870278,1.01792563601,1.037015894e-05,-35954236.4413,1.4599557783e-05,0.0,5804752.98852,679.245860284,648.410464806,66941310.8481,1713.14793219,34622485.2764,69960519.2053,4417.07371524,4408.74166215,0.0
1.10845749898,0.715063670083,9.96974375054e-06,-17854837.3336,2.1339438032e-05,0.0,5618670.33118,682.388753266,651.309529573,66402237.1857,1768.85203229,39744310.3693,68849448.7951,4601.20707827,4591.30611549,0.0
0.995313646864,0.896295473006,1.03409877151e-05,-95285288.6874,1.44698699861e-05,0.0,5902412.50361,678.339499292,644.021878139,67120654.5858,1618.93945073,70163662.6634,70550758.5737,4131.54694813,4123.39516064,0.0
1.03678664198,0.692867879982,9.89013709133e-06,-56739424.384,1.67807190718e-05,0.0,5833001.75523,678.52668251,646.667300056,66988814.4486,1675.55531063,40791181.8278,70993940.5073,4303.70135086,4295.21781206,0.0
1.2030672032,0.863168165211,9.6946424845e-06,9366146.64475,2.61110809851e-05,0.0,10772993.5112,688.197099689,657.310233488,65532950.9982,1887.02584229,55679432.8575,66917060.0072,4993.93196048,4982.80997614,0.0
1.01544460057,0.867810766849,1.03764687549e-05,-75233125.3546,1.45306295078e-05,0.0,5922703.86061,677.316086668,645.316800968,67235289.2948,1649.18111502,53393667.0807,70633409.9168,4215.11053697,4207.98349517,0.0
1.14760235901,0.979762599988,9.93569335736e-06,-7523877.17157,2.10046793962e-05,0.0,5530032.9114,684.58043701,653.76023869,66159623.3861,1819.68846642,45615744.8984,68571445.7202,4763.69739225,4753.47109116,0.0
0.969132359945,0.723204080737,9.71853878419e-06,-94343371.6785,1.5909436167e-05,0.0,6018588.04592,683.939885444,642.358029084,67423060.9553,1615.17863499,69334048.5274,69564516.3591,4022.86842613,4015.81106244,0.0
1.16985618809,0.86090421738,9.72966147757e-06,668560.0602,2.33316619718e-05,0.0,5426045.40305,686.186173298,655.231339999,65836486.458,1845.98230023,50418616.2362,67710940.5751,4856.07303676,4845.12876427,0.0
1.00684262989,0.97968559511,9.65291816979e-06,-91183487.0773,1.34971180298e-05,0.0,5981706.57798,678.249622076,644.781357795,67377275.9813,1637.55931181,66586533.976,71076090.28,4179.40375667,4172.39781785,0.0
1.09069777477,1.03387106276,1.00599953095e-05,-25659366.6811,1.59083823604e-05,0.0,5751671.55339,681.052403955,650.17082943,66811883.6873,1748.16562767,36276852.1081,69229031.3294,4527.48646307,4518.83699803,0.0
1.18462216055,0.870466489762,1.04229938623e-05,5643958.20207,2.52928874376e-05,0.0,7153362.70582,686.664304119,656.117276287,65487229.9694,1863.21291521,52774633.8747,66625943.5572,4917.36658844,4906.16013017,0.0
1.24900406215,1.04454464055,9.82775791103e-06,19144878.1886,2.66792607751e-05,0.0,20769242.4793,690.91560448,660.141373917,64783119.5821,1938.39762436,63343018.8945,65219684.798,5184.61586198,5172.04634083,0.0
0.986218971591,0.962876107511,9.74854539017e-06,-95117790.1314,1.41206964541e-05,0.0,6000152.67601,681.196306035,643.460409665,67406861.6006,1618.57380693,70015994.9342,70256617.7727,4093.79495107,4086.73451285,0.0
1.03901288756,1.0536804917,1.00970660159e-05,-51809549.3014,1.32809437589e-05,0.0,5837748.49311,678.272899571,646.802261836,67009994.2475,1677.80710794,38293833.0024,70802882.0055,4312.94249626,4304.24822834,0.0
0.979421878401,1.1354442403,1.04077445702e-05,-94599764.6751,1.2493553591e-05,0.0,5965410.64317,680.59538182,643.009081303,67293500.3618,1610.3943698,69559936.1492,69796388.8608,4065.58021724,4058.00157662,0.0
1.13573352418,0.81695219268,9.9072785886e-06,-12039284.2222,2.28667062724e-05,0.0,5519685.02641,684.113427248,653.036970356,66124860.4686,1803.97470369,43129648.0713,67443619.6345,4714.42985887,4703.91846445,0.0
1.11892040618,0.794886254705,1.03288637741e-05,-14868376.574,2.13295109718e-05,0.0,5551621.69656,682.719265995,651.913266376,66191071.6507,1781.63269745,41232140.1692,68275067.9093,4644.63860605,4634.28379142,0.0
1.19174162772,0.946608777718,9.28947276037e-06,4992649.54909,2.29872094223e-05,0.0,6688617.63173,687.735332385,656.564269642,65649062.7663,1872.60475182,53060693.7103,66996539.426,4946.91949667,4935.36672182,0.0
1.10766596139,1.13047980799,1.01973899776e-05,-18041391.2213,1.57718707096e-05,0.0,5682430.69039,681.905251374,651.267934621,66605254.8053,1768.59778474,39724122.7701,68966001.2473,4597.92140573,4588.6182723,0.0
1.16001133979,0.995164550009,1.05441178526e-05,-1814684.18646,2.12461970935e-05,0.0,5442740.79645,685.009787636,654.608035023,65840566.981,1833.69357479,48290554.8836,67466242.4597,4815.20707147,4804.5262363,0.0
1.16509215598,0.788258513678,1.01041546675e-05,157103.675722,2.4889711678e-05,0.0,5405728.50119,685.738690737,654.923050653,65751708.029,1839.64235716,49953576.0526,67551096.0795,4836.29753947,4825.33484196,0.0
1.08687240625,1.1009129433,1.03723284762e-05,-26216940.3716,1.5147284827e-05,0.0,5758142.1887,680.610393696,649.946188358,66822128.3402,1743.4506338,36122130.0339,69175115.4687,4511.60735834,4503.1152725,0.0
1.05947400496,0.96915870329,9.90177396385e-06,-39592850.7256,1.45698442661e-05,0.0,5824711.55283,679.477420558,648.187513073,66992155.2695,1706.69765005,34820830.0334,69810562.0076,4397.87659459,4389.52243484,0.0
1.02954291172,0.938819947865,1.00926398209e-05,-60619133.8114,1.41775199952e-05,0.0,5854747.77518,677.971545593,646.205924272,67045287.0882,1665.60590639,43080259.0065,70876201.99,4273.63262655,4265.1788038,0.0
1.16319536354,0.831084357627,1.01417732211e-05,-579774.803348,2.38598099148e-05,0.0,5419637.49409,685.571301372,654.805359588,65795684.7294,1837.3795716,49492248.8235,67591665.3839,4828.42395405,4817.51943838,0.0
1.01981908626,1.00945461717,9.57584113944e-06,-75032612.9027,1.36593767926e-05,0.0,5891845.72602,678.272420312,645.592981027,67130911.0855,1652.02998603,53278557.9808,71056589.6189,4233.26902707,4224.88704176,0.0
0.976693320116,0.762745635854,9.85746330281e-06,-94804326.7069,1.55130408158e-05,0.0,6023651.81839,682.074582707,642.851323789,67461256.2798,1614.62142074,69739915.8644,69976631.0252,4054.2539718,4047.58372281,0.0
1.19763491362,1.09122155219,1.00492943128e-05,7479313.88946,2.17799281619e-05,0.0,8998863.38309,687.6032448,656.964640314,65421458.0085,1878.26463577,54127609.7019,66554799.0393,4971.38252644,4959.60967692,0.0
1.16941275604,0.799587131694,9.93688400381e-06,1375015.74804,2.49392101963e-05,0.0,5436251.28588,686.034090318,655.21236093,65857260.5444,1846.1469495,50770487.7703,67579124.7603,4854.23235032,4843.65823999,0.0
0.94420470318,1.01007579297,1.02935457373e-05,-92912677.5935,1.37427785427e-05,0.0,6022850.35262,686.468930567,640.73758691,67416160.5621,1606.25248372,68074885.5804,68288588.7748,3919.3937229,3912.04570706,0.0
1.14433724231,0.961141234603,9.86712615484e-06,-8650901.0862,2.08994752089e-05,0.0,5548000.37178,684.309243698,653.457260891,66210672.7744,1815.69592818,45144651.9836,68332833.9989,4750.14389283,4739.99935559,0.0
1.20943066436,1.26414396767,1.00491435627e-05,10643663.5636,1.99240829859e-05,0.0,11939226.3301,688.102080484,657.630903129,65384256.0625,1892.33693479,56510150.6832,66739935.0642,5020.34668776,5008.55679992,0.0
1.05221395795,0.858372454365,9.81476640464e-06,-45923069.2031,1.56854957234e-05,0.0,5804034.28789,679.201533379,647.643627237,66920117.4931,1695.46986026,36076974.5062,70564615.3713,4367.74013945,4358.83002739,0.0
1.19583960059,0.82167196437,1.01370683961e-05,8398863.04626,2.70506393812e-05,0.0,9817193.18236,687.559180661,656.863777476,65461577.7222,1877.63562597,54804653.6064,66607827.3462,4963.93018205,4952.83301394,0.0
1.05613124699,1.03509055582,1.0129096209e-05,-42054437.8515,1.43584735519e-05,0.0,5800801.01923,679.035713673,647.864959933,66918879.8648,1700.93401078,35069348.5483,69732116.8643,4384.00080626,4375.20522253,0.0
1.06521546168,1.09108781852,1.01221568341e-05,-36061360.6393,1.36586800614e-05,0.0,5813091.16182,679.456747199,648.480319986,66960291.064,1714.23457311,34656661.2719,70112528.3298,4421.70938143,4413.26563959,0.0
0.986298238323,0.80787395055,1.0002184955e-05,-95001925.1122,1.50203425099e-05,0.0,5929878.93088,680.252686177,643.448308267,67186459.0913,1611.38101127,69914073.3163,70157353.4623,4094.12398728,4086.03751995,0.0
0.99308668983,1.06165219445,1.00132431275e-05,-95333878.1523,1.29583735706e-05,0.0,5928190.63661,679.140820271,643.883559341,67191014.4401,1615.61045109,70206353.1251,70464141.3132,4122.30284948,4114.10664096,0.0
0.963234855742,1.01515441126,9.6132993344e-06,-94178067.7021,1.35550810386e-05,0.0,6051365.45372,684.924802744,641.979313739,67512639.0996,1614.60557181,69188481.5834,69416007.8285,3998.38788618,3991.41868753,0.0
1.20235482021,0.96483546076,1.00280130271e-05,9385239.27334,2.43747301262e-05,0.0,10761720.4788,687.925447413,657.235883542,65370034.0048,1884.32322769,55526393.6665,66818585.3277,4990.97485869,4979.34327837,0.0
1.15383098349,0.892387663132,1.03735942957e-05,-2199491.96222,2.21964012382e-05,0.0,5490681.4426,684.744163677,654.23516796,65999626.1959,1826.73835771,48680851.4835,68088814.1025,4789.55241247,4779.32154945,0.0
1.06557257925,1.17183863433,9.71786355363e-06,-37535737.9645,1.27709782225e-05,0.0,5832365.45648,679.749588849,648.503948502,67023495.1694,1714.62914231,34724147.4716,70231624.8879,4423.19177647,4414.74244972,0.0
1.2446307259,1.04953227085,9.6489669236e-06,18018219.3136,2.57865775114e-05,0.0,19652405.1546,690.730548419,659.882906263,64883498.8484,1933.69766867,62476032.188,67135853.8024,5166.46214321,5153.97184796,0.0
1.22319257905,1.16221778421,1.02846094244e-05,13792866.6944,2.28072354184e-05,0.0,15075489.3207,688.962766575,658.563636625,65153145.2936,1908.59392965,59095209.8752,66598629.1816,5077.47239564,5065.56262768,0.0
1.08956639384,0.994565702491,9.76188240644e-06,-26750432.0676,1.60229637255e-05,0.0,5767478.48159,681.258384507,650.140123217,66851712.0215,1746.86967014,36176758.0384,69389474.386,4522.79010083,4514.15822377,0.0
1.07051581586,0.818432852477,1.0161945633e-05,-32668367.4873,1.70608901393e-05,0.0,5780377.72293,679.779107845,648.780967158,66870334.9725,1721.20282289,34981883.2602,69605475.7002,4443.71115163,4435.18465558,0.0
1.06342766368,1.09216061142,9.57655703039e-06,-38363259.8198,1.323201491e-05,0.0,5803671.59989,679.777984706,648.350511741,66920702.8472,1709.60453842,34862832.9814,69935511.7336,4414.28823194,4405.14089671,0.0
1.20656703989,0.818089305326,1.00320308373e-05,10122709.216,2.80466320924e-05,0.0,11455698.5015,688.301215218,657.452770354,65187328.9256,1889.2377707,56056992.6857,66861106.0419,5008.45978258,4996.53351088,0.0
1.0644725631,0.908402163215,1.01358605711e-05,-36299500.7038,1.55669013172e-05,0.0,5799764.07317,679.601789819,648.517521815,66917862.9298,1713.39455933,34625641.2981,70102998.9396,4418.62560943,4410.1934808,0.0
1.10284453423,1.01982070826,9.65944936984e-06,-22445737.9996,1.66418848389e-05,0.0,5730147.5489,682.105797326,651.006804204,66751312.5497,1763.87570115,37471723.4052,68824484.6769,4577.90766159,4568.96609703,0.0
1.1387000079,1.09237069172,1.0279282873e-05,-9927116.79172,1.93767142674e-05,0.0,5610409.0895,683.722247791,653.229720167,66420826.4843,1810.4876,44314984.3378,68057181.8552,4726.74373279,4717.55007496,0.0
1.26896998894,0.825916715752,9.87308467299e-06,23070042.8195,3.46894269152e-05,0.0,25082367.0055,692.415284203,661.435078197,64381649.2479,1961.89321666,66313604.9659,67336091.5363,5267.49442409,5254.74064102,0.0
1.13860009018,0.731940766434,9.77624476768e-06,-9307907.79127,2.42344443802e-05,0.0,5574917.57083,684.263150968,653.242492457,66308683.1975,1809.43202723,45000436.0617,67972813.8327,4726.32897434,4716.6965158,0.0
1.09182680503,1.0245919859,1.00561058018e-05,-25322044.4433,1.61152216318e-05,0.0,5747991.11943,681.112999127,650.231962684,66802171.6291,1749.65040322,36406061.8204,69182764.429,4532.17306768,4523.50592819,0.0
0.998852682553,0.943004003779,1.04706816214e-05,-95607385.0731,1.41195682208e-05,0.0,5890576.96017,677.744148251,644.246489187,67091734.3604,1623.67915045,70445997.7847,70445997.7847,4146.23748528,4138.02891148,0.0
1.10172434639,0.958013980716,1.02646049269e-05,-19463384.0362,1.74380116677e-05,0.0,5657049.91151,681.661033398,650.90716204,66506624.5875,1760.05308828,38903679.1707,68554665.6086,4573.25776186,4563.56924851,0.0
0.927540395751,1.04666303652,1.02424019003e-05,-92384357.1233,1.28309074432e-05,0.0,6101578.48844,688.471123644,639.673227746,67617370.1448,1601.57486984,67609582.7955,67815679.147,3850.22018276,3843.68286882,0.0
1.08375781469,0.917273822975,1.00244435236e-05,-28149061.6768,1.67241331379e-05,0.0,5764103.54532,680.788718574,649.778563339,66839162.7084,1739.18934008,35798592.1897,69292301.6808,4498.67868878,4490.13754097,0.0
1.13683861974,0.904732534509,9.68263798462e-06,-10790953.738,2.10026956994e-05,0.0,5603502.58748,684.135905605,653.130961436,66390932.456,1807.26576086,43972213.8374,67766693.9969,4719.01711054,4709.41052805,0.0
1.04879241162,1.03265204038,9.88225255099e-06,-45070793.7367,1.35963149299e-05,0.0,5846760.61519,678.824443054,647.426703341,67040183.1425,1691.81237594,35915028.9643,70514890.3796,4353.53730063,4345.168965,0.0
1.12695678751,1.13917502919,9.88519458313e-06,-13161265.7062,1.70339022124e-05,0.0,5647354.87845,683.252706542,652.473264962,66516479.2811,1794.3251154,42390770.6327,68149524.2191,4677.99762495,4668.57829672,0.0
1.10129381335,1.14519742547,9.8164888731e-06,-22747736.6782,1.51100845231e-05,0.0,5742497.79606,681.846119433,650.903338701,66794471.6482,1762.06787353,37327393.9907,68937476.0088,4571.47061922,4562.65458606,0.0
1.02605385775,1.06273901011,1.00142553908e-05,-64197155.9008,1.2958147224e-05,0.0,5923317.53945,677.805969345,645.995706394,67260327.5472,1663.37587833,45412003.6257,70860400.6421,4259.14956352,4251.87131426,0.0
1.05273385702,1.16231981753,1.02556956558e-05,-43859105.1599,1.28410491217e-05,0.0,5809756.0799,678.73591844,647.660810217,66948977.7536,1696.26193762,35477433.4807,70310870.647,4369.89824049,4361.06856187,0.0
1.24224057799,0.779407839733,9.96318599891e-06,17800268.0612,3.25526023616e-05,0.0,19413770.4853,690.696386231,659.732160956,64692310.7128,1931.18446254,62248178.2548,66876468.1626,5156.54063924,5144.04289818,0.0
1.16032486885,0.971983476008,1.05834741968e-05,-1236011.29276,2.17011807519e-05,0.0,5438655.89666,685.031738372,654.629706057,65854916.9066,1834.03506674,48755059.757,67424450.0446,4816.5085306,4805.84689789,0.0
1.10226997888,1.08564175053,1.00037843843e-05,-21862454.78,1.60193609916e-05,0.0,5727501.39432,681.806729109,650.971577156,66739733.3564,1763.3641521,37579396.4565,68573939.2992,4575.52268233,4566.69124891,0.0
1.15604485382,1.03836217686,1.0010772476e-05,-5525422.89775,2.13284126863e-05,0.0,5562006.89996,684.882411521,654.266353694,66288400.4168,1832.6140567,46910033.4233,68591730.4812,4798.74218821,4789.24414137,0.0
1.17606233252,0.947133865816,9.77444659571e-06,2327505.57781,2.23585983165e-05,0.0,5425713.96825,686.44417085,655.606516503,65838354.1184,1853.92683356,51314891.114,67100113.9271,4881.83474229,4870.99052506,0.0
1.04827385986,0.768469328053,1.01109552949e-05,-47007465.4052,1.65582360263e-05,0.0,5802764.69016,678.812326881,647.390554714,66920100.8745,1690.78794218,36422973.0799,70210393.2939,4351.38479228,4342.71712802,0.0
1.2289065221,0.847933969176,1.04491920199e-05,15318127.5402,3.02948945318e-05,0.0,16846570.4335,689.52432113,658.920151887,64829907.0724,1914.77113973,60257871.2408,66454956.3498,5101.19097324,5088.92758234,0.0
0.997929758971,0.935867872813,1.00729308611e-05,-95500267.0895,1.41418057412e-05,0.0,5906025.77797,678.533603822,644.191846642,67129954.1189,1622.1841798,70352958.7868,70736846.2827,4142.40642949,4134.13170635,0.0
0.940468615284,0.660439008774,9.92382481309e-06,-93102634.2944,1.6035146732e-05,0.0,6102086.57941,687.503549797,640.518578647,67652672.9939,1608.81361264,68241721.1715,68456521.4105,3903.88522204,3897.78030606,0.0
1.08221516137,1.04485531841,1.03976617901e-05,-27711163.7413,1.5493033494e-05,0.0,5765895.5407,680.375145521,649.672815078,66839097.1592,1737.39456589,35790740.837,69193299.9051,4492.27513485,4483.85491702,0.0
1.08670204331,0.950880596056,1.01782830008e-05,-26653284.0075,1.66753617877e-05,0.0,5751633.15768,680.815229075,649.950221809,66807379.5124,1743.00527476,36026507.2888,69223285.5876,4510.90018178,4502.31314944,0.0
1.01794767357,1.08222073309,1.03424116581e-05,-72773360.8866,1.27834665808e-05,0.0,5927463.81169,677.340231615,645.481968597,67258502.8432,1652.40574353,51511648.862,70776368.7897,4225.50079299,4218.33826606,0.0
1.13493424035,0.879050540927,9.54354316396e-06,-11427288.4215,2.10493856244e-05,0.0,5558457.9919,684.196155641,652.990750334,66250960.4546,1802.82653012,43468323.2303,67525718.2505,4711.11203169,4700.72729325,0.0
1.06390689881,0.786329503991,9.76530949933e-06,-38010736.3326,1.67282593632e-05,0.0,5810576.54892,679.775845397,648.395425781,66954386.8762,1712.70340389,34684541.1301,70069624.6728,4416.27753696,4407.85424659,0.0
1.00750224627,1.0290256297,9.74770965471e-06,-89374398.1871,1.30396562663e-05,0.0,5978962.59326,678.068352222,644.826175669,67371440.8263,1638.44661139,65017883.457,71095888.8713,4182.14182427,4175.12660929,0.0
1.11566241931,1.03098128955,9.43741273996e-06,-16941549.543,1.69820245013e-05,0.0,5670452.17431,682.956107013,651.767290476,66575383.9406,1778.86995063,40309820.8774,69318378.4726,4631.11470256,4621.38229669,0.0
1.19505087607,0.976385201564,1.00920561591e-05,8157255.44105,2.36669841139e-05,0.0,9590043.26349,687.417790557,656.821820602,65557977.4717,1876.4421368,54659648.2978,66663739.8754,4960.65618657,4949.58010789,0.0
1.19216988943,0.992431693488,1.01578445154e-05,6222461.24795,2.33134549013e-05,0.0,7730494.21666,687.280702667,656.618787829,65433545.775,1871.90355632,53192027.5476,66561110.5496,4948.69721102,4937.04399268,0.0
1.08903934234,0.991616092636,9.66025262314e-06,-27060115.2826,1.58774624317e-05,0.0,5767727.38352,681.301954284,650.107817286,66858053.3422,1745.84431355,36082606.1721,69430123.6792,4520.60231005,4511.88121887,0.0
1.02528355026,1.1255718298,9.97278902774e-06,-65590031.5703,1.23967500965e-05,0.0,5930235.73718,677.804905952,645.948052387,67278354.3817,1662.31256217,46357806.9401,70981313.977,4255.95201713,4248.68477179,0.0
1.05987650277,0.917249411839,1.01000251263e-05,-38579219.0248,1.5200774482e-05,0.0,5815860.7706,679.252898106,648.133788296,66970100.3111,1707.30608342,34696362.1824,69889029.8013,4399.547363,4391.18693595,0.0
1.0810672146,0.990667158303,9.8028648856e-06,-29854335.9054,1.55852010969e-05,0.0,5789594.94711,680.556190536,649.460462223,66921257.8998,1735.608731,35579177.9346,69394928.9514,4487.5100078,4479.01070367,0.0
1.13797247741,1.04579130497,9.48456469562e-06,-10017024.1487,1.87236391679e-05,0.0,5621305.33206,684.231530434,653.205935481,66457898.3604,1808.39753588,44568343.6119,67939038.7195,4723.72375373,4714.10009947,0.0
1.13205194594,0.769277124956,1.02379057882e-05,-11122046.3578,2.31819948194e-05,0.0,5555377.67853,683.492389262,652.729547689,66224622.3455,1800.13160347,43532079.934,67522508.5594,4699.1476276,4689.23730314,0.0
1.01303696111,0.924428203878,1.00962263527e-05,-81610020.1819,1.44186801407e-05,0.0,5867060.73795,677.756259165,645.151239434,67034119.0463,1642.34788619,58487735.3248,70697861.4495,4205.11642557,4196.5950628,0.0
1.08069537349,0.779543052165,9.86310862982e-06,-29763280.027,1.81117541241e-05,0.0,5769758.43836,680.761881342,649.563920739,66860494.4298,1735.27998611,35571354.6011,69320867.8866,4485.96649536,4477.47296739,0.0
1.13926793042,0.80831519595,1.00690351395e-05,-9577020.58402,2.31939491784e-05,0.0,5529668.19113,684.130449745,653.251737327,66144422.1575,1809.02599583,44618439.95,67970681.3693,4729.10117917,4718.94017462,0.0
1.02616977344,1.08199730854,9.9716820716e-06,-64475710.393,1.27870473127e-05,0.0,5925860.49205,677.845668178,646.006097384,67267295.9119,1663.51617844,45606268.3157,70884305.7198,4259.63072955,4252.35082381,0.0
1.02683060315,0.859444510867,1.02596183804e-05,-61842678.5718,1.47414012175e-05,0.0,5850137.43644,677.751669122,646.030308783,67027359.6025,1662.05423325,43821226.0402,70899886.3722,4262.37383368,4253.96369763,0.0
1.09454438078,1.09917724207,1.03304307232e-05,-23830874.1179,1.57138916824e-05,0.0,5738882.26389,681.091244404,650.4446061,66773760.8971,1753.47784083,36835777.1317,68937086.1161,4543.45372462,4534.84270233,0.0
1.22330580326,1.0399053304,9.83156712678e-06,13262270.181,2.44666010854e-05,0.0,14583303.8761,689.333700737,658.565654356,65130918.3457,1908.99313238,58635445.1726,66489411.9273,5077.94238933,5065.77790646,0.0
1.21081780139,1.15070346497,1.03182962165e-05,11582449.4988,2.20782189327e-05,0.0,12827659.4932,688.094901564,657.760559865,65393997.1669,1894.93153688,57223430.8157,66426951.8817,5026.10469357,5014.76153013,0.0
1.18298884535,0.735617365294,1.03406608734e-05,4678481.50044,2.8184975903e-05,0.0,6267476.71138,686.706868112,656.010510238,65545709.7821,1862.43599556,52285488.3804,66757732.0157,4910.58669705,4899.61880624,0.0
1.0820079315,1.17873171357,9.59500857251e-06,-30212094.246,1.34047349304e-05,0.0,5808062.98537,680.675766285,649.520291438,66975749.0914,1736.68815276,35571250.3427,69484902.847,4491.41492366,4482.90099926,0.0
1.19498702408,0.780320302658,1.04979231013e-05,8087842.68256,2.84827804457e-05,0.0,9469714.75809,687.349691409,656.793883218,65366244.0114,1876.34231163,54341892.1903,66435408.6632,4960.39113696,4949.20717293,0.0
1.01750868966,0.735248124422,9.99715637431e-06,-74818285.3956,1.55325216672e-05,0.0,5930290.30288,677.777674383,645.456982477,67257720.823,1652.15147393,53084520.5262,70790568.4981,4223.67857078,4216.52199263,0.0
1.1057490413,0.925033075541,1.03079737351e-05,-17989937.127,1.8219491799e-05,0.0,5663166.02687,681.824038928,651.146026077,66537560.5377,1766.1213784,39647653.6571,68840466.5751,4589.96427044,4580.59393703,0.0
1.16918424525,0.680030818947,1.02127044643e-05,1435148.6379,2.79269309208e-05,0.0,5383560.72109,685.991812411,655.179448651,65681790.1146,1845.37267851,50524801.2567,67340780.9561,4853.28380203,4842.45596883,0.0
1.02874502892,1.09289488932,1.01347936303e-05,-61213464.6638,1.2738553415e-05,0.0,5864588.87249,677.845017923,646.154835267,67074302.3891,1664.43719378,43428203.0475,70933804.2537,4270.32061505,4261.87965317,0.0
1.08478160806,0.860104692894,9.66941350328e-06,-28502952.0965,1.70590489579e-05,0.0,5769865.15884,681.11472545,649.840632963,66857899.3116,1740.36355158,35809960.4298,69398607.4107,4502.92845506,4494.27441673,0.0
1.24216936505,1.08609118722,9.88218153521e-06,17553347.1598,2.51682708174e-05,0.0,19067487.7366,690.44702432,659.734831155,64874416.4038,1930.5269094,62081429.0296,67029554.3302,5156.24503432,5143.74871723,0.0
0.990169492201,0.918896407836,1.00077377086e-05,-95180701.3484,1.42413740153e-05,0.0,5925619.09072,679.620421063,643.697618607,67180593.8862,1612.43986612,70071414.5359,70316825.4182,4110.19356213,4102.04469975,0.0
1.0878123722,1.08877155326,9.67014729783e-06,-27489059.7583,1.46494482568e-05,0.0,5777425.01294,681.184232524,650.033589037,66885748.1201,1744.16209203,36012929.1226,69452798.1327,4515.509157,4506.80741039,0.0
1.16199761091,0.828698857013,9.88441015247e-06,-2399066.35855,2.34883062806e-05,0.0,5436428.95784,685.688863836,654.741366253,65874930.227,1836.32613649,48437639.0572,67692068.1264,4823.45208289,4812.54259031,0.0
0.969549099824,0.998139249039,9.96223226077e-06,-94342696.935,1.37239944618e-05,0.0,6015667.97862,683.09539966,642.382136032,67419455.651,1612.49464982,69333463.3947,69563687.6582,4024.59831337,4017.45525486,0.0
1.03843061491,0.9184214286,9.60842629268e-06,-55367868.1463,1.4684015003e-05,0.0,5838256.48177,678.73972949,646.772891759,67005316.7096,1676.4639887,40016324.6101,71115989.685,4310.52548249,4301.66790897,0.0
1.12777248414,0.933971203782,1.01959631739e-05,-12335868.9823,2.01534266033e-05,0.0,5586346.51766,683.278464701,652.521224924,66314379.5155,1794.48169774,42948830.7022,67225638.3882,4681.38358167,4671.54572349,0.0
1.18036723117,1.12384255191,9.84654313236e-06,3043922.68523,1.97221542976e-05,0.0,5411179.04268,686.570828461,655.861499273,65791774.2189,1858.5647828,51625622.6306,67052342.2409,4899.70437659,4888.58363258,0.0
0.998856325345,0.93851124171,1.04392290775e-05,-95620663.5014,1.41693322048e-05,0.0,5891304.38584,677.81146314,644.248922055,67094357.3743,1623.6792534,70457488.2515,70466048.3679,4146.25260651,4138.04397397,0.0
1.08107944529,0.893092250973,1.0093638595e-05,-28860505.0151,1.68596077042e-05,0.0,5767067.32898,680.592802234,649.606323895,66844413.1062,1735.70294801,35651171.1941,69265923.9837,4487.5607774,4479.0605429,0.0
1.01232356628,0.782802324267,1.01934131116e-05,-81410230.3008,1.55357039439e-05,0.0,5857175.23349,677.684046204,645.10562515,67004041.1421,1641.51296899,58319754.8386,70607948.3036,4202.15512363,4193.64548276,0.0
1.22607246136,0.950208232451,1.03107195881e-05,14688989.4645,2.74138928638e-05,0.0,16141761.0998,689.235910379,658.758156724,65143174.3843,1913.29797501,59837997.6673,66675953.8675,5089.42678711,5077.91657131,0.0
1.16422300388,0.963767320706,9.84882929745e-06,-913336.909195,2.13222095203e-05,0.0,5445654.27728,685.729235095,654.876937508,65888440.2552,1838.63104778,49486165.3771,67778937.3298,4832.68968911,4821.74100823,0.0
1.05804439931,0.855467921914,1.02451340587e-05,-39184897.0958,1.58790377209e-05,0.0,5814511.27506,679.066131211,648.015321711,66957808.0653,1705.19357654,34749520.9238,69714239.4142,4391.94230154,4383.70301302,0.0
1.08037849771,1.14822018105,1.02525552197e-05,-29572797.6853,1.42639359945e-05,0.0,5785458.48246,680.345614977,649.567514217,66900874.9375,1735.17570624,35434133.8313,69264365.7424,4484.65114399,4476.35643042,0.0
1.14398868885,0.832151048839,9.91234119322e-06,-8667564.48228,2.30171986446e-05,0.0,5533462.18574,684.337089359,653.433279316,66167269.0778,1815.38289373,45123589.5971,68280997.3865,4748.69704742,4738.55841008,0.0
1.19205516926,0.958620718028,9.90874756017e-06,5848038.00667,2.36375681734e-05,0.0,7411365.7776,687.426769478,656.594972682,65485521.4765,1872.07772666,53139282.5327,66728912.8398,4948.2210076,4936.55003112,0.0
1.19548978544,1.13827457927,1.01733184484e-05,8201723.74219,2.09211952205e-05,0.0,9617213.01258,687.284008482,656.844206005,65595757.3861,1876.73891805,54698095.9313,66719292.5828,4962.47809936,4951.41427963,0.0
1.08886046986,0.966454338139,9.99151796611e-06,-26506005.8593,1.65423080441e-05,0.0,5754692.72681,681.058045264,650.082563968,66817768.578,1745.83153456,36145082.9806,69290937.038,4519.85981039,4511.23907596,0.0
1.06970264116,1.01505100483,9.99419652829e-06,-34545988.734,1.46321961047e-05,0.0,5802053.88117,679.82553629,648.767736765,66932734.3089,1720.16549952,34770906.3863,69916083.5796,4440.33566346,4431.82163779,0.0
1.04410593018,1.24618695122,1.00622466359e-05,-49362921.6946,1.19538656172e-05,0.0,5843517.8423,678.469160759,647.128559272,67036046.2858,1684.92121204,37225089.2491,71084852.7603,4334.08371618,4325.48354301,0.0
1.20982471945,0.989377690054,1.03802019512e-05,11174077.8354,2.50914307464e-05,0.0,12413591.3312,688.158794722,657.678847498,65212528.3313,1892.92730089,56834755.9525,66215063.082,5021.98241044,5010.21291806,0.0
1.15139270725,0.689427478877,1.0227274111e-05,-4230763.08497,2.56123392663e-05,0.0,5489599.05669,684.654837121,653.951430591,66030897.0141,1824.43781417,47558591.4774,67953670.3581,4779.43112779,4769.23598061,0.0
1.14635724165,0.896718812618,1.00586552139e-05,-7967056.00274,2.29236045951e-05,0.0,5578270.95353,684.391572207,653.682454826,66326714.3945,1820.48049027,45392637.1425,68444148.9881,4758.52891009,4749.18643674,0.0
1.12317519588,0.932316800461,1.0013803981e-05,-13658950.4269,1.95608368987e-05,0.0,5610288.70244,683.048189817,652.211076434,66392152.8282,1788.45786593,42198647.4888,68134995.7612,4662.3002381,4652.5394937,0.0
1.05406540428,1.07520454142,1.03488207032e-05,-41564399.4282,1.35763345693e-05,0.0,5814972.13858,678.705709396,647.735341278,66955397.997,1698.88559975,35072568.4669,69895188.94,4375.42549317,4366.90212107,0.0
1.02978312669,1.018637059,1.02862023554e-05,-60405416.5253,1.3694712152e-05,0.0,5847155.08365,677.783997699,646.216726072,67024262.8923,1665.71124058,42910815.4429,70876556.4801,4274.62975889,4266.17237978,0.0
0.897847233834,1.16295471397,1.00012108522e-05,-91138536.4099,1.13126599631e-05,0.0,6159676.3916,692.470245106,637.755402406,67752213.2906,1592.01021715,66513087.0567,67752213.2906,3726.96386764,3720.34608122,0.0
1.02184078726,1.07379956316,9.81598672147e-06,-71387365.1078,1.27900489801e-05,0.0,5942854.3938,677.914534182,645.737367446,67308789.0762,1657.73796091,50483368.7977,70978485.4119,4241.66110792,4234.4429561,0.0
1.09742847668,0.925709661808,1.03602858586e-05,-22208073.8594,1.78769419161e-05,0.0,5695017.09629,681.354117443,650.648612961,66637816.3816,1756.12894009,37405408.7273,68331441.7055,4555.4256067,4546.37527148,0.0
1.09655786449,0.975817782275,9.69993824528e-06,-24316120.122,1.65017790023e-05,0.0,5722392.76343,681.687896946,650.536524705,66710570.4644,1754.72712978,36727546.1026,69307883.9291,4551.8116955,4542.58184515,0.0
1.06046661381,1.05515810395,1.01049133096e-05,-38312262.0871,1.3781523526e-05,0.0,5823027.60249,679.224183467,648.170845262,66992674.5865,1707.98834965,34690201.0238,69948395.5139,4401.99691393,4393.62729479,0.0
1.07476899464,0.963343382445,1.00051755749e-05,-31382616.0234,1.55735567709e-05,0.0,5785126.07144,680.04741029,649.034016489,66891011.6322,1726.67866321,35223270.6582,69544615.5597,4461.36609675,4452.7742017,0.0
1.11450542728,1.07336329394,1.04692802767e-05,-15493865.6604,1.72446091408e-05,0.0,5639715.2425,682.113062851,651.633174731,66466119.2434,1777.53116346,40910462.2642,69086012.2872,4626.31202864,4616.79689432,0.0
1.17491556973,1.13576393122,1.0044326663e-05,2387862.62137,1.93588505063e-05,0.0,5454939.15355,686.067332875,655.533408959,65924977.4774,1852.70443175,51261895.2425,67194656.5437,4877.07452995,4866.46897478,0.0
1.12925111891,0.652756906451,9.83200026577e-06,-12266529.5511,2.47690352341e-05,0.0,5589587.41126,683.717564763,652.62292854,66334811.3032,1797.55593822,42870227.7543,67577538.3413,4687.5213946,4677.96230049,0.0
0.955616398548,0.711107389482,9.76961059153e-06,-93747498.0156,1.60228767461e-05,0.0,6075161.66464,686.00158153,641.495166596,67593970.3457,1615.22610431,68809493.5092,69031881.6759,3966.76367037,3960.45650878,0.0
0.913617976299,0.835244995683,9.97320782896e-06,-91685997.2443,1.44074559687e-05,0.0,6103427.14523,691.194901324,638.770072721,67609143.5902,1599.73650532,66994995.7385,67609143.5902,3792.42821962,3785.57467731,0.0
1.08965285189,0.953394219708,9.9352256249e-06,-26398604.2843,1.67079414509e-05,0.0,5753991.57872,681.144815225,650.129529567,66815762.5483,1746.87933856,36170734.4074,69304984.168,4523.1489882,4514.51586779,0.0
1.06285195367,0.922605213381,1.03757451305e-05,-36469146.3715,1.55342556248e-05,0.0,5801672.80987,679.206336546,648.327592857,66929440.4936,1711.55662961,34603557.9344,70025176.9654,4411.89845968,4403.58495089,0.0
1.12396759767,0.925334399937,1.07117844239e-05,-12510351.6081,2.03975105578e-05,0.0,5579864.4518,682.665983631,652.270975799,66302972.1864,1789.68217021,42715763.6639,67129102.3674,4665.58949793,4655.91599688,0.0
1.15617295058,0.977788481895,1.00681984139e-05,-5309319.5092,2.24759724038e-05,0.0,5547019.92786,685.088520796,654.413147904,66246140.3329,1832.81447281,46955337.6027,68513088.672,4799.27391786,4789.77380693,0.0
1.12134346683,0.831973765634,9.57135121308e-06,-15014606.4299,2.02808619829e-05,0.0,5627625.34635,683.264988309,652.075526676,66442351.2873,1786.29629186,41411006.3633,69158288.1562,4654.69673081,4644.86808448,0.0
0.922753220157,0.93965613304,1.01309162727e-05,-92120241.9407,1.38075296347e-05,0.0,6095506.95737,689.536815782,639.361492536,67593877.5188,1601.19616139,67377159.1919,67593877.5188,3830.34861687,3823.61755567,0.0
1.0299445818,0.788856205631,9.91399032687e-06,-60562030.6162,1.54928552249e-05,0.0,5904527.93191,678.114587745,646.253024651,67207251.5312,1668.69949065,43032712.1281,70974946.7039,4275.29995905,4267.96602213,0.0
1.01034180336,0.963223616569,9.81032777662e-06,-85379050.1581,1.3626096076e-05,0.0,5966508.72021,677.913471464,645.002560143,67339644.3224,1642.33204366,61636941.8016,70980277.5609,4193.92882575,4186.87361827,0.0
1.1728512367,0.749507547531,1.00642463469e-05,1805530.61731,2.65056856421e-05,0.0,5369756.9542,686.275797819,655.393967586,65651334.9815,1849.46004431,50743156.4498,66890756.7748,4868.50548354,4857.40179135,0.0
0.99306567168,0.716195958552,1.03520502065e-05,-95158351.0354,1.57978253562e-05,0.0,5898165.4877,678.614611627,643.880023747,67104323.6772,1616.03153119,70051892.1112,70322688.9466,4122.21560314,4114.09993136,0.0
1.14172119836,0.979745818514,1.00200465825e-05,-8998911.99788,2.05628736561e-05,0.0,5548902.57013,684.176393988,653.389535688,66211946.2827,1812.29958602,44874187.8915,68182155.9626,4739.28469439,4729.18334172,0.0
1.08171209973,0.911940870817,1.00272507512e-05,-28867068.1923,1.66373069147e-05,0.0,5769250.76232,680.673408441,649.64733003,66851203.86,1736.51453674,35666135.4655,69294535.4193,4490.18692598,4481.6776004,0.0
1.17096740045,0.971750395381,9.69433861596e-06,1084484.62871,2.13907719311e-05,0.0,5470410.35927,686.143468714,655.309416595,65977421.537,1848.22896566,50768669.196,67824835.135,4860.68567927,4850.15034217,0.0
1.06115961986,0.827537067036,1.03472538265e-05,-37356455.7102,1.64084545274e-05,0.0,5801371.33719,679.168996715,648.21686997,66925039.3898,1709.37416972,34613042.7172,69937048.1545,4404.87358204,4396.5876912,0.0
1.12567471049,0.899550763117,1.02363356619e-05,-13286992.36,2.10549933623e-05,0.0,5640406.5662,683.038301027,652.398453815,66491006.9798,1794.02373917,42406068.1743,68049602.4803,4672.67572324,4663.68880948,0.0
1.17905310797,1.04214531212,1.00931742916e-05,3199337.03037,2.12592234205e-05,0.0,5392651.59524,686.396276637,655.772322297,65714721.8935,1856.80520161,51560378.5973,66983306.4588,4894.24945118,4883.13906607,0.0
0.989681152876,0.8999472197,1.03009271159e-05,-95064143.7577,1.43922147836e-05,0.0,5918100.32049,679.095780892,643.664473272,67159150.1724,1611.65121735,69968895.588,70213675.1118,4108.16646559,4100.10524639,0.0
1.00866255905,1.03808384283,9.46474421995e-06,-90159230.2522,1.3066296325e-05,0.0,5978497.16519,678.427155531,644.902528801,67361668.1044,1639.34627447,65699812.302,71303280.0599,4186.95828262,4179.75184982,0.0
1.10174536948,0.75997932576,1.02525428212e-05,-19397831.0876,2.01848953548e-05,0.0,5638563.15232,681.783888928,650.908637798,66448859.014,1760.31319476,38892187.3182,68501715.4587,4573.34502871,4563.65615763,0.0
1.09858917896,0.996657298316,1.00112549176e-05,-22755483.6494,1.70547731216e-05,0.0,5732307.18409,681.606262336,650.725454884,66750874.961,1758.58481302,37262600.4555,69017508.953,4560.24368186,4551.51403322,0.0
1.12963338943,1.01460036145,9.90365438761e-06,-13327618.8699,1.91795887963e-05,0.0,5564778.65678,683.572556573,652.628083351,66258270.795,1795.75256843,42275097.2435,67514163.7263,4689.10819952,4678.72994431,0.0
1.11223849506,1.06737573722,1.01935569874e-05,-16607041.1034,1.70249046927e-05,0.0,5626468.3952,682.21668378,651.507418238,66425161.6345,1773.1346449,40489800.4962,69198914.0678,4616.90199299,4606.93590756,0.0
1.23289957993,1.11990175597,9.93980028152e-06,15981262.5389,2.39309392164e-05,0.0,17425885.1748,689.738672723,659.199271594,65199006.8053,1921.21653462,60950884.9191,66891469.3073,5117.76615629,5106.12591245,0.0
0.997015502936,0.858847722625,9.56409660459e-06,-95792204.5795,1.4369157732e-05,0.0,5976668.51961,679.337038412,644.152602453,67329224.063,1622.82864251,70609695.7657,70870386.9364,4138.61135269,4131.23279264,0.0
1.13036655069,1.03296981678,9.81269756129e-06,-12552263.0466,1.87835427832e-05,0.0,5570384.37621,683.653871265,652.67955725,66265055.4279,1796.66388722,42756070.9297,67602422.4199,4692.15155191,4681.74801741,0.0
0.957525869376,0.626556058258,9.82330234733e-06,-93791693.9312,1.70216559166e-05,0.0,6061945.54876,685.653293106,641.617772788,67559141.694,1615.32319714,68848468.1292,69071802.4634,3974.68988378,3968.35702514,0.0
0.977171189467,0.993041723225,1.03670265049e-05,-94556755.79,1.36035931949e-05,0.0,5946906.61807,680.774190145,642.860679958,67221815.664,1607.64544214,69522109.687,69757109.5013,4056.23760748,4048.34774951,0.0
1.10131893298,1.0156196208,1.01941741947e-05,-21888254.3183,1.71309147882e-05,0.0,5713724.66868,681.649738264,650.909135118,66700925.7456,1762.02894789,37575817.3799,68538096.2424,4571.5748908,4562.75857396,0.0
1.01862145696,0.893842912818,9.86390846138e-06,-74736351.0806,1.42956332854e-05,0.0,5940136.49239,677.89660296,645.533295718,67289037.9588,1653.51488564,53028915.2059,70920166.5756,4228.29766784,4221.125295,0.0
1.09087111394,0.904198916913,1.0343976951e-05,-24915561.119,1.77844359024e-05,0.0,5734894.96306,680.910269536,650.171624019,66756437.0389,1748.8415777,36461936.6375,69035860.1756,4528.20599396,4519.65200205,0.0
1.10754840683,0.710093690549,9.84588788237e-06,-18510867.5983,2.10727897459e-05,0.0,5654321.21793,682.401536542,651.276375181,66512159.404,1768.86334217,39426794.5566,68761103.0136,4597.43343675,4587.93505063,0.0
1.07756758962,1.17080527439,9.79280010755e-06,-31414095.6578,1.33464067562e-05,0.0,5810795.95779,680.277701668,649.225698487,66980607.7684,1730.87755414,35253057.2309,69697398.1404,4472.98306451,4464.5380596,0.0
1.10071023826,0.801674171242,1.03289484424e-05,-19558997.4722,1.94864009729e-05,0.0,5642978.63058,681.643396572,650.84330027,66462065.4757,1758.89970666,38803393.6673,68459415.314,4569.04819902,4559.37693525,0.0
0.99754319839,0.690191783587,1.00707760464e-05,-95419978.4158,1.60980589185e-05,0.0,5893446.64453,678.675572765,644.167511518,67090492.4313,1621.82395771,70282378.712,70621330.0657,4140.80181652,4132.53337128,0.0
1.13807618853,1.00709023134,9.89255340814e-06,-10441883.3832,1.98393417959e-05,0.0,5590749.82421,684.042787199,653.204457734,66351018.3919,1808.52259298,44240856.0012,67864331.525,4724.15425859,4714.42215361,0.0
1.06904133424,0.85592128171,9.76782985607e-06,-35701729.3383,1.62361181317e-05,0.0,5801998.96856,680.026723198,648.728366748,66938365.3605,1719.407384,34695763.7918,70150155.965,4437.59057843,4429.08839674,0.0
1.19042749351,1.09448796382,1.00944906179e-05,5679569.8496,2.12557870457e-05,0.0,7196259.42034,687.117335232,656.49595877,65507217.4879,1869.72208346,52917788.92,66623401.3912,4941.46452556,4929.84351087,0.0
1.06708372558,0.740442062157,1.04722218683e-05,-33380235.1677,1.79638153468e-05,0.0,5776413.01685,679.396791614,648.574817128,66862058.1579,1717.04472844,34776482.0863,69579554.4296,4429.46454488,4421.08572572,0.0
1.07382787734,1.09841903422,1.02788258352e-05,-31152529.5174,1.42684396039e-05,0.0,5785682.64417,679.928855337,649.103434601,66887574.1311,1725.67431367,35203924.1178,69341339.3101,4457.45951884,4448.97578043,0.0
1.12159142003,0.809576312836,1.02308397113e-05,-14103417.0963,2.12640782119e-05,0.0,5600473.82081,682.869649749,652.10948833,66352445.0454,1786.85387109,41759476.8051,68161476.3363,4655.72598454,4646.09212948,0.0
1.12890663681,1.01723538421,9.47891047284e-06,-13083360.8985,1.83878483129e-05,0.0,5620439.37048,683.725667681,652.577995961,66430147.3914,1795.78624823,42517457.3078,67930510.7656,4686.0914494,4676.10901395,0.0
1.0757057205,1.07028691589,9.96141648939e-06,-30672642.2564,1.40479713873e-05,0.0,5768962.81117,680.124459063,649.090344931,66835640.7333,1726.60934961,35229334.6484,69411784.5673,4465.2544458,4456.10435921,0.0
1.15993435942,1.06847292721,1.04068495683e-05,-2057778.03119,2.11119124614e-05,0.0,5468060.33258,685.087056755,654.611161559,65951755.7974,1834.35663178,48504990.046,67655424.2539,4814.88752595,4804.47411686,0.0
1.05947759279,1.13576822599,9.91811027891e-06,-39575380.5909,1.2906516457e-05,0.0,5837292.63154,679.282295984,648.105723927,67031039.0547,1706.58807379,34837014.7898,69854843.2787,4397.89148767,4389.53727206,0.0
1.10273809692,1.09556992878,9.63143158783e-06,-22593730.5104,1.56615941215e-05,0.0,5737121.46877,682.082632016,650.996926403,66771779.2012,1763.67165314,37431880.9427,68931462.9277,4577.46584031,4568.52603392,0.0
1.14638989337,0.884597414551,9.85770971452e-06,-8491043.03002,2.28889658395e-05,0.0,5587059.81372,684.526526961,653.684828494,66349393.71,1820.65286726,45284273.6402,68389976.1269,4758.66444738,4749.32312342,0.0
1.14926924952,1.02034826401,1.01886598841e-05,-6985405.83621,2.12662451906e-05,0.0,5572351.06898,684.500853662,653.92679502,66316226.8379,1823.96940441,45962658.9178,68692189.0407,4770.61665476,4761.22920585,0.0
1.09743576935,0.946630811127,1.00407453439e-05,-23374178.6421,1.75417405231e-05,0.0,5726168.52409,681.53524265,650.642736797,66729510.8191,1756.93496771,37024866.7937,69142276.4281,4555.45587857,4546.70038069,0.0
1.03330810704,1.0515584555,1.04568424177e-05,-57305421.8223,1.34408841527e-05,0.0,5814081.6096,677.747272888,646.431274548,66934763.5151,1669.10008891,41301914.9572,70597076.8495,4289.26195232,4280.31990075,0.0
1.15677851997,0.816976852276,9.67843017762e-06,-3324284.08956,2.29410203779e-05,0.0,5468429.78973,685.421200649,654.3767705,65964822.1334,1829.87669329,48351583.1668,68327857.6965,4801.7876364,4790.97226236,0.0
1.11052191531,0.971651090996,9.95234099463e-06,-17375393.5704,1.79027641754e-05,0.0,5637606.44627,682.363239743,651.43224442,66464633.0547,1771.22361461,40071357.6258,69031219.8081,4609.77647045,4599.83990616,0.0
1.07595525321,0.770054428074,9.56482979707e-06,-32804385.2192,1.76734019141e-05,0.0,5797965.99563,680.523244493,649.128123189,66933815.5884,1729.05168653,34978014.3953,69909324.1544,4466.29025607,4457.87021963,0.0
1.07317628451,0.821232623913,1.00275813776e-05,-31982674.3862,1.71423652073e-05,0.0,5778792.57918,679.998785518,648.929035816,66868754.7788,1724.69793264,35122596.7345,69574157.1771,4454.754757,4446.18792897,0.0
1.09826924119,1.06994853816,1.06046561543e-05,-19914532.3212,1.62286072392e-05,0.0,5647658.36044,681.174359832,650.677983455,66469614.7078,1754.78443875,38600936.5603,68438249.9491,4558.91562018,4549.09720642,0.0
1.22374253551,1.0101691087,9.71178107872e-06,13636013.8059,2.48989378101e-05,0.0,14977174.6643,689.382934616,658.614622077,65284798.1694,1911.0081064,59016585.7577,66616617.7604,5079.7552649,5068.16966551,0.0
1.07956046456,1.0416488226,9.63644705653e-06,-31103206.9582,1.4764293058e-05,0.0,5804009.41183,680.557128443,649.358416172,66960144.6647,1733.57737526,35368525.2063,69432316.6416,4481.25548839,4472.77958009,0.0
1.16138941013,1.05243437015,1.00070241768e-05,-2305030.2301,2.06003485736e-05,0.0,5480481.36811,685.436960265,654.715489103,66016312.8864,1836.34294059,48547633.833,67868113.5166,4820.92744145,4810.4010404,0.0
1.05296095254,0.798947365563,1.03282292708e-05,-42095066.6798,1.62775262353e-05,0.0,5801363.85202,678.779374262,647.670628642,66920927.8629,1697.60906221,35186542.0313,70258375.1377,4370.84091399,4362.33511863,0.0
1.14525048999,1.24458034286,1.00696597576e-05,-8449309.10176,1.75383104327e-05,0.0,5610499.8068,684.143682646,653.607906081,66424525.8925,1818.73134841,45228932.0802,68440568.6081,4753.93478395,4744.6116868,0.0
1.0687082603,1.11766400251,1.02275647664e-05,-33326187.6711,1.36776762156e-05,0.0,5801814.54379,679.527553736,648.684617075,66933998.9366,1718.59676236,34903141.5207,69735176.0224,4436.20798851,4427.70985184,0.0
1.09791124681,0.851468657588,1.02154189539e-05,-22806595.4014,1.88454978613e-05,0.0,5710439.25647,681.505358584,650.686407513,66685332.6883,1757.72732936,37130833.6269,68671988.8386,4557.42958551,4548.66694312,0.0
0.999356317502,0.889499818793,9.90400078939e-06,-95839390.3001,1.42757818518e-05,0.0,5981846.23633,678.50829807,644.306872326,67373682.3813,1627.43201293,70649294.7862,70820698.2613,4148.32807395,4141.42979849,0.0
1.08722115181,0.773885325755,1.02012786078e-05,-26373067.5338,1.89839240118e-05,0.0,5736751.38032,680.897123374,649.975461758,66762868.0437,1743.82965074,36078351.1223,69157020.166,4513.05500116,4504.4598683,0.0
1.10510434704,0.880199351187,9.77432925975e-06,-19914029.7719,1.84057402879e-05,0.0,5638850.78022,682.267333014,651.11765136,66456477.7259,1763.84835623,38866013.7131,68601017.8238,4587.28814456,4577.16093387,0.0
1.12880268203,1.07236800778,9.9935260826e-06,-12214951.3903,1.80421474264e-05,0.0,5607147.96178,683.252440708,652.510205143,66391685.1438,1795.53140317,43065994.8741,67358745.2539,4685.65993311,4675.80506464,0.0
1.16112636762,0.856176625941,9.69717812918e-06,-1941089.6766,2.27193336379e-05,0.0,5452936.36526,685.713436931,654.690860697,65921428.4075,1835.06638086,49018310.6659,68051338.4371,4819.83555199,4808.94229684,0.0
1.04940337889,0.904416297741,9.91759200713e-06,-45819078.153,1.50266330641e-05,0.0,5817740.50332,678.912990024,647.463223216,66956947.5544,1691.8844441,36068500.1629,70556789.6311,4356.07342577,4347.35546755,0.0
1.05515539974,0.871471536546,1.0237603434e-05,-41452432.355,1.56584853824e-05,0.0,5803689.72839,678.930090055,647.804680854,66931201.837,1700.47202904,35045970.1894,69829346.7472,4379.95006432,4371.40933106,0.0
1.15044870566,0.850184786439,1.02621616633e-05,-4501946.56691,2.24856542881e-05,0.0,5510126.22389,684.464183722,653.892351454,66094294.5641,1823.00648008,47411476.417,68550395.1369,4775.51257719,4765.33514203,0.0
1.14941153247,0.976597551738,1.01128088666e-05,-5018397.28253,2.14869632366e-05,0.0,5535344.84032,684.574513259,653.929063877,66174778.2401,1822.2325396,47377736.2999,68672121.5236,4771.20727128,4761.28451612,0.0
1.2048109608,0.894317778811,1.00425557156e-05,9793803.86878,2.61776686376e-05,0.0,11152525.8333,688.131112887,657.355449862,65239571.249,1886.94705466,55813750.6856,66823348.2708,5001.17029828,4989.24986809,0.0
1.06863735299,1.25574083777,9.88909651383e-06,-35458143.8321,1.22904035276e-05,0.0,5822473.49514,679.761406756,648.702210499,67002394.0747,1718.61062087,34723271.8182,70156789.1812,4435.91365226,4427.41633402,0.0
1.06998284446,1.11149105279,1.00572045246e-05,-33393940.5996,1.37142151509e-05,0.0,5805208.73652,679.724942774,648.767792714,66943786.0977,1720.26700382,34907748.3018,69810660.6464,4441.49878735,4432.98195279,0.0
0.97686217742,0.985916510371,1.04962627366e-05,-94508382.3078,1.34810041784e-05,0.0,5947398.87962,680.386408626,642.840291569,67226411.2093,1605.84259901,69479492.8895,69716398.1788,4054.95489847,4047.09762113,0.0
1.1565895206,1.0281356964,1.00069061466e-05,-3671940.40861,1.98831221648e-05,0.0,5467636.37193,685.157777301,654.403244468,65964127.35,1828.96374129,47762389.5324,67830901.9496,4801.00310001,4790.10115382,0.0
1.1567738597,1.0933191561,1.03411757914e-05,-2711603.07052,1.91997042544e-05,0.0,5502191.79595,684.859928948,654.420811922,66039776.7971,1830.59308466,48251035.6359,68018162.9013,4801.76829161,4791.4812258,0.0
1.01970523438,0.925587569296,1.02541478655e-05,-69799648.9991,1.42557069621e-05,0.0,5865562.65201,677.577099449,645.572561046,67061569.8057,1652.31125245,49299513.8954,70887902.9471,4232.79642791,4224.50092779,0.0
1.10106152845,1.1269139907,9.98129919379e-06,-22332709.8416,1.54170388689e-05,0.0,5734923.07508,681.733639764,650.893393837,66759561.0118,1761.76151509,37440303.0265,68655386.341,4570.5064046,4561.69403442,0.0
1.01960469069,0.618569056511,1.00988237099e-05,-71172368.2825,1.70149605829e-05,0.0,5905584.285,677.74451096,645.584787535,67187940.7564,1654.66346655,50320128.8596,70830394.9241,4232.37907105,4225.103685,0.0
1.06220973328,1.00726137679,9.65766685151e-06,-38506109.3249,1.4002084951e-05,0.0,5798375.13944,679.824798003,648.354610747,66899876.0396,1708.4263393,34702696.7875,69943256.121,4409.23260285,4400.12307717,0.0
0.969453177742,0.728385004454,1.00973900382e-05,-94153375.6586,1.6045196701e-05,0.0,6012861.60056,683.374214205,642.379058924,67429771.8708,1615.55207065,69166859.476,69396285.5163,4024.20014081,4017.40996175,0.0
1.02808530144,0.871203146892,9.94187862765e-06,-62016000.5221,1.4689801765e-05,0.0,5911597.54835,677.999556432,646.130171516,67224729.4244,1666.15598366,43939797.4466,70971327.2311,4267.58208628,4260.26343709,0.0
0.960997482464,1.06211811196,1.03637743929e-05,-93856045.99,1.29778626269e-05,0.0,6036689.75169,683.514465679,641.832546928,67485065.9735,1609.60904336,68905085.5196,69128108.9561,3989.10054971,3982.39974001,0.0
1.18539447609,1.00240072887,9.73915681479e-06,4610966.62146,2.20209237357e-05,0.0,6324802.88882,686.974829596,656.172105675,65794575.0758,1865.49638926,52678389.7951,66937431.3926,4920.57247025,4909.66382972,0.0
1.18585193984,0.802708533821,1.00457973623e-05,5125883.94863,2.65574771403e-05,0.0,6739987.08327,686.963381978,656.198492601,65662447.1681,1866.46300983,52785624.6221,66925538.9406,4922.47140228,4911.68359378,0.0
1.17830097416,0.885161257162,9.89238535362e-06,2780949.03932,2.38134018001e-05,0.0,5386476.02452,686.586892645,655.733840213,65712137.9804,1856.32175647,51437534.0084,66939601.5806,4891.12734374,4880.03045326,0.0
1.02855917866,0.662316013283,9.89823039267e-06,-62103278.1045,1.66047423116e-05,0.0,5901202.3564,678.129774278,646.162214452,67194240.3306,1666.93307213,44017861.6487,70962366.3434,4269.54915062,4262.23506358,0.0
1.1577004731,0.825483450207,9.84263241647e-06,-5042881.33409,2.49612748621e-05,0.0,5535515.42322,685.344042252,654.461165807,66197868.9261,1834.78024283,47158029.2347,68526039.224,4805.61466384,4795.99509095,0.0
1.09127613116,0.917138688792,9.94217034369e-06,-25821396.3048,1.72510563434e-05,0.0,5746578.35741,681.224277568,650.212196939,66795252.3422,1749.03061739,36303993.7832,69264542.6382,4529.88722045,4521.22870334,0.0
1.25038108736,0.698001114815,1.02287113041e-05,19956875.8678,3.72052643788e-05,0.0,21766210.4823,691.200190099,660.210480677,64411203.7088,1939.8039184,63942799.0313,64823760.8244,5190.33189363,5177.57208237,0.0
1.05783410777,1.01816565434,1.02619578701e-05,-39277582.5799,1.42276027381e-05,0.0,5823860.19989,678.984043982,648.001959297,66986332.6342,1704.80377714,34775176.958,69727154.4324,4391.06938135,4382.83478577,0.0
1.12633081548,0.810853523265,9.46162894351e-06,-14241214.4808,2.14940159362e-05,0.0,5663769.6761,683.614116567,652.427586375,66573186.8873,1794.86841771,41989001.5326,68964519.4508,4675.39921506,4666.27218982,0.0
1.10854380914,1.00948652925,1.0481558507e-05,-17079099.461,1.75974751221e-05,0.0,5653392.05263,681.828745136,651.304012627,66498453.0823,1769.91602534,40034838.43,68973268.5535,4601.56535174,4592.14905753,0.0
1.10788966862,0.990937270022,1.03870285388e-05,-17499061.5787,1.7709437525e-05,0.0,5658349.1652,681.872981941,651.271964871,66510658.9843,1769.09324524,39874735.6501,68925721.3263,4598.85001444,4589.44454032,0.0
1.05194770748,0.865135402368,1.02514134642e-05,-44192665.427,1.57581461047e-05,0.0,5792147.12266,678.828683095,647.614864643,66893038.1762,1695.44245558,35539364.5906,70299832.5466,4366.63493375,4357.81798297,0.0
1.09479511349,0.916266087741,1.0283468224e-05,-23809026.8579,1.79334729115e-05,0.0,5727138.57254,681.218700223,650.461041767,66737163.6593,1753.96296598,36808963.6602,68922038.3059,4544.4945161,4535.87959532,0.0
1.0708421607,0.836584761968,1.04153997745e-05,-31915989.4312,1.71255886032e-05,0.0,5770567.60153,679.749015097,648.897959169,66837749.5697,1721.93544947,35010616.966,69352361.692,4445.06580907,4436.6285857,0.0
1.14996462399,0.775134352253,1.02485583992e-05,-6574790.94272,2.58479357964e-05,0.0,5544159.89431,684.63276972,653.973843599,66230401.2107,1825.0918336,46146481.9807,68584667.5847,4773.50315418,4764.1045521,0.0
0.977667087782,1.17035666882,9.79660701668e-06,-94981895.3692,1.16819810616e-05,0.0,6032790.77969,681.539978448,642.910872973,67475773.1831,1611.91404312,69896018.1375,70134004.5585,4058.29608138,4051.28283675,0.0
1.20110946507,1.00721787937,1.03460491643e-05,8726268.29817,2.3989528702e-05,0.0,10066682.1806,687.666024084,657.142950318,65303293.1099,1882.24648182,54888113.6405,66636259.4225,4985.80538951,4973.98802759,0.0
1.13392475044,0.9067119482,9.44382630969e-06,-11827642.7559,2.04288722281e-05,0.0,5570351.14339,684.171863701,652.920207864,66283781.5562,1801.55747853,43193990.3599,67533308.4462,4706.92163908,4696.55452,0.0
1.00556133078,1.08892798562,9.98367500861e-06,-90590690.9856,1.27800436254e-05,0.0,5900684.6623,678.035148643,644.677141436,67124066.6252,1632.21848669,66057033.4593,70832845.099,4174.08508407,4165.68623258,0.0
1.03800646052,0.978082694642,1.03663043623e-05,-51928882.8022,1.39494472107e-05,0.0,5837269.38542,678.030764801,646.739224014,67005305.5597,1677.37196826,38322549.5105,70762331.5845,4308.76481762,4300.3492516,0.0
1.05935672385,0.955757738672,9.7651242416e-06,-40215597.4687,1.46428406235e-05,0.0,5829151.4428,679.568110327,648.165496626,67003718.1727,1706.51741728,34916346.6818,69775693.0795,4397.3897607,4389.03742677,0.0
1.01937545327,0.964937296144,9.71032330307e-06,-75375278.5115,1.37483784039e-05,0.0,5947703.98623,678.024076081,645.57476632,67312048.5458,1654.48188526,53524015.656,70956129.8038,4231.42750652,4224.24442298,0.0
1.00260213148,0.930463492286,1.03226163012e-05,-92447026.2817,1.43462727422e-05,0.0,5886019.69386,677.775180674,644.48882728,67081311.8178,1628.65201988,67676743.88,70588816.7016,4161.80144777,4153.53232271,0.0
1.13514500467,0.713411540416,1.0210735536e-05,-10890617.8815,2.52734965125e-05,0.0,5591692.77331,683.772663195,653.027758143,66356052.1177,1806.37566061,43797782.8172,67757859.7394,4711.98691439,4702.84964598,0.0
1.23370926191,1.08702007386,1.00428446293e-05,16243785.9791,2.49139950156e-05,0.0,17738485.1664,689.617669995,659.141996747,65159006.7084,1922.03511932,61141404.189,66866024.6686,5121.12714619,5109.45080777,0.0
1.07247113046,1.13969037933,9.66909467862e-06,-33993520.0454,1.33266756154e-05,0.0,5826661.29661,680.1460616,648.943788583,67017111.911,1724.22737951,34833166.8325,70106166.911,4451.82766254,4443.46147702,0.0
1.14079985822,1.04205912217,9.47207587014e-06,-8450169.50016,1.78399920485e-05,0.0,5559183.2925,684.430885044,653.361285934,66233382.3625,1809.39624485,45481625.6713,68226315.9207,4735.46021147,4724.85442989,0.0
1.08641517772,0.921875500123,9.89483848475e-06,-27631404.2863,1.67814297621e-05,0.0,5762528.60218,681.024415535,649.943169378,66836142.6496,1742.66850088,35926065.4205,69337943.9579,4509.70940272,4501.12684548,0.0
1.07824852014,0.925111067608,1.00385106613e-05,-30134562.7338,1.62514985194e-05,0.0,5778904.11341,680.432710299,649.402482111,66876088.0919,1731.9602046,35434042.3679,69304914.6217,4475.8096071,4467.35404825,0.0
1.02733805474,0.887970896678,1.01106180945e-05,-63950729.0617,1.47839074623e-05,0.0,5851129.10272,677.91151888,646.050713336,67030931.3947,1662.51817107,45198530.3071,70876985.4341,4264.48026523,4256.06227719,0.0
1.00417016724,0.811754136517,9.62329263692e-06,-95507373.3162,1.47929233331e-05,0.0,5954587.87253,678.574947326,644.605218217,67273727.3095,1632.47907368,70363843.3824,71041404.1843,4168.31036421,4160.82588362,0.0
1.09305669016,0.848591624707,9.74706109421e-06,-25544618.1879,1.78495281312e-05,0.0,5674846.62284,681.544900415,650.284189227,66556476.1265,1748.37703152,36559252.4006,69222933.0266,4537.27832085,4527.35228947,0.0
1.15331804244,0.925108947303,9.84118710215e-06,-7273160.55572,2.28379309935e-05,0.0,5460042.12887,685.174678547,654.151610455,65960408.5964,1825.71190513,45667296.6335,68272856.1191,4787.42319417,4776.49665824,0.0
1.06548368587,0.903217968601,1.02898766876e-05,-35632337.8085,1.58584403621e-05,0.0,5797389.19196,679.427092323,648.500075685,66919922.2403,1715.04787599,34632820.4739,69922069.2023,4422.82278005,4414.46852615,0.0
1.14145510345,0.978303824112,9.9230715739e-06,-9758119.56897,2.09649122081e-05,0.0,5608701.47492,684.184756292,653.413699167,66409294.4041,1814.26282761,44594989.5184,68126303.8295,4738.18013442,4728.91757384,0.0
1.07808001924,0.984936298147,1.03209089918e-05,-29511533.3299,1.58758759222e-05,0.0,5776004.03505,680.212430729,649.40485022,66876043.0642,1732.03362617,35475241.1407,69229810.6538,4475.11015987,4466.75354237,0.0
1.12125812364,1.01601239359,9.89109770073e-06,-14503726.395,1.82169088197e-05,0.0,5607313.27775,682.988469958,652.067036948,66373716.5919,1785.04072349,41562886.9177,68411111.3824,4654.34247123,4644.22084774,0.0
1.17232233118,0.6323396927,1.01748710787e-05,1820838.26896,2.97890312224e-05,0.0,5325757.25943,686.331227679,655.351870171,65505330.6297,1848.50560857,50697087.3741,66779037.9113,4866.30999673,4855.00876391,0.0
0.995539924039,0.800420047139,9.94499830835e-06,-95395131.5719,1.52275208028e-05,0.0,5907950.43806,679.119517869,644.04204845,67135640.7093,1619.02593334,70260502.67,70491807.1794,4132.48622469,4124.25028269,0.0
1.11895399946,0.75701521258,1.03939031593e-05,-14354044.3742,2.2114153348e-05,0.0,5596230.60351,682.632435008,651.93466449,66337641.1055,1783.57639212,41516087.6123,68321683.3468,4644.77805176,4635.18825517,0.0
1.15233915991,1.18859353575,9.90620601755e-06,-5300346.89849,1.82394960827e-05,0.0,5562370.62591,684.774485448,654.119010969,66271692.2724,1826.21645027,47261115.0178,68761571.867,4783.35985279,4773.47166392,0.0
1.01823530664,1.19829752501,1.00340060026e-05,-73042732.5499,1.19662113463e-05,0.0,5892458.87028,677.717813321,645.487268158,67135885.1366,1650.12029141,51745958.6623,70786626.8612,4226.69475786,4218.42276276,0.0
1.02631476801,0.827406077326,1.01286805068e-05,-62352549.7718,1.51069773644e-05,0.0,5900374.38014,677.770090101,646.000329502,67187812.1338,1663.46614047,44114889.2629,70804761.802,4260.23260201,4252.86060392,0.0
1.2412842048,0.97183001046,1.00804995522e-05,17990489.1171,2.80524201671e-05,0.0,19602157.8633,690.329378677,659.683316774,64913239.7617,1930.28449757,62456547.4588,67071792.5634,5152.57073412,5140.52629261,0.0
1.17989971439,0.873155563439,1.03440137591e-05,3818694.81984,2.48108215567e-05,0.0,5735436.07106,686.398357384,655.808451842,65609097.9365,1858.15589723,51787458.7791,66721777.279,4897.76371443,4886.74411145,0.0
1.04702747757,1.03421981361,1.03972883158e-05,-46040141.5166,1.38867400791e-05,0.0,5809547.96594,678.400731927,647.303736469,66938765.1593,1688.78287494,36025009.0192,70276553.5106,4346.21105939,4337.47481078,0.0
1.0841237039,0.80054108695,1.03361025065e-05,-27176551.1942,1.8549359861e-05,0.0,5747104.62002,680.62303633,649.790349387,66783481.7094,1740.09052638,35875655.3661,69158534.2615,4500.19749489,4491.74785589,0.0
1.05205273926,1.05512260788,1.04452416601e-05,-42799509.615,1.40487923855e-05,0.0,5803648.20516,678.581225082,647.615509774,66928271.0764,1695.80681385,35201503.3703,70334953.1088,4367.07092067,4358.4315283,0.0
1.25741954113,0.985248175933,1.0320624041e-05,21250648.4537,3.04600186224e-05,0.0,23211885.7109,691.266770533,660.686107293,64600908.8397,1948.11817953,65057079.3151,65902396.63,5219.54851523,5207.12527917,0.0
1.08018963395,0.796689124025,1.01932977042e-05,-28776918.204,1.8096033969e-05,0.0,5746757.49067,680.520339365,649.548513871,66784981.3605,1733.95257845,35528522.4565,69183203.5821,4483.86717053,4475.18900602,0.0
1.11056315933,0.92599713544,9.62108091042e-06,-18348305.4513,1.79640036873e-05,0.0,5682568.21928,682.591243151,651.466790373,66604121.7645,1772.86062882,39636620.674,68955852.2683,4609.94767438,4600.49720281,0.0
0.939294614498,0.955920012816,9.96474442485e-06,-93094575.1429,1.36055754124e-05,0.0,6116943.42221,687.39874043,640.442714442,67696356.0297,1607.66433861,68234596.0834,68448742.8436,3899.01194478,3892.92258378,0.0
1.03725700291,0.804862073416,9.86606083837e-06,-56569061.1554,1.57055150628e-05,0.0,5839767.60825,678.522811932,646.698614214,67010283.6857,1676.08865342,40705720.9169,71021512.572,4305.65381908,4297.16408657,0.0
1.14100499566,0.961375080671,9.89858467623e-06,-8562556.42239,2.07538858421e-05,0.0,5582778.19791,684.157856943,653.362075869,66336729.2976,1812.17000127,45460209.0264,68252573.8628,4736.31173698,4726.63956841,0.0
1.14851307561,0.786550990164,9.96021924285e-06,-7651560.4991,2.50733717295e-05,0.0,5565187.98318,684.677089777,653.84885778,66288109.4306,1823.38333345,45710662.3785,68534985.6643,4767.47777686,4758.10245018,0.0
1.19803848039,0.901409444827,9.70506968753e-06,7432947.49913,2.49006235247e-05,0.0,8962236.37976,687.978176159,657.001909843,65426799.6945,1879.34013188,54233907.1519,66621994.2414,4973.0577321,4961.26657337,0.0
0.962720018953,0.996898841464,9.76241665739e-06,-94115096.6699,1.371930381e-05,0.0,6069870.79722,684.793302039,641.951981576,67584901.5559,1615.74266569,69133055.6512,69360499.1584,3996.25079867,3989.76903764,0.0
1.18933781687,1.04584538273,1.00346280793e-05,5348480.90599,2.19428072124e-05,0.0,6928160.46414,687.099085095,656.410880965,65541555.4662,1868.55424129,52785137.0412,66783134.5845,4936.94127783,4925.34038547,0.0
1.08648287283,1.00435122676,1.01094651035e-05,-26947699.6965,1.60072298812e-05,0.0,5758949.01574,680.831663142,649.93962016,66828558.6893,1742.68369431,35993179.6696,69272245.6554,4509.99040512,4501.40679193,0.0
1.07259653416,0.940227976118,1.04815739807e-05,-32909317.7069,1.62711259025e-05,0.0,5707234.92568,679.867115253,648.993221413,66643109.4003,1721.73425401,34713930.3692,69130880.2093,4452.3482133,4442.77129296,0.0
1.18493693916,0.97397018214,1.0256753955e-05,5176111.16379,2.32519858436e-05,0.0,6773677.46523,686.660232438,656.140873201,65682706.2102,1864.8311434,52725383.4289,66914612.8189,4918.67323445,4907.88781363,0.0
0.992972928585,0.852349043513,9.87097164673e-06,-95539765.3804,1.44542917028e-05,0.0,5976697.95711,679.233353027,643.892382543,67330183.4855,1617.70031805,70387476.2802,70627040.4992,4121.83062656,4114.59537319,0.0
1.05853040375,0.623542942439,9.82243937194e-06,-39461365.1306,1.80111094773e-05,0.0,5776778.90075,679.530567272,648.00850325,66829980.7304,1703.89905359,34724545.4873,69700216.1829,4393.95970597,4384.91134958,0.0
1.1349114051,0.877806749175,9.8334260145e-06,-11964152.6449,2.17423513234e-05,0.0,5532761.82531,684.058890159,652.984901331,66163909.4587,1802.69260169,43174550.5412,67469212.623,4711.01724257,4700.52027138,0.0
1.05044031454,1.10765150494,1.00375806809e-05,-44778861.5021,1.31440392761e-05,0.0,5823629.21115,678.793723379,647.533094246,66979915.2377,1693.14182499,35771739.9092,70510737.2574,4360.37774566,4351.64307452,0.0
1.09119778694,0.96784666098,1.02153613447e-05,-25092923.5773,1.68679114098e-05,0.0,5738678.05055,680.990192438,650.189889187,66760218.5581,1748.8618289,36471952.9232,69064997.4936,4529.56201359,4520.90472291,0.0
1.1440776977,0.831151098275,9.73210132613e-06,-7935521.05015,2.30120003375e-05,0.0,5567955.01066,684.506314776,653.540207266,66293415.1939,1816.34608311,45836601.9085,68386617.9321,4749.06652315,4739.34196143,0.0
1.08791229223,0.968659341333,1.028626645e-05,-26083197.9076,1.6769123502e-05,0.0,5749852.26686,680.782550575,650.009311875,66796659.5501,1744.93101177,36169292.7669,69175763.991,4515.92392505,4507.41575797,0.0
1.12256706138,0.897421533029,1.01942949872e-05,-13399770.2548,2.0140541127e-05,0.0,5600919.91334,682.913121101,652.171233002,66366434.2373,1787.67132603,42267644.2252,67859887.393,4659.77587179,4650.02629614,0.0
1.15333363832,1.00414258748,9.94201797721e-06,-6511591.53181,2.16269720144e-05,0.0,5569022.41178,684.910522026,654.191026488,66303855.7433,1829.26108161,46518104.0861,68699901.1285,4787.48793267,4778.03353033,0.0
1.1116894564,0.851199206371,1.02855286366e-05,-16600573.2374,1.96985333394e-05,0.0,5588321.45499,682.250090853,651.460740397,66309079.9938,1772.03284106,40228634.6758,69076685.0666,4614.62293352,4604.39590069,0.0
1.26042578474,1.11249807453,9.98998841601e-06,21402916.1073,2.70770106061e-05,0.0,23374687.635,691.526094256,660.876699792,64661223.5471,1951.56732911,65163596.3745,66045453.6049,5232.02743246,5219.42337769,0.0
1.16190643269,1.06248047416,1.00364066242e-05,-2271766.21372,1.96258632918e-05,0.0,5458826.4369,685.422587851,654.732962812,65914840.7901,1835.81065236,48396195.8047,67684480.6076,4823.0736021,4812.19147546,0.0
1.20529116456,0.95194129797,1.00763222588e-05,9330547.62693,2.50733445731e-05,0.0,10710738.2314,688.105649456,657.385961164,65259252.5959,1887.6247977,55464200.2162,66797570.2218,5003.16362409,4991.23472252,0.0
1.14228531985,0.909949650838,9.61836213426e-06,-9545050.70869,2.13903619002e-05,0.0,5587869.41573,684.502076964,653.471982559,66350763.0437,1814.27787897,44867897.0191,68136691.4563,4741.6263627,4731.92828236,0.0
1.14125494941,0.964404043473,9.9512478962e-06,-8641131.19749,2.11895030954e-05,0.0,5598785.79763,684.129207432,653.383890279,66391732.0977,1813.35671326,45373470.0029,68235552.3871,4737.349295,4727.98550771,0.0
1.05960830801,0.701137022242,1.06423074705e-05,-35854572.0262,1.77083716939e-05,0.0,5782052.18452,678.888248064,648.116216961,66863468.4914,1706.8837106,34566129.6906,69903367.2981,4398.43408655,4390.0795838,0.0
0.995784440559,1.19238067528,1.02380028036e-05,-95389478.7701,1.19982225013e-05,0.0,5922708.93288,678.405391386,644.054045452,67182014.2967,1619.34363988,70255315.7977,70608194.2752,4133.50121276,4125.34185333,0.0
1.11821650301,1.04546850052,9.59003634468e-06,-18123598.0947,1.76126187857e-05,0.0,5701625.56998,682.997215091,651.934776192,66686695.6939,1784.51611157,39620904.8058,69293109.0914,4641.71670399,4632.73343212,0.0
1.11612293386,1.05492080704,1.01548123154e-05,-15522220.7015,1.73764626409e-05,0.0,5646494.03863,682.420474202,651.741878256,66503171.1225,1779.41535075,41059558.4187,69214361.8803,4633.02629845,4623.4831097,0.0
1.01986052126,1.03968919388,9.74381633966e-06,-74409207.4476,1.30754624006e-05,0.0,5949035.51752,677.972880367,645.613584054,67319218.7299,1655.07277639,52783925.6964,71009047.7063,4233.44102375,4226.25104608,0.0
0.990101439373,1.02120297509,1.00335127839e-05,-95194119.8819,1.33488874521e-05,0.0,5932038.0264,679.516720703,643.693045959,67197384.5254,1612.21301401,70083282.1788,70329322.6081,4109.91107484,4101.76331098,0.0
1.0807516807,1.00032835101,9.93383379649e-06,-29514933.5075,1.55354005926e-05,0.0,5781476.9615,680.630843781,649.573099584,66886273.7947,1735.18749798,35584904.9551,69347829.0904,4486.20022659,4477.70582404,0.0
1.12383223934,0.957916103731,1.04371000024e-05,-13115670.7101,1.96907838572e-05,0.0,5596294.82631,682.812866977,652.257841015,66348018.8238,1789.56893631,42366777.0709,67296122.8168,4665.0276255,4655.35638814,0.0
1.08880648343,0.658144032654,9.93112216025e-06,-26626022.359,2.07227027501e-05,0.0,5734281.74817,681.244920649,650.083610038,66754252.6095,1746.03565158,36069975.5173,69245771.0485,4519.63571272,4511.0158219,0.0
1.06571890357,1.10599610964,1.00558135916e-05,-36096798.5316,1.35097686109e-05,0.0,5815554.85028,679.527781413,648.512841663,66966953.1934,1714.88629645,34663838.6315,70144236.9163,4423.79916872,4415.3475532,0.0
1.13641191835,1.22993319086,1.03752213985e-05,-10359955.7555,1.74411272293e-05,0.0,5623664.10528,683.476739662,653.098479081,66460247.3986,1807.40855043,44046541.3551,67984349.2365,4717.24587307,4708.08852512,0.0
1.12582090937,0.881969509688,9.77158983986e-06,-13378657.8468,2.03403041806e-05,0.0,5632898.36655,683.368526752,652.384651818,66477481.5005,1792.88531214,42254648.4478,68371739.6063,4673.28259479,4663.78004463,0.0
1.11667618951,0.983137528414,1.03243641437e-05,-15162576.8235,1.85857279514e-05,0.0,5631332.99708,682.395799037,651.776319468,66441090.8796,1780.45212563,41062337.6763,68925221.4207,4635.32286266,4625.77008298,0.0
0.998002754462,0.935753497081,9.98273093321e-06,-95510793.1168,1.41821592952e-05,0.0,5909247.16394,678.726389122,644.198536093,67138474.0792,1622.2606057,70362232.1045,70725934.1253,4142.70943377,4134.43352494,0.0
1.20209939014,1.04456178925,1.02762809594e-05,8845710.9085,2.32747107981e-05,0.0,10207628.0465,687.740531545,657.204424582,65312955.2638,1883.41192297,55022006.7008,66689288.1023,4989.91456847,4978.05865859,0.0
1.00069192531,1.17232717742,1.02345781243e-05,-95788358.827,1.22010474744e-05,0.0,5909185.29007,677.980557357,644.367694406,67148303.0279,1625.92208031,70605227.2868,70605227.2868,4153.87218196,4145.63372452,0.0
1.10039640415,1.05759843867,1.00001491066e-05,-22449632.087,1.62196249652e-05,0.0,5731219.69354,681.70702723,650.848438275,66747020.1286,1760.94438268,37329175.279,68725182.4857,4567.74547363,4558.94358858,0.0
1.16506944562,0.968652349067,1.01799470601e-05,343984.125312,2.13209416735e-05,0.0,5430235.11922,685.535962918,654.920712297,65827928.6771,1839.2813265,50010925.6735,67500970.0253,4836.20326877,4825.27656985,0.0
1.10076236133,1.03044241397,9.75638514809e-06,-21419812.7495,1.61971390022e-05,0.0,5667181.44977,681.947363254,650.848570984,66536300.8115,1758.0462859,38121115.8985,68482262.1978,4569.26456188,4559.21362011,0.0
1.05428874898,1.18369670375,1.04629693931e-05,-41718583.5122,1.29661197941e-05,0.0,5805250.62018,678.619664619,647.745449465,66938221.2503,1698.68874745,35003398.714,69548600.0343,4376.35259702,4367.67710499,0.0
1.07536869973,1.11717005111,9.95035222714e-06,-31741521.6851,1.38580886298e-05,0.0,5806882.09011,680.055616453,649.078107855,66966487.8886,1728.03379575,35145745.2261,69674878.5804,4463.85547258,4455.44283419,0.0
1.15521488822,0.894719645793,1.05166646536e-05,-2992276.94189,2.24824745085e-05,0.0,5437543.71376,684.827697063,654.305555737,65850986.1468,1827.35422452,47787097.246,67722878.4445,4795.297001,4784.52144262,0.0
1.14703827773,1.16276502155,1.01837252913e-05,-7657590.40495,1.88647458956e-05,0.0,5592823.73841,684.248774859,653.753865149,66374981.7423,1820.99917572,45628016.4498,68590457.8369,4761.35589086,4752.00251485,0.0
1.16243564974,0.682617738918,9.8043138345e-06,-2392266.1225,2.88641831222e-05,0.0,5498256.02365,685.848379899,654.836428653,66084787.8913,1840.44195413,48826657.7514,68276661.5294,4825.27038207,4815.54934795,0.0
1.18411144441,0.8095360128,9.89675096546e-06,4544227.37702,2.59045045266e-05,0.0,6269262.0364,686.939922628,656.085203999,65686110.686,1864.19241877,52524739.0319,66982666.7121,4915.24660575,4904.38079354,0.0
1.08142565291,0.8077308688,1.01705121109e-05,-28487028.9694,1.80108572842e-05,0.0,5756945.37679,680.595486976,649.631169946,66815825.2178,1736.2056507,35668062.4901,69220474.9497,4488.99788523,4480.4930116,0.0
1.12476201015,1.1092531984,1.00990027474e-05,-13552898.0363,1.77931494745e-05,0.0,5665258.03712,682.956737339,652.337617091,66582134.7895,1792.52560959,42269266.8206,68386497.0501,4668.88710413,4659.91546086,0.0
1.12725929616,0.90990294641,1.04182524286e-05,-11986319.0721,2.06607336663e-05,0.0,5577938.51482,682.983373267,652.409233383,66290287.7627,1793.77831035,42996032.1044,67269423.4127,4679.25333836,4669.42415607,0.0
1.10735637811,0.963556507325,1.01837576799e-05,-18119340.0434,1.79624641577e-05,0.0,5670131.5339,681.982826743,651.250795606,66566050.931,1768.36278765,39660028.9687,68903903.443,4596.63632553,4587.33826701,0.0
1.06995607318,0.888346211744,9.75130547119e-06,-34744659.7362,1.59624333105e-05,0.0,5813637.71817,680.059974119,648.791766242,66973934.7066,1721.11482754,34733277.0144,70130569.134,4441.38765977,4433.06025886,0.0
1.03543034403,0.953867982552,9.89384231825e-06,-57948445.6673,1.42692804108e-05,0.0,5851845.0929,678.361680535,646.575934329,67047105.6106,1673.58748325,41472967.7736,71091351.5859,4298.07135807,4289.6096163,0.0
1.00790486158,1.06185845553,1.01668249191e-05,-83608158.1827,1.29213710351e-05,0.0,5888088.97241,677.523800158,644.821900204,67089506.4768,1635.412485,60032607.2491,70652889.4434,4183.81308042,4175.37551547,0.0
1.18999381277,0.944341276489,1.02030694686e-05,6447523.54717,2.39549037223e-05,0.0,7951085.40784,687.099140662,656.484929524,65509731.586,1869.83824153,53368161.3935,66609997.3526,4939.66431681,4928.37437715,0.0
1.05580474277,0.852800557239,9.68169792775e-06,-44722243.8436,1.58875117623e-05,0.0,5799554.80715,679.483144502,647.865873589,66911212.1021,1700.21761075,35816420.056,70431514.5687,4382.64548724,4373.67523822,0.0
1.0823348494,0.814693475192,1.02983354299e-05,-27949719.8483,1.81829640008e-05,0.0,5754745.75584,680.547684756,649.683653582,66802640.4452,1737.74248278,35773576.3039,69183531.9314,4492.77195986,4484.34989822,0.0
1.00451427764,0.824518464157,9.43725678429e-06,-95982198.7097,1.52312048866e-05,0.0,5903598.56552,679.200413587,644.615634774,67123600.6272,1630.63089971,70776618.2984,70840060.7079,4169.73876648,4161.27579743,0.0
1.13643954557,0.938436077673,9.73221814373e-06,-10806631.7872,2.0511147665e-05,0.0,5605431.1345,684.061008116,653.103560868,66397485.9715,1806.70261896,43903418.6877,67761164.8548,4717.36055366,4707.76054773,0.0
0.950336485937,1.25520592528,1.01867423913e-05,-93454655.3924,1.13377729417e-05,0.0,6081159.19468,685.409692009,641.148045638,67606944.5637,1608.6890726,68551686.9354,68771143.889,3944.84675312,3938.32458536,0.0
1.05327014581,0.824366561109,9.62235228311e-06,-43023647.8127,1.54546156981e-05,0.0,5838491.02538,679.322546962,647.721271424,67018476.4987,1697.99956887,35391774.3041,70726550.3989,4372.12437526,4363.68384539,0.0
1.132545956,1.15439968876,9.68649533013e-06,-12964765.256,1.73008805544e-05,0.0,5577640.1736,683.82004385,652.822404767,66312388.0665,1799.36524633,42565650.3707,67539154.8717,4701.19826336,4690.74398755,0.0
0.970380248875,0.682143130688,9.99646805514e-06,-94231793.9103,1.642457354e-05,0.0,5977998.98444,683.169155921,642.430772185,67310074.0637,1612.57297775,69235976.1294,69466909.2485,4028.04841308,4020.60556812,0.0
1.10832920483,1.00806176595,1.01002519978e-05,-17903561.5408,1.73151753505e-05,0.0,5646708.5098,682.115022593,651.302055024,66482547.2184,1768.53413056,39758704.9849,68930624.7552,4600.67452925,4590.87337213,0.0
0.9930908515,1.03248341864,1.02322753461e-05,-95248256.4858,1.33823840028e-05,0.0,5919875.41283,678.776800234,643.88367966,67169136.6904,1615.84278481,70130977.2379,70383342.0819,4122.32012458,4114.20404862,0.0
0.982195602172,1.09675895648,9.81659462029e-06,-94997755.4059,1.25778651833e-05,0.0,6015225.94917,681.322634605,643.200885733,67439353.7123,1615.45786178,69910075.2547,70150097.757,4077.09394462,4070.00882935,0.0
1.04430097924,0.981426997566,1.03189171699e-05,-47880057.3895,1.43051911224e-05,0.0,5815324.77918,678.366667481,647.138186566,66949897.6294,1685.1838454,36720782.5696,70413544.82,4334.89336483,4326.20161569,0.0
1.11088787317,0.711272163761,9.73682510034e-06,-19763919.2981,2.17162472113e-05,0.0,5675132.65821,682.67054138,651.494180739,66598478.1728,1774.5693343,38708605.5644,68862305.0758,4611.29556153,4602.22551234,0.0
1.12300616773,0.923180899706,1.01059064671e-05,-13487768.2182,1.97521310122e-05,0.0,5605751.30076,682.98282842,652.200497403,66379984.5971,1788.23392751,42270372.9535,67980486.8762,4661.59860225,4651.84162671,0.0
1.23097695664,1.1925214509,9.82287276946e-06,15170429.5583,2.2161529045e-05,0.0,16593256.6437,689.688173503,659.065202598,65114704.9438,1917.59392688,60230599.1688,66801954.0134,5109.78534701,5097.61070394,0.0
1.06477253236,0.998573423354,1.02403236412e-05,-36167440.5501,1.48048673275e-05,0.0,5807032.83312,679.388018113,648.453375061,66946592.0384,1714.05071682,34634044.673,70037763.8866,4419.87078183,4411.52754624,0.0
1.0764261929,1.02489671772,9.85551532445e-06,-31634778.6064,1.48986276412e-05,0.0,5801859.98508,680.224990831,649.149108175,66952028.938,1729.4886927,35187609.5152,69677430.414,4468.24512673,4459.8178005,0.0
1.081706325,0.893507322783,1.01880203363e-05,-28323725.5225,1.69654643794e-05,0.0,5761267.62574,680.561753728,649.647600456,66829600.7051,1736.50563996,35677034.0605,69233641.3897,4490.16295508,4481.65371926,0.0
0.945237830238,1.14742267462,1.00871411011e-05,-93338329.8193,1.20433812533e-05,0.0,6107311.11807,686.194535164,640.824998518,67680271.9696,1608.07865287,68449201.2523,68666429.222,3923.68223332,3917.51409814,0.0
1.10543515294,0.867143078288,9.95954859367e-06,-20990818.6484,1.90587208162e-05,0.0,5703207.29247,682.121316115,651.166250655,66670206.4348,1767.69941522,37968466.2257,68684150.5982,4588.66131985,4579.77987641,0.0
1.06319916171,0.907062607468,9.82845368707e-06,-38119255.8294,1.53708415391e-05,0.0,5817654.99693,679.640533419,648.348624443,66975752.462,1711.68521108,34702712.5309,70057522.5293,4413.33972026,4404.92748263,0.0
1.09875252792,0.786183287479,1.02751793394e-05,-22022251.456,1.97677025022e-05,0.0,5696660.61765,681.549943605,650.738497758,66638154.2053,1758.67368055,37447574.2781,68374823.2021,4560.9217434,4552.04613943,0.0
1.03780403673,0.918115496645,9.84079122841e-06,-56316987.7814,1.46461921623e-05,0.0,5846429.48338,678.522750545,646.735302392,67031521.4195,1676.72925815,40575184.4136,71098031.023,4307.92455647,4299.42602414,0.0
1.06815047636,0.961497845035,1.01198327835e-05,-34716581.8859,1.52021849481e-05,0.0,5797410.49779,679.674040489,648.670943644,66917766.1741,1718.17423545,34727128.6505,69892995.0642,4433.89262737,4425.40294058,0.0
1.16860902439,1.03301091685,1.00211432868e-05,1095779.50803,2.05193885972e-05,0.0,5460912.35276,685.775728587,655.157899328,65926455.0992,1844.68101371,50560527.0648,67634070.839,4850.89606024,4840.29568754,0.0
0.952922639534,1.10264264214,1.00746646921e-05,-93640428.927,1.25875525838e-05,0.0,6087523.46334,685.28609545,641.319865217,67632735.9393,1610.72618412,68715191.9317,68936230.9572,3955.58187671,3949.31104006,0.0
1.12017275943,0.993348077599,9.71089313165e-06,-15066306.1827,1.81616347828e-05,0.0,5638753.97898,683.021486914,652.000721393,66478234.3235,1784.58011788,41318579.251,69199152.0109,4649.83712439,4640.02891321,0.0
1.00209757385,0.984563990626,1.06730109085e-05,-87358971.1322,1.37635768993e-05,0.0,5876993.7977,677.142238533,644.448447272,67058426.6877,1628.01489603,63271938.9224,70515505.7684,4159.70702905,4151.44606274,0.0
1.15246845966,1.02196576152,1.00570040606e-05,-4670495.25691,2.09701595887e-05,0.0,5539653.94523,684.767467421,654.122666978,66206765.6101,1826.46389798,47508024.5324,68604808.864,4783.89657605,4774.03275231,0.0
1.05401727279,1.27086715339,1.00168687583e-05,-41618367.9634,1.17192352096e-05,0.0,5809259.32456,679.013193566,647.811414959,66929625.2952,1696.85632567,35103045.001,70533555.6582,4375.22569935,4366.0771175,0.0
1.15954232441,0.964457865506,9.81713520358e-06,-3272904.44813,2.22715656972e-05,0.0,5510932.2455,685.484864652,654.612462794,66111391.9388,1835.30313523,48241770.5114,68263626.5632,4813.26018863,4803.15608378,0.0
1.13424733883,0.942665038467,9.44170913937e-06,-11770404.1471,1.99440864349e-05,0.0,5627499.1155,684.101862189,652.957012176,66470728.8928,1804.01857676,43220225.992,67639793.7521,4708.26070348,4698.69686255,0.0
1.0870323447,0.779654884267,9.7376220569e-06,-27464218.1395,1.83946178326e-05,0.0,5754398.37874,681.236348346,649.983735818,66815251.7993,1743.39763517,35943590.1734,69358444.8672,4512.27126285,4503.58180514,0.0
1.14527138289,1.04805902918,9.89119131216e-06,-8386847.04168,1.96118993421e-05,0.0,5552473.71742,684.28384096,653.505401692,66226439.4445,1816.74997011,45282324.9119,68435999.8782,4754.02151038,4743.86096304,0.0
1.18200110897,0.979288587609,9.72507011431e-06,3917736.33559,2.21236875608e-05,0.0,5894434.10315,686.788845602,655.97106719,65831453.9093,1861.38855385,52300740.8171,67113675.9966,4906.48660333,4895.66049488,0.0
1.14496034146,0.993269186485,1.02084114901e-05,-8104893.00161,2.13822542636e-05,0.0,5583870.64456,684.151506364,653.582513264,66344040.8594,1818.52853298,45352481.5256,68409105.4495,4752.7303774,4743.41025074,0.0
1.05230936242,0.734641424092,9.79978466185e-06,-42771051.2215,1.63531057193e-05,0.0,5828827.92548,679.164914992,647.65572141,66989940.4179,1696.80860401,35308137.1279,70646882.091,4368.13616341,4359.71078426,0.0
1.04730828821,1.15435719426,1.02847008252e-05,-44334409.0209,1.26008742447e-05,0.0,5838265.2318,678.404408202,647.334857453,67021011.4067,1689.69135351,35688358.8567,70506269.5223,4347.37670436,4338.96073325,0.0
1.10563066175,1.01958586718,1.0036441879e-05,-20798266.2345,1.72032122056e-05,0.0,5711033.90455,682.004426918,651.173684199,66696528.3398,1767.79371297,38052756.2887,68732275.8487,4589.47287692,4580.58834066,0.0
1.03114738313,0.749113282787,9.87392052667e-06,-60046281.9881,1.59004036314e-05,0.0,5901021.62469,678.204977637,646.331067256,67198901.4804,1670.32762916,42806880.6952,70966673.781,4280.29278737,4272.94159831,0.0
1.18377233498,0.910260401301,1.00123956449e-05,4835319.26048,2.40198485557e-05,0.0,6470014.03914,686.754626148,656.061711608,65731658.5062,1863.62859229,52636663.1979,67029258.9008,4913.8389625,4903.07628309,0.0
1.01033509419,1.07755133975,9.79491563899e-06,-85565934.0145,1.26206017379e-05,0.0,5972983.34483,677.894328173,645.000742795,67359164.44,1642.25492023,61793889.4078,70994209.2922,4193.90097598,4186.84586311,0.0
1.08782998894,0.887158899377,9.65632242903e-06,-27460027.1306,1.69375821088e-05,0.0,5763895.26649,681.285719685,650.034476294,66844190.259,1744.34486184,35992370.7538,69409517.9891,4515.58228409,4506.88025986,0.0
1.15535787697,1.03911154563,9.50169150578e-06,-5129815.64483,2.01865858843e-05,0.0,5552543.75725,685.298547149,654.314905457,66248112.2748,1830.17450923,47542735.9749,68798894.2753,4795.8905473,4785.85941213,0.0
1.07080080527,1.07168979291,9.97199723677e-06,-33340820.0925,1.41137183952e-05,0.0,5804181.29655,679.846630863,648.819858416,66940567.7454,1721.37451136,34934219.9612,69836957.7321,4444.89414268,4436.36464578,0.0
1.01587118073,1.08503233237,9.96271662367e-06,-77134269.0181,1.25899564663e-05,0.0,5952553.22875,677.679812849,645.35331062,67319087.3936,1649.74701794,54901541.3121,70845602.0921,4216.88127121,4209.74790892,0.0
0.964117002872,1.01946792224,9.8114411907e-06,-94160937.6481,1.35052535327e-05,0.0,6036141.40634,684.248335268,642.033692944,67470961.584,1612.65451433,69173404.7318,69400720.7707,4002.04967892,3994.98646068,0.0
0.982563866536,0.731982033376,1.02321373719e-05,-94756237.4972,1.55630938297e-05,0.0,5930797.34281,680.379399705,643.208847879,67181347.2535,1609.72818395,69697691.1634,69936880.5126,4078.62260999,4070.67479628,0.0
1.04696228479,0.70669859718,9.9340713871e-06,-47047229.0905,1.68976527805e-05,0.0,5807429.56074,678.981051248,647.38783446,66920802.1282,1688.78846833,36515910.1826,70328077.655,4345.94044416,4337.26233888,0.0
1.20051037698,1.04324575825,9.93470964091e-06,9052766.35575,2.26396764356e-05,0.0,10493759.4301,687.777780512,657.150914466,65562545.4358,1883.12191244,55411512.0301,66871445.4124,4983.31857484,4972.1594132,0.0
1.14078413168,0.936692481786,9.42285194183e-06,-10021093.9104,2.0502113401e-05,0.0,5599736.38582,684.528685638,653.381911863,66391500.6265,1812.15698827,44536349.4886,67988623.2006,4735.3949306,4725.63238838,0.0
1.14082174013,1.03340082454,9.63737786874e-06,-9920517.19801,1.93426019476e-05,0.0,5603491.89546,684.339668775,653.384353712,66396545.9204,1812.25866673,44616516.4423,68061901.9723,4735.55104328,4725.87879356,0.0
0.96762676255,0.812966276949,1.00702185454e-05,-94099656.573,1.53418636621e-05,0.0,6022454.95559,683.67683577,642.261690042,67455616.9054,1615.34619318,69119564.525,69348140.7813,4016.61869135,4009.85431719,0.0
1.22843557043,0.937693999205,9.93826790587e-06,14681769.0699,2.70802592355e-05,0.0,16073538.1681,689.662145168,658.902943678,65055597.1524,1915.44262965,59802699.3171,66611856.2993,5099.23605285,5087.20141436,0.0
1.06605952626,0.829541532756,9.71659523841e-06,-37238159.3628,1.6336270398e-05,0.0,5809845.23501,679.910936194,648.534663984,66955266.5298,1715.51289602,34684377.425,70191755.7168,4425.21309351,4416.75614905,0.0
1.00787286697,0.758528665012,9.85377157444e-06,-87948616.1234,1.51960559523e-05,0.0,5961883.73272,677.972049275,644.84645627,67321657.4457,1639.11014508,63807078.1707,70932043.2859,4183.68027079,4176.65984149,0.0
1.16764257862,1.16504423386,1.03335201355e-05,-229935.108747,2.00250884594e-05,0.0,5461583.72259,685.526483936,655.095996825,65945978.5087,1844.14112153,49550765.8193,67530792.9414,4846.88434385,4836.44304734,0.0
1.13186601676,1.04646587834,9.87192945582e-06,-12770184.9471,1.89489997486e-05,0.0,5560083.01787,683.728685172,652.779377183,66244742.0821,1798.55995931,42691966.317,67329203.8275,4698.37583557,4687.93359362,0.0
1.11190183951,0.897648452887,1.00346109316e-05,-16760832.7334,1.89933310859e-05,0.0,5622768.55452,682.412509443,651.505620395,66408172.9802,1773.06208683,40391131.7917,69101258.0576,4615.50453581,4605.5441462,0.0
1.11816844147,0.872683236206,1.01936190885e-05,-14547686.8301,2.00134455539e-05,0.0,5617110.4311,682.62748632,651.874497704,66408541.2249,1782.02610773,41527323.4374,68711174.6129,4641.51720054,4631.84162758,0.0
1.20867792738,1.16256601425,9.85079182905e-06,10172924.984,2.11746462051e-05,0.0,11516183.943,688.246553291,657.590564709,65377971.4095,1891.63298461,56197344.4357,67110795.9128,5017.22207655,5005.35793146,0.0
1.10411982884,0.838896282681,9.75304841655e-06,-20271112.2113,1.88284548953e-05,0.0,5639338.47335,682.250656488,651.060507746,66456028.0996,1762.61620347,38681655.3493,68528292.5838,4583.20140951,4573.09243827,0.0
1.12111764006,0.866447495507,1.0178737142e-05,-13826298.2681,2.03983640663e-05,0.0,5604116.52922,682.842452387,652.07617605,66372751.1458,1785.83675727,41986724.359,68194950.8645,4653.75932389,4644.03415822,0.0
1.06066279332,0.792361255717,1.00490892053e-05,-38390805.9087,1.655960989e-05,0.0,5808343.56242,679.381344116,648.184081763,66946665.0998,1708.43140392,34683105.5118,69907074.7032,4402.81125507,4394.43857915,0.0
1.06242570687,1.21948675154,9.82595071065e-06,-38562572.18,1.22974000578e-05,0.0,5838139.78896,679.485502068,648.300129822,67037354.6161,1710.44600553,34758264.6646,70073849.1695,4410.12910922,4401.72894385,0.0
1.0763518148,0.83072961242,1.03113965918e-05,-29747553.8278,1.71947673027e-05,0.0,5731388.98912,680.198480284,649.270923672,66722701.0174,1727.72731844,35180943.8491,69125312.76,4467.93638323,4458.84971528,0.0
1.07357585791,0.907754065776,1.01150942046e-05,-31504930.7224,1.61948429951e-05,0.0,5780005.32232,679.920636289,648.95355722,66875317.8746,1725.15548338,35169870.8521,69483697.7968,4456.41338618,4447.84027224,0.0
1.04256270388,1.03602862635,9.53806842727e-06,-52664136.0711,1.34105732394e-05,0.0,5886736.95231,678.794082624,647.034483288,67156956.6326,1684.27357038,38797517.4441,71197980.1033,4327.67778381,4319.79566052,0.0
1.13089022625,1.00237228988,9.64032766756e-06,-12261673.7837,1.90499493021e-05,0.0,5627037.54895,683.739300881,652.731867716,66463214.65,1799.25826395,43022496.0982,67743131.9839,4694.32532916,4684.71360974,0.0
1.0870665865,0.996622923622,1.01000373063e-05,-26019779.368,1.57116119862e-05,0.0,5719960.95708,680.906175328,649.95958842,66692989.5355,1741.52069011,36165666.9383,69059916.3715,4512.41340056,4503.07464026,0.0
1.0401252593,0.742590385658,1.01240315305e-05,-52107893.8811,1.63990692553e-05,0.0,5820180.23987,678.430859453,646.873990371,66957407.7961,1679.99364562,38442040.2591,70773048.3781,4317.55995135,4309.0240378,0.0
1.13457116287,0.763706544737,1.03347873551e-05,-10797208.0953,2.4387180032e-05,0.0,5593318.50008,683.624981909,652.991148204,66363011.9203,1805.52495479,43759812.141,67765757.2022,4709.60489707,4700.47671766,0.0
1.16387773117,0.92469061877,9.84887523554e-06,-621809.465439,2.19542902771e-05,0.0,5474105.28325,685.685305002,654.868255231,65979185.854,1839.21605715,49705462.9038,67944650.1996,4831.25646209,4820.7309052,0.0
1.12053968987,0.816484305653,1.01923433698e-05,-13949157.3252,2.10605593918e-05,0.0,5600496.8384,682.825075784,652.037096079,66360927.7759,1785.13631007,41930600.0156,68275720.829,4651.36025265,4641.64389716,0.0
1.0692211613,1.22635384023,9.96458176864e-06,-34082520.0162,1.26178846994e-05,0.0,5817139.4898,679.728685539,648.736307073,66977118.9954,1719.2036098,34838081.897,69992269.1227,4438.33704056,4429.83086073,0.0
1.20910352355,0.925000531365,1.00876910035e-05,10817505.3365,2.57822358261e-05,0.0,12064635.7393,688.275714459,657.618129031,65308853.4738,1893.00057505,56611774.4364,66699591.9188,5018.98872626,5007.42450702,0.0
1.20886687221,0.705679690654,9.56756751287e-06,10181970.5304,3.04625805978e-05,0.0,11646780.4508,688.797741943,657.61622798,65284050.8292,1893.53283447,56233303.9185,67025800.9123,5018.00638654,5006.32972179,0.0
0.996846847395,0.821678858299,1.0118172213e-05,-95382463.2087,1.51799573651e-05,0.0,5902927.70308,678.716174798,644.124332294,67121587.8628,1620.96914734,70249224.2236,70602978.3009,4137.91126354,4129.73480659,0.0
0.983124922793,1.03435470835,1.02277446393e-05,-94836607.2781,1.32697448024e-05,0.0,5945615.41502,680.182116509,643.245136243,67227731.9437,1609.67066346,69768494.3985,70008305.6696,4080.95155451,4072.99480907,0.0
1.07242227911,1.2126539791,9.68531584946e-06,-33977638.2474,1.26547925187e-05,0.0,5830152.4559,680.107105335,648.940686986,67027964.4256,1724.11620033,34843711.6225,70110332.5689,4451.62488059,4443.25944911,0.0
1.05953627136,0.899456042668,1.01904186826e-05,-38373607.7008,1.5400662759e-05,0.0,5812145.28965,679.169187913,648.110991915,66958723.0079,1706.88218911,34672595.1769,69872414.505,4398.13506242,4389.77993324,0.0
1.08721033005,0.989934810698,9.70855976549e-06,-27551313.8434,1.57890635228e-05,0.0,5770615.49431,681.171355922,649.996130931,66865101.8862,1743.45117281,35993404.1464,69416976.4097,4513.01008004,4504.3178189,0.0
1.19488026669,1.04923729298,9.72074434186e-06,6633916.37444,2.18403382619e-05,0.0,8184853.04844,687.576318212,656.797981631,65695636.7968,1877.04184321,53901250.2551,66880615.3095,4959.94798703,4948.8857989,0.0
1.08804341962,0.81060191271,1.01913161172e-05,-26154239.8967,1.85301249569e-05,0.0,5737387.70011,680.925815909,650.019449717,66765389.8372,1744.88342113,36123588.9297,69171432.6344,4516.46823484,4507.86026435,0.0
1.05977198529,0.952560515521,9.84734347558e-06,-39690551.5168,1.47289638116e-05,0.0,5827950.42464,679.421581526,648.123671914,67001732.0297,1707.09459348,34862457.9935,69827964.0769,4399.11351094,4390.75471152,0.0
1.00894360651,0.741699172402,1.00581790693e-05,-82059863.53,1.55617819243e-05,0.0,5887514.2551,677.856576979,644.897914589,67081287.0465,1637.68557618,58795198.9206,70742341.6469,4188.12491062,4179.97120959,0.0
1.2101523562,0.915451954083,9.59553327354e-06,10331725.9471,2.54866336864e-05,0.0,11682352.9095,688.673036503,657.686697632,65320962.4089,1894.07738381,56330824.7321,67082950.4376,5023.34243059,5011.423685,0.0
1.08750505818,0.650213077856,9.63148598097e-06,-27589691.2306,2.03786627134e-05,0.0,5746682.05178,681.406058193,650.015828277,66790025.7481,1744.14692138,35954807.7711,69356850.5028,4514.23349651,4505.5365923,0.0
1.04094527625,0.848890434312,9.96014066899e-06,-51322289.8028,1.52980644996e-05,0.0,5825222.88927,678.551770934,646.918582833,66973640.3488,1680.51331724,38113545.6697,70841956.3185,4320.96384171,4312.23927512,0.0
1.22318259265,0.955574781134,1.00716432358e-05,13531101.9324,2.6557271639e-05,0.0,14830370.7846,689.264211028,658.557107813,65048181.6967,1908.72729853,58847969.5693,66446009.0856,5077.43094209,5065.29650608,0.0
1.12278050207,1.0283724047,1.02784857298e-05,-13739636.5733,1.83635872118e-05,0.0,5613273.55493,682.802240314,652.187903641,66396123.3972,1788.13066912,41954553.8545,67929706.2683,4660.66186409,4651.00814658,0.0
1.08150552417,0.891200673371,9.90350834228e-06,-29339233.8288,1.67778046656e-05,0.0,5773484.24589,680.745339246,649.625036519,66862594.055,1736.26165198,35634398.1605,69330240.9949,4489.32943083,4480.82331594,0.0
1.11402555298,1.10461487993,1.00691976152e-05,-16615588.8991,1.66715409536e-05,0.0,5685521.0188,682.33085348,651.639912244,66622986.0283,1777.86947754,40515534.2846,69299180.6113,4624.32007042,4615.21063025,0.0
1.04251512801,1.10432193842,9.84026702113e-06,-51003229.9102,1.28595341622e-05,0.0,5842986.39078,678.597291325,647.005349897,67029395.9983,1682.39654888,38009725.6846,71031871.2521,4327.48029637,4318.72997519,0.0
0.916247844878,0.920739480609,1.01056469445e-05,-91767887.5794,1.38725746189e-05,0.0,6095900.05601,690.492356313,638.938761243,67589776.522,1599.22711361,67066962.7867,67589776.522,3803.34480409,3796.45411504,0.0
1.06313134121,0.968370290472,1.03988090542e-05,-35471545.3814,1.51895841797e-05,0.0,5803036.79227,679.177971733,648.34755515,66934054.1838,1711.71651769,34628961.3558,69972548.4825,4413.05819736,4404.74061655,0.0
1.0358503323,1.28849929934,1.01998861458e-05,-54301069.9365,1.13404304296e-05,0.0,5857504.20549,677.966466121,646.595006024,67063728.2283,1673.74900001,39512079.8031,71152307.0601,4299.81472938,4291.25896036,0.0
0.967238043829,0.966068875927,1.00141956934e-05,-94118674.4261,1.42044802196e-05,0.0,6032377.26957,683.82909238,642.237119989,67484666.7142,1615.71650326,69136281.7325,69364673.7015,4015.00511993,4008.24623246,0.0
1.30903014582,0.994624385363,9.93774313217e-06,29092961.5155,3.46233034606e-05,0.0,30584026.0613,694.831834809,663.99139254,63772118.1406,2005.72021367,69352620.0474,70523816.0385,5433.7841353,5420.13685661,0.0
1.05451249768,0.670069616866,1.00179751797e-05,-42488609.4729,1.76269805606e-05,0.0,5797023.82356,679.163940004,647.77464389,66901739.121,1699.49291478,35229144.1227,70449545.113,4377.28137787,4368.66020043,0.0
0.973797483665,1.14575905949,1.00742232074e-05,-94447326.5366,1.24972935015e-05,0.0,5993167.70935,682.255526579,642.650206298,67363432.5917,1612.20280475,69425669.0775,69658872.5483,4042.23335469,4034.7383649,0.0
1.10872538048,0.837391602318,1.01160135933e-05,-17574865.1037,1.95338113644e-05,0.0,5629673.74732,682.211272345,651.320713863,66431043.1841,1769.2116162,39732569.7725,68910333.2929,4602.31905437,4592.51112422,0.0
1.0834725506,1.08301233625,1.0490957258e-05,-26970959.2788,1.5187503104e-05,0.0,5761056.74802,680.35688267,649.745789791,66827901.6263,1738.99753064,35886954.7082,69160303.1112,4497.49455754,4489.05496115,0.0
1.0473751504,0.989407917501,9.70570104064e-06,-48993353.4939,1.4142455458e-05,0.0,5828744.86318,679.01097484,647.34289066,66989241.2116,1688.91210393,37198282.1369,70909705.3281,4347.65424931,4338.82400282,0.0
1.12602583742,0.750668865435,1.02460720077e-05,-13116978.8508,2.34391455168e-05,0.0,5625327.32708,683.138071434,652.422313484,66444946.661,1794.63016884,42489459.6617,67932442.1212,4674.13325113,4665.14081189,0.0
1.1896669313,0.960632251826,9.84579796326e-06,5432230.13047,2.32640666946e-05,0.0,7031749.76676,687.275031979,656.430839128,65555862.411,1869.40434399,52948094.7461,66824379.9803,4938.30743183,4926.78092098,0.0
1.10273989811,0.899752576254,9.74304999047e-06,-20774824.9648,1.79053336184e-05,0.0,5650142.20812,682.145936586,650.977756915,66486549.6783,1760.75265235,38452423.0653,68465547.209,4577.47331705,4567.38766694,0.0
1.23404011452,1.06180370451,9.91129014746e-06,16332849.8605,2.51101426097e-05,0.0,17787289.4208,689.850845354,659.262515708,65165084.729,1922.5475163,61227806.6394,66897731.8205,5122.50051537,5110.84041851,0.0
1.08188383045,0.891041252226,9.84382804756e-06,-29416572.7943,1.67647936787e-05,0.0,5775005.8696,680.803115439,649.646530193,66878362.3931,1736.75163152,35652947.6757,69349534.4452,4490.8997802,4482.38778513,0.0
1.15172354824,1.00800897271,9.85642535023e-06,-7749571.12945,2.13189237908e-05,0.0,5475486.67329,684.989714328,654.03477112,66007593.2788,1823.59363561,45443539.1091,68390086.5067,4780.80444874,4769.90672174,0.0
1.15210495706,0.983695202009,9.67603820236e-06,-5432224.40262,2.09437427573e-05,0.0,5522751.90841,685.045303233,654.090123278,66150648.4658,1824.94026508,47233909.3264,68622043.2898,4782.38767676,4772.02147728,0.0
1.05196663238,0.961122230098,1.02252881141e-05,-43895130.6629,1.47810299666e-05,0.0,5848684.53661,678.700638401,647.627431057,67072946.0582,1697.83417566,35607965.5647,70464668.4904,4366.71349101,4358.96836392,0.0
1.03943749074,0.872985108943,1.01150862967e-05,-52846414.3046,1.51269753017e-05,0.0,5830073.5671,678.360924969,646.831152109,66984940.6837,1678.98599408,38751976.5853,70927607.6669,4314.70502406,4306.18019333,0.0
0.943672067352,0.665025350326,1.001115383e-05,-93209769.7992,1.60179859329e-05,0.0,6090700.34491,686.846374714,640.72448875,67626489.5639,1608.94371589,68336095.7397,68552337.8803,3917.18275158,3911.03776571,0.0
1.08490326556,0.731846169306,9.79011856892e-06,-28441397.3603,1.90821376924e-05,0.0,5757510.05916,681.105818949,649.856624522,66816457.4424,1740.85324928,35794572.4583,69319817.6494,4503.43345534,4494.87446815,0.0
1.17297485663,0.993484632052,1.00992920369e-05,1624916.06726,2.1893269164e-05,0.0,5384891.22318,686.090694439,655.396079094,65686577.364,1848.67590332,50657762.483,66964248.6189,4869.01862987,4857.70546449,0.0
1.03713936048,0.904415895141,9.62533904722e-06,-57543617.2842,1.46693368768e-05,0.0,5902661.17282,678.603494652,646.711338381,67211767.7638,1678.17855458,41380681.5728,71221950.153,4305.16548535,4297.72953474,0.0
1.1382235874,0.920179297342,9.96046730507e-06,-8869748.95832,2.11377801196e-05,0.0,5550068.80891,684.043377543,653.193339832,66221079.8072,1807.24570622,45214346.9118,68056976.8699,4724.7661113,4714.62862499,0.0
1.08945296752,0.898452154008,1.00805062907e-05,-26009707.794,1.74239334847e-05,0.0,5744577.69181,681.039914751,650.103431704,66788847.786,1746.65215363,36205098.8235,69209437.5422,4522.31926818,4513.68927291,0.0
1.17740762154,1.18038481325,9.65791056962e-06,2281934.11256,1.84717164922e-05,0.0,5438522.37695,686.465425698,655.690170929,65885219.6948,1854.9065386,51372467.5154,67064700.144,4887.41903701,4876.35289576,0.0
0.996180862807,1.04012670783,9.73581213432e-06,-95770608.9265,1.30656100095e-05,0.0,6003017.49798,679.138425374,644.107153649,67430128.7263,1623.04083261,70590584.3635,70930158.1601,4135.14676151,4128.29276453,0.0
1.03025602679,0.999662853462,9.94208375494e-06,-60271656.2153,1.36612508679e-05,0.0,5912366.15955,678.035698517,646.273259073,67232532.5151,1669.01403356,42917004.868,70958758.2599,4276.59276721,4269.25436479,0.0
1.21840536902,1.04186852208,9.83222796187e-06,12244744.2021,2.39676575665e-05,0.0,13489731.7023,688.997180758,658.251502429,65243612.6847,1903.76006223,57836816.1329,66361396.6449,5057.6006868,5045.6932607,0.0
1.16814684087,0.900852355588,1.02487988145e-05,1140173.12154,2.31245482355e-05,0.0,5402911.45738,685.746226299,655.113809861,65731955.8513,1843.16243564,50333924.1757,67359128.9124,4848.97753645,4837.98595538,0.0
1.12209041309,1.01598269983,9.94924049851e-06,-14289028.2846,1.84082469304e-05,0.0,5653064.01731,682.944895239,652.141520141,66527466.7033,1788.16565592,41741762.3008,68784207.4537,4657.79730474,4648.45732731,0.0
1.13391027575,0.756226587226,9.92518490982e-06,-10228960.2746,2.33600446855e-05,0.0,5580947.33739,683.863387493,652.938282672,66317381.6006,1803.0796126,44373452.2703,67700241.5465,4706.86155464,4697.22776106,0.0
1.04176618721,0.913195384024,1.01307569653e-05,-50651872.0431,1.48393663061e-05,0.0,5826667.60673,678.400423347,646.950616984,66980232.7832,1682.05178317,37780147.3737,70873241.0697,4324.37144311,4315.80906382,0.0
1.10791764793,0.973578925718,1.04977139671e-05,-17238027.9477,1.8003865885e-05,0.0,5651820.06478,681.802678278,651.268474607,66493096.9758,1769.12513936,40001824.4291,68927519.8945,4598.96615656,4589.56021973,0.0
1.15103522371,0.984937884167,1.01883068048e-05,-6451407.75162,2.20445744924e-05,0.0,5562542.26616,684.611683098,654.040136094,66285865.1782,1826.24620438,46277910.0663,68641071.7956,4777.94721362,4768.52974672,0.0
1.09227346523,0.962434666073,9.82240716494e-06,-25631543.4392,1.66386116767e-05,0.0,5754762.7234,681.345538881,650.276525569,66818632.3201,1750.43716051,36398237.2023,69341109.3801,4534.02715417,4525.35290896,0.0
1.06142397656,0.916869316371,1.01025887679e-05,-37851617.5741,1.5290428167e-05,0.0,5812005.0915,679.332458419,648.233545932,66960317.4961,1709.37245167,34658426.8219,69970756.7454,4405.9709267,4397.58638603,0.0
0.983742132774,1.01820372596,1.05590681557e-05,-94783375.6702,1.32556892603e-05,0.0,5929562.37932,679.219114157,643.282098707,67186498.3048,1606.68004768,69721652.7355,69961780.2578,4083.51359314,4075.54949293,0.0
1.1741822881,0.85817166784,9.9725757248e-06,2468533.19357,2.40354582329e-05,0.0,5395431.28694,686.289043502,655.480045976,65734970.2126,1850.97888809,51272453.2084,66991052.546,4874.0306779,4863.01157648,0.0
0.994724742255,1.06068700442,9.75148763546e-06,-95422733.1806,1.33287959832e-05,0.0,5935405.38634,679.767295752,643.990558498,67212571.1812,1618.02595297,70284544.9384,70533875.6913,4129.1024051,4120.96260517,0.0
1.0070148926,1.00729089606,1.00395793413e-05,-88692810.4501,1.36156294266e-05,0.0,5889322.57398,677.924844616,644.771791816,67091998.0876,1634.23634773,64444622.1942,70777941.8237,4180.11881918,4171.69620242,0.0
1.02215498944,0.957428691243,1.06585983611e-05,-66332835.3375,1.40637403666e-05,0.0,5827479.98306,677.217484115,645.718081869,66957601.1118,1654.49497901,46785147.2586,70366970.3976,4242.96536117,4234.25176153,0.0
1.10741250817,1.05528866854,9.71056681499e-06,-19334178.4957,1.62456938409e-05,0.0,5696341.17188,682.29949368,651.277988253,66644073.0416,1768.51719334,39191875.6484,68795528.7443,4596.86932141,4587.47110847,0.0
1.1219106104,0.928332942247,9.48638832325e-06,-15068663.4237,1.89307497659e-05,0.0,5638170.80907,683.305584197,652.114663164,66473586.6434,1786.95642456,41389720.4206,69212239.2889,4657.05094377,4647.21266905,0.0
1.21864407012,1.00545911067,1.01492457798e-05,12693333.0745,2.52092465398e-05,0.0,13914826.9586,688.866412262,658.27258243,65172377.1214,1903.89034687,58122724.3889,66391825.9904,5058.59153507,5046.7629408,0.0
1.13897865052,1.03055361236,9.57765856425e-06,-11496251.9537,1.9307368387e-05,0.0,5555548.46756,684.364456613,653.25004685,66240229.4973,1808.07985138,43486899.7133,67726155.5666,4727.90037831,4717.43233336,0.0
1.09297194414,1.09942433999,1.00485088154e-05,-24996177.6509,1.52552811355e-05,0.0,5750361.49984,681.150171074,650.304731342,66809837.0785,1751.08575672,36533031.576,69177725.8542,4536.92654013,4528.24145893,0.0
1.01501906904,0.684648918945,1.04528008868e-05,-70867901.9538,1.59688915172e-05,0.0,5875653.53433,677.362743358,645.281344917,67076520.9751,1647.08851495,50072244.8619,70475823.8085,4213.34415559,4205.51785371,0.0
0.975028774718,0.750751563896,9.95996236714e-06,-94578557.0346,1.54080007293e-05,0.0,6010840.94419,682.300566922,642.739808843,67422069.5475,1614.2170452,69541024.5393,69775619.0429,4047.34444385,4040.44684654,0.0
1.09823023362,1.03922405064,9.78535651311e-06,-23794048.4636,1.61214570206e-05,0.0,5745363.62109,681.696730219,650.67500477,66797186.8524,1758.15896905,36957113.683,69209926.8585,4558.75369976,4549.98592728,0.0
1.07255411723,1.1915765346,9.95531020216e-06,-32631955.9168,1.30588197162e-05,0.0,5807289.53791,679.889264509,648.910101005,66953331.9327,1723.60248684,35073061.3486,69758228.3651,4452.17214062,4443.61509651,0.0
0.979676109957,0.958334985303,9.89223101787e-06,-94846591.9844,1.38024494607e-05,0.0,6010115.90542,681.559623483,643.038365817,67420781.8557,1614.35921483,69776998.5055,70015836.8887,4066.63553243,4059.58815099,0.0
1.1881138445,0.972975926297,9.95075536955e-06,5458459.5725,2.30021453827e-05,0.0,7050650.15991,687.050367842,656.348209434,65710116.9526,1868.72982852,53092534.3217,66960592.4101,4931.86056852,4920.92460476,0.0
1.10193046798,1.21477854307,1.0147613411e-05,-21882627.9318,1.47162964932e-05,0.0,5727941.02403,681.638934099,650.949235438,66744942.7119,1762.66222944,37588673.8106,68605289.8203,4574.11337259,4565.28740931,0.0
1.04665384119,0.772923655498,1.00612929393e-05,-47972416.1968,1.64191381387e-05,0.0,5808848.75096,678.774774471,647.292254238,66934037.7399,1688.62705702,36768016.991,70567697.383,4344.66009478,4336.01868872,0.0
1.0434160894,0.810938289312,1.03410791086e-05,-48295498.6206,1.58253896468e-05,0.0,5806389.39698,678.371971845,647.083167223,66921526.9663,1684.12451536,36946388.2868,70573981.9065,4331.2201871,4322.54286068,0.0
1.06883648114,0.956652856213,1.01859344361e-05,-33378077.3344,1.53976352468e-05,0.0,5792834.19366,679.630413071,648.694641781,66905833.7993,1718.88919091,34875929.2884,69727903.8751,4436.74023321,4428.24083561,0.0
0.983290151109,0.763037169743,1.02304021996e-05,-94793458.9504,1.53022775248e-05,0.0,5930978.51629,680.257494608,643.255460552,67183464.0181,1609.84073671,69730552.2569,69970109.774,4081.63741725,4073.67804068,0.0
1.18605226755,0.989918258141,1.0281636263e-05,5482790.31823,2.30740721092e-05,0.0,7026867.38826,686.708153607,656.215630008,65672186.4321,1866.13772623,52872200.3084,66880794.6027,4923.3029626,4912.49807779,0.0
0.978178468101,1.029856026,9.65562366217e-06,-94819410.031,1.3467037075e-05,0.0,6027993.9992,682.585426452,642.944489924,67474775.8429,1617.77235198,69753039.4557,69990071.9485,4060.41882109,4053.47391368,0.0
1.22213450875,0.86184667926,1.00110438852e-05,13338755.1848,2.82255681182e-05,0.0,14596627.5751,689.303840798,658.489974506,65029901.2009,1907.74822332,58641777.7042,66389995.181,5073.08034582,5060.96546723,0.0
1.18148293634,0.754241749406,1.02196638567e-05,4554001.78609,2.74076979241e-05,0.0,6258031.90423,686.644167486,655.910700881,65583859.6395,1860.40523467,52324553.4252,66876384.5622,4904.33566875,4893.39048681,0.0
1.26811504866,0.896312995335,1.0345386456e-05,23224618.1605,3.41984188065e-05,0.0,25020333.4599,692.077731944,661.377183654,64341176.3472,1960.15863599,66381806.3109,67308290.7296,5263.94556699,5251.21080595,0.0
1.24478778201,0.975255101821,9.9757924624e-06,18606162.0214,2.8221850327e-05,0.0,20238822.7321,690.597244869,659.895284415,64885161.403,1934.49742601,62981831.3188,66436867.8165,5167.11408312,5155.02687287,0.0
1.02716301539,1.09361626819,1.02503369079e-05,-61656101.7884,1.26954113946e-05,0.0,5863616.46134,677.682176772,646.051684902,67069084.0891,1662.33697767,43706515.5951,70952806.8189,4263.75367688,4255.33819166,0.0
1.15199705404,1.00176486083,1.00010487605e-05,-6670303.27754,2.1625012796e-05,0.0,5570257.05579,684.793779398,654.106914296,66308165.2768,1827.54580621,46265789.9577,68721574.9346,4781.93977132,4772.50685499,0.0
1.02007644655,0.814915682921,1.02326772808e-05,-69613373.3255,1.5173721903e-05,0.0,5859586.23573,677.646302557,645.59710855,67043871.0572,1652.86941273,49162181.034,70830865.5295,4234.33732963,4226.03588932,0.0
1.13158353316,0.873892912834,9.89159055965e-06,-11704893.3994,2.11483856816e-05,0.0,5603283.80152,683.68353606,652.780267295,66382136.7047,1800.21375973,43289654.7709,67484236.5601,4697.20324615,4687.60555852,0.0
1.12380492405,0.950173730986,1.02268547255e-05,-13283986.9865,1.95841542809e-05,0.0,5600367.83567,682.961890556,652.252759234,66349752.4938,1789.38048552,42348727.6737,67652528.8132,4664.91423973,4655.14337737,0.0
1.12738450073,0.947054954588,9.70224029929e-06,-13037205.3294,1.95678435158e-05,0.0,5634494.01022,683.486389619,652.487444379,66481203.4143,1794.7952273,42486238.7612,68234873.1875,4679.77306253,4670.21932166,0.0
1.20608366027,0.97503902685,1.00515700598e-05,9951305.27452,2.46689812026e-05,0.0,11284114.474,688.121561641,657.423237146,65267981.7986,1888.33220387,55948500.6161,66913447.8032,5006.45327378,4994.53602366,0.0
0.898107055061,0.880567232927,1.04880570204e-05,-90907795.1523,1.33015800166e-05,0.0,6123154.76902,691.391405763,637.771353515,67692919.9556,1589.34376114,66310532.7357,67692919.9556,3728.04238556,3721.69758548,0.0
1.11423972968,0.942090608497,9.56583801863e-06,-19067390.7187,1.84146329995e-05,0.0,5695596.95547,682.843610119,651.700469307,66662755.1676,1778.80596647,39189354.1353,69073390.0812,4625.2091179,4616.08510552,0.0
1.09232271995,0.922875303163,1.03029714741e-05,-24547827.1566,1.76592914683e-05,0.0,5733875.43829,681.027912848,650.276209241,66754328.1646,1750.73644654,36578943.3717,69006630.481,4534.23161051,4525.65434341,0.0
1.12273690344,0.946451524311,9.86710473877e-06,-14282337.0046,1.93472810453e-05,0.0,5649176.02953,683.068619784,652.182543539,66515144.4547,1789.08810174,41724602.8946,68783518.0699,4660.48088618,4651.13038272,0.0
1.00776340826,1.1688431574,9.6371369758e-06,-90278762.638,1.18928890941e-05,0.0,5989751.99947,678.182830517,644.847538401,67403121.3732,1638.6916325,65805930.7061,71492505.3822,4183.22590769,4176.20701855,0.0
1.22227260789,1.00115724756,1.00524986672e-05,13311202.3224,2.55752406006e-05,0.0,14563147.4394,689.180148841,658.49881159,65084032.2705,1907.61625802,58657459.0484,66455873.7373,5073.65359535,5061.53619204,0.0
1.06200650814,0.872870842001,1.03992271841e-05,-36769961.0389,1.60052599561e-05,0.0,5799904.75138,679.159795237,648.27181037,66924044.8489,1710.46628483,34598239.9718,69983669.7138,4408.38901529,4400.09004049,0.0
1.07603246473,1.13540604167,1.03241660186e-05,-30461374.6721,1.40400917807e-05,0.0,5790822.71968,680.019264129,649.261809191,66918334.1365,1729.23261221,35271128.0718,69263482.8471,4466.61076109,4458.2855623,0.0
1.12885221204,1.00306570124,9.75984617677e-06,-12514561.8984,1.89833082573e-05,0.0,5628213.67181,683.524794498,652.594954437,66465709.744,1796.60163166,42751497.1451,67876762.3412,4685.86553218,4676.28753506,0.0
1.07033018109,1.03466562974,9.96169818344e-06,-33560749.8157,1.44835734608e-05,0.0,5803427.27348,679.8496936,648.796516369,66937083.3968,1720.78835283,34891093.0853,69868860.0987,4442.9405817,4434.41699992,0.0
0.99036036537,1.09840719923,9.97059575674e-06,-95238673.377,1.26116634903e-05,0.0,5938987.09623,679.595101988,643.710613557,67218702.5195,1612.59666641,70122481.0191,70367899.0365,4110.98587665,4102.8337336,0.0
1.15679444165,0.812533919987,1.01359243426e-05,-4889618.3941,2.56969187223e-05,0.0,5526610.57896,685.175558301,654.449116814,66181513.4561,1833.7608487,47094263.7638,68401867.0716,4801.85372729,4792.34359939,0.0
1.03441580402,1.04450807743,1.05435183619e-05,-55761656.4687,1.35294593002e-05,0.0,5839996.59946,677.717197652,646.505871222,67018766.5939,1672.68538321,40209115.2104,70839340.2389,4293.86000249,4285.58985055,0.0
1.11663372315,0.877546951089,1.01822836086e-05,-15176821.5158,1.98090624506e-05,0.0,5628828.08214,682.519697887,651.773640848,66448000.5851,1780.26194214,41118650.1345,69034177.6072,4635.1465848,4625.59581279,0.0
1.01264256143,1.03806226974,1.01326521194e-05,-81730962.8863,1.33260250826e-05,0.0,5874159.73468,677.657707161,645.125456647,67055816.8594,1641.74803484,58588478.6081,70667654.5796,4203.4792725,4194.96439097,0.0
1.13913391297,1.051937765,1.0191564377e-05,-9523191.33319,1.94808474993e-05,0.0,5553962.87106,683.886039305,653.237484144,66226372.5278,1808.74436144,44617262.9718,68061600.5776,4728.54487274,4718.46379389,0.0
1.05033408257,0.951647825274,1.03414813052e-05,-44628851.9542,1.4859652419e-05,0.0,5798137.67229,678.647462973,647.518256916,66909813.9534,1693.24076985,35638435.509,70371405.0158,4359.93677675,4351.14643808,0.0
1.0963872831,0.913172979076,9.72026925282e-06,-24302487.0667,1.71822940366e-05,0.0,5717490.52832,681.692642138,650.526267958,66694948.6567,1754.56213103,36737434.1416,69285600.3202,4551.10361215,4541.87505378,0.0
1.11599492738,1.01114197523,9.83844409461e-06,-16063800.8147,1.77084793067e-05,0.0,5679699.40965,682.643154995,651.76130376,66611311.5446,1780.38482053,40804450.2747,69403763.465,4632.49494355,4623.25294049,0.0
1.14821150569,1.09852339265,1.03109439505e-05,-7015650.31308,2.0034233156e-05,0.0,5577321.64463,684.307144018,653.860036145,66331683.5745,1822.47922095,45954849.0851,68697386.4847,4766.22596012,4756.85378988,0.0
1.18410109702,1.1810961349,9.98564820522e-06,4739157.21524,1.93287215473e-05,0.0,6375476.5851,686.616502452,656.083987889,65830630.5391,1863.73089323,52654304.8703,67135168.5496,4915.20365373,4904.44878908,0.0
1.13015050678,1.05038853127,9.80228102399e-06,-12181722.3738,1.84085639472e-05,0.0,5626250.99823,683.560534936,652.682368226,66444524.6981,1798.19812904,43031388.5789,67592226.0194,4691.25475364,4681.6552796,0.0
1.11893746005,0.938053166132,1.00192702315e-05,-14871599.076,1.91778920136e-05,0.0,5601979.84765,682.801277704,651.914547087,66356164.0011,1782.10277295,41370685.7696,68676273.2348,4644.70939667,4634.62718333,0.0
0.973980289553,1.27935676722,9.96036922497e-06,-94628195.5804,1.1243649903e-05,0.0,6039320.69017,682.240158264,642.672637491,67506070.0307,1613.62177885,69584651.6161,69818464.2968,4042.99218193,4036.10951775,0.0
0.971533072317,0.835629619134,1.03483856339e-05,-94287491.6226,1.49549207929e-05,0.0,6018535.36383,682.164938047,642.515685228,67460530.8185,1613.33580202,69285046.648,69516272.1921,4032.83378319,4026.31119539,0.0
1.0545674217,0.849781043345,9.37781831905e-06,-46582650.5644,1.57498173934e-05,0.0,5814197.19185,679.665542934,647.79369353,66952954.6078,1698.49791747,36351055.0637,70729819.006,4377.50936748,4368.55891292,0.0
1.08646520143,1.16268393531,9.97261875879e-06,-27398961.7935,1.40549172346e-05,0.0,5775760.95269,680.864615003,649.943654077,66878224.6077,1742.55381926,35943580.836,69362393.1426,4509.91705114,4501.33308912,0.0
1.02980793849,1.0525227052,9.72455950125e-06,-62905174.3525,1.31547472154e-05,0.0,5927473.99801,678.205154619,646.241710831,67274542.9176,1668.46369475,44586951.5671,71082622.0877,4274.73275267,4267.44052602,0.0
0.948166301951,0.975533056355,1.00830031825e-05,-93423611.758,1.36202421151e-05,0.0,6091703.00375,685.924717246,641.013546186,67637470.6573,1609.25981161,68524317.1274,68742915.0504,3935.8383194,3929.63113431,0.0
1.04370075589,1.03238792077,9.35066093602e-06,-52553713.7296,1.34818689654e-05,0.0,5854017.79527,679.112643558,647.10570113,67060437.1242,1683.9291794,38634224.0394,71280112.3886,4332.4018377,4323.63204521,0.0
1.23848968871,0.780497665514,1.00410131477e-05,17211680.9509,3.20849431259e-05,0.0,18788186.8505,690.142435449,659.375175127,64881480.1054,1927.78317471,61838474.0811,66836369.4478,5140.97069784,5128.99972604,0.0
1.04846142405,0.870709758965,9.83872566254e-06,-46592458.5247,1.5290294329e-05,0.0,5821059.259,678.943759428,647.40254454,66963952.9218,1690.64347868,36298003.1372,70403149.3022,4352.16337123,4343.45951221,0.0
0.970818939716,1.17080118489,1.03100414875e-05,-94325761.5686,1.21881230048e-05,0.0,6037866.46697,682.24684687,642.470156895,67517761.4911,1613.35496505,69318704.3392,69549492.0899,4029.86941876,4023.35657028,0.0
1.17190069546,0.859163572945,1.01848012389e-05,1566632.05961,2.4357800167e-05,0.0,5366555.05224,686.074367254,655.327429577,65630935.0972,1847.50087428,50584679.0852,66896701.9841,4864.55978685,4853.26626177,0.0
1.05543197487,0.698856046257,9.95189652738e-06,-42240778.4177,1.73642080412e-05,0.0,5799148.0522,679.24873501,647.831613988,66909147.285,1700.69136271,35146179.1436,70352845.047,4381.09812769,4372.46075663,0.0
1.03143907316,1.05534266369,1.02284983764e-05,-59269468.4327,1.3383713014e-05,0.0,5848059.98673,677.873999888,646.317669843,67030010.9506,1667.87218409,42234467.0209,70971001.7933,4281.50359269,4273.01949338,0.0
0.971520933795,0.863899588604,1.01042571079e-05,-94528094.5753,1.47776358909e-05,0.0,6031676.98307,682.258917565,642.517873026,67487073.0538,1612.20530876,69496756.7705,69729629.9576,4032.78339618,4026.26673951,0.0
1.07711434724,0.900122700166,9.94222962782e-06,-30964596.8593,1.63982006908e-05,0.0,5788465.8344,680.255205515,649.196129812,66913713.4389,1730.48837842,35268326.8133,69397460.2399,4471.10165539,4462.66367241,0.0
1.02250965625,0.850392708682,1.01425917761e-05,-68096625.9031,1.49734149482e-05,0.0,5858880.52181,677.779724098,645.755052834,67047159.0589,1656.08457282,48066281.1212,70792514.2453,4244.43758309,4236.09716354,0.0
1.10970145871,0.942854656743,9.92460314016e-06,-17624492.1841,1.81352258851e-05,0.0,5639447.98067,682.351577615,651.385650256,66466970.825,1770.19768006,39853498.0706,68978458.3369,4606.37075511,4596.44834588,0.0
0.971626930886,0.894513871503,1.04393523391e-05,-94280558.3202,1.44629342031e-05,0.0,6017084.8853,681.866835952,642.521139329,67457600.0801,1612.3370357,69278974.2601,69509882.8677,4033.22339011,4026.6995218,0.0
0.997609184746,1.11513636392,1.04335763643e-05,-95454622.4519,1.25816866363e-05,0.0,5905833.22906,677.848855761,644.167321505,67136165.6019,1621.89751566,70312782.533,70557531.44,4141.07572588,4132.88719406,0.0
1.03282479692,0.914699006306,1.03428103983e-05,-57216637.1801,1.46886051633e-05,0.0,5832364.52775,677.874613959,646.404904798,66986234.5295,1669.81707152,41030277.879,70824394.2569,4287.25573201,4278.74924661,0.0
1.05759745775,1.01482967168,9.82939024932e-06,-43105602.5533,1.43112346196e-05,0.0,5800908.55977,679.36289617,647.960541866,66921686.6257,1702.51079686,35317097.9866,70067143.9742,4390.08704712,4381.08634098,0.0
1.05969154433,0.888377812138,1.0053950379e-05,-39746124.3949,1.56163963962e-05,0.0,5797003.72004,679.324655829,648.114711425,66912466.971,1706.2182691,34837319.6441,69726649.149,4398.77960051,4390.07363711,0.0
1.17550612326,0.865713796814,9.63785792954e-06,1914344.13005,2.3595248751e-05,0.0,5409911.79684,686.579153464,655.578752423,65793515.6839,1853.0347967,51160413.2875,67036766.5852,4879.52591765,4868.49380998,0.0
1.09484683688,0.998661429954,9.48275161207e-06,-25600670.0288,1.61345149979e-05,0.0,5759314.55645,681.707529135,650.436350557,66837613.6311,1753.44773759,36496233.5798,69416481.606,4544.70921989,4535.89632954,0.0
1.01633016705,1.07496198782,1.01134326916e-05,-74068019.6531,1.29179559751e-05,0.0,5887550.94581,677.640518295,645.363937826,67115289.9813,1647.67236595,52502782.9243,70798528.9589,4218.78652342,4210.54495232,0.0
1.18389397732,0.987175760121,9.78311173354e-06,4236778.88666,2.22273979192e-05,0.0,6090712.28254,686.86824721,656.080135626,65785693.5634,1863.7364934,52404261.6605,67086018.8049,4914.34389986,4903.48213208,0.0
0.929726020273,0.990533975046,9.76112109075e-06,-92581890.4074,1.4087392929e-05,0.0,6141336.64082,689.810403837,639.826082432,67761937.2349,1610.40217081,67783471.8837,67990830.7505,3859.29271015,3853.35951812,0.0
1.11044218813,0.872124888334,9.93327140663e-06,-17409381.9557,1.90753791364e-05,0.0,5630504.56903,682.422084614,651.428110579,66442198.5066,1771.2232367,40035717.0678,69001234.6301,4609.44552293,4599.51033449,0.0
1.13911775766,0.981139039228,1.01933485387e-05,-9367916.30228,2.05153066933e-05,0.0,5543268.65142,683.923387899,653.233730847,66190967.3987,1808.62555429,44610030.6627,68049809.0956,4728.47781205,4718.3447619,0.0
1.00149185854,0.938261528022,1.01626007807e-05,-94828517.8132,1.38724974546e-05,0.0,5914665.11209,677.973567152,644.422557253,67163116.5488,1627.93967365,69767279.553,70722297.2556,4157.1927048,4149.18890232,0.0
1.11333435321,0.864642683345,9.66906559059e-06,-17400705.355,1.91982317057e-05,0.0,5637549.62827,682.763821035,651.614777542,66467818.4327,1775.22152814,40080881.9328,69127792.4865,4621.45090017,4611.56341718,0.0
1.07205631378,0.872514001684,1.01860953139e-05,-31881096.0222,1.65440042223e-05,0.0,5778870.51129,679.794973745,648.853567711,66869730.5832,1723.18967931,35109096.8517,69496498.0283,4450.1057585,4441.55506255,0.0
1.1823831918,0.892043801624,1.0040101537e-05,4576076.71821,2.42984401765e-05,0.0,6263437.76849,686.664018715,655.973732884,65736631.2654,1861.94215167,52469943.1378,67023094.5179,4908.07262916,4897.33415072,0.0
1.08088389714,1.14082382108,1.02609658811e-05,-29327038.4041,1.4375052271e-05,0.0,5783328.37117,680.373116578,649.601811591,66895187.6401,1735.84118845,35501898.0273,69255606.5122,4486.74905703,4478.44664139,0.0
0.985974167702,0.96534344011,9.90663345365e-06,-95258082.7533,1.35347140084e-05,0.0,5996641.34568,680.102428768,643.443334497,67381869.3377,1612.54590227,70139369.5075,70381983.0747,4092.77877013,4085.64560281,0.0
1.09365143228,1.14304929613,1.01620081487e-05,-24395249.0051,1.48728255962e-05,0.0,5746607.74009,681.114606423,650.363567722,66787935.2446,1751.93094087,36603040.0075,69040446.9421,4539.74709539,4531.05136101,0.0
1.20502544412,0.835325304071,1.03797220866e-05,10516540.4968,2.78315144535e-05,0.0,11844034.4368,687.925554874,657.361586506,65250987.94,1887.82748965,56338965.5827,66821387.2879,5002.06061854,4990.58665926,0.0
1.20802770737,0.975575055676,1.02598314267e-05,10628461.9818,2.51340483158e-05,0.0,11911473.985,688.112493602,657.531644178,65206488.9936,1890.38615622,56403746.5026,66586376.1936,5014.52301329,5002.56946436,0.0
1.04158628054,0.905962916899,9.91575648199e-06,-51178260.2264,1.47768040999e-05,0.0,5828940.34553,678.586963134,646.952829977,66985769.487,1681.31852352,38081416.941,70931944.4316,4323.62465052,4314.88957146,0.0
1.138308325,0.931989110255,1.00637632253e-05,-9892138.50367,2.11003516349e-05,0.0,5546295.03295,684.014286851,653.204754828,66194032.4249,1807.66789106,44473602.5988,67930604.97,4725.11785707,4714.97336882,0.0
0.94903747238,1.25132652588,1.01988378178e-05,-93397623.5337,1.13364702649e-05,0.0,6083246.97356,685.546677506,641.064279371,67612279.8588,1608.19260374,68501454.696,68720328.557,3939.45454785,3932.95273149,0.0
1.01280057311,1.00984726534,1.00104678752e-05,-78181834.4247,1.34902235094e-05,0.0,5896437.83364,677.785689895,645.140033132,67121695.7794,1642.97323395,55730957.5997,70742386.4204,4204.13517898,4195.949853,0.0
1.13606910378,1.12616626309,9.68750678963e-06,-10196334.2227,1.76174133068e-05,0.0,5624936.33841,683.943763682,653.082486912,66454410.9217,1805.78354515,44441910.3786,67872939.6469,4715.82284979,4706.23211214,0.0
1.24801651878,0.974053015729,9.53145050064e-06,18702932.3477,2.76521322501e-05,0.0,20279645.8069,691.080668551,660.084075704,64786247.6702,1937.66887216,63003971.1913,66387225.3952,5180.51656946,5167.84808829,0.0
1.17815542112,0.954331988458,1.01196003953e-05,3078260.57052,2.28114688499e-05,0.0,5383507.36793,686.388975388,655.716732247,65687335.8714,1855.82044529,51473578.132,66942767.0509,4890.52315307,4879.42887334,0.0
1.15150791503,0.864364782637,9.95681105038e-06,-5367158.18192,2.34612162279e-05,0.0,5532689.63493,684.874249613,654.066375624,66182658.4712,1825.57943471,47136470.4895,68661419.9462,4779.90935529,4770.06141691,0.0
1.14071015758,0.992890092528,1.02179997028e-05,-9163383.38012,2.05778011097e-05,0.0,5565451.95162,683.951460266,653.327225664,66286556.6044,1811.77092587,44793855.3435,68144751.9306,4735.08786411,4725.33774163,0.0
1.0151898403,1.01392253946,1.00158961691e-05,-77637874.9988,1.33248244163e-05,0.0,5942002.36548,677.654238678,645.310705598,67282149.1623,1648.52300716,55302030.1525,70905880.71,4214.05302709,4206.84091073,0.0
0.963574400594,0.653687391951,9.85007075899e-06,-94034497.5227,1.67807008843e-05,0.0,6047539.98254,684.777829492,642.006872453,67526976.4878,1616.78277803,69062228.0058,69288908.5221,3999.79733687,3993.38293373,0.0
1.20655333647,0.811517570755,1.01906453759e-05,10350598.488,2.84717979584e-05,0.0,11647422.8165,688.213615274,657.446499995,65156760.9788,1889.03318907,56162706.4745,66760189.4921,5008.40289969,4996.47688378,0.0
1.15948905092,1.09966763577,9.8326793151e-06,-3259604.5459,1.87084483692e-05,0.0,5481127.91424,685.386268925,654.589763163,66009368.8183,1832.87107268,48048023.3493,68162535.5156,4813.03905037,4802.1743956,0.0
1.10504337181,1.01211659686,9.8139111916e-06,-21756838.4846,1.72863119728e-05,0.0,5732931.84933,682.135830957,651.155480256,66768543.5051,1767.73182104,37719296.7871,68647803.5677,4587.03503638,4578.35907315,0.0
1.16583047336,1.21494801766,1.03330129439e-05,-570098.994207,1.83518113806e-05,0.0,5424890.48827,685.410594097,654.963024087,65811344.209,1839.74403177,49208056.5671,67417009.2626,4839.36229492,4828.17077737,0.0
1.11078992112,0.940384212299,9.58362845918e-06,-18384787.6494,1.77835107002e-05,0.0,5684584.54799,682.623338469,651.481865987,66610149.5317,1773.14765891,39640734.2026,68966635.5084,4610.88896257,4601.43473338,0.0
1.12457516612,0.754126842046,1.0167886335e-05,-13124952.3127,2.24758298682e-05,0.0,5581934.94235,683.156113796,652.303314913,66292319.0322,1790.60886236,42404327.2806,67523688.5046,4668.11151456,4658.32766022,0.0
0.925521715818,1.0655618195,1.04668320975e-05,-92163141.452,1.24859546924e-05,0.0,6066585.526,688.065676346,639.533880394,67513754.4824,1597.05698424,67415071.2091,67620716.5072,3841.84064236,3834.77820853,0.0
1.17544051274,0.809399445964,9.95661469257e-06,2248249.50177,2.51875387213e-05,0.0,5384041.80283,686.43403944,655.557966582,65701394.6569,1852.8885851,51101965.7973,66941586.9688,4879.25356838,4868.20794138,0.0
1.10757235547,0.824541574364,9.9052226408e-06,-18323538.4091,1.94066693353e-05,0.0,5637147.56277,682.312706006,651.262094009,66456003.1816,1767.57258111,39470259.8691,68833446.4219,4597.53284756,4587.64713392,0.0
1.08236322495,0.857938859283,1.01801427451e-05,-28108935.7347,1.74453687634e-05,0.0,5757371.19223,680.617837055,649.687432094,66818577.3419,1737.39423691,35686191.7067,69227674.3758,4492.88974677,4484.37029786,0.0
1.15176560362,0.902329360304,9.72105146244e-06,-5410162.00909,2.23061555714e-05,0.0,5512730.7724,685.046092397,654.066727702,66121228.7052,1824.58090528,47234719.3381,68685488.686,4780.97902063,4770.61870674,0.0
1.18559355144,0.956807625848,1.00798242698e-05,5028383.50685,2.33927225345e-05,0.0,6691324.45043,686.813263487,656.181113451,65719371.0234,1865.83553007,52743002.1826,66981618.3507,4921.39883203,4910.6019541,0.0
1.19970585889,0.865231597956,1.01760510385e-05,8298869.69203,2.63276555945e-05,0.0,9759309.76562,687.771270072,657.089946006,65392055.6168,1882.0550731,54785082.1042,66599226.5834,4979.97902025,4968.59897816,0.0
1.16502641049,0.878589442123,1.00407760348e-05,-26390.1380837,2.30617041097e-05,0.0,5421740.76443,685.70471942,654.920626251,65800599.6481,1839.46171892,49905539.7916,67643686.4445,4836.02462994,4825.06311091,0.0
1.07163551114,0.912924311266,1.04607070968e-05,-31372370.7344,1.63442753688e-05,0.0,5771230.80146,679.740223109,648.956905314,66842212.5846,1722.92455264,35091356.2924,69253464.326,4448.35900674,4439.90943385,0.0
1.02321392413,0.918215441385,9.90154224948e-06,-68812827.9329,1.41769271851e-05,0.0,5928042.22052,677.902716319,645.823181502,67265630.6297,1659.65132128,48610978.6774,70933524.5565,4247.36099906,4240.12328343,0.0
1.13447629758,0.986392530189,9.79898764591e-06,-11077095.3316,1.97701588161e-05,0.0,5605282.20328,683.888565837,652.977708965,66389021.0882,1803.8184255,43772141.7313,67659168.3226,4709.21111125,4699.53912068,0.0
1.13013470694,0.864680221502,1.05355514656e-05,-11545398.9782,2.23740846666e-05,0.0,5608218.2256,683.160803546,652.704538399,66405406.658,1799.66525095,43289683.6596,67564129.8377,4691.18916851,4682.13196722,0.0
1.12395875789,0.831885632109,9.55855792558e-06,-14446541.1573,2.06211315154e-05,0.0,5623160.67604,683.445076993,652.253192473,66436727.702,1789.86205978,41707946.7806,68807040.6691,4665.552804,4655.75438477,0.0
1.10402396304,1.02347829329,1.00027624255e-05,-21367059.6797,1.69845722983e-05,0.0,5717738.99092,681.937382345,651.080513143,66712351.4958,1765.70459322,37830248.693,68659949.2454,4582.80347058,4573.94433828,0.0
0.973738951953,0.868401513801,1.02914274967e-05,-94393989.5348,1.48175099814e-05,0.0,6016560.75186,682.032173027,642.657892517,67457170.3081,1614.55860006,69378823.1472,69611254.3141,4041.99038956,4035.4376784,0.0
1.05390620151,0.893961366182,9.62502767493e-06,-42453128.0663,1.47154656763e-05,0.0,5805875.07308,679.467434265,647.823483875,66911403.5863,1697.03600245,35264104.6765,70574589.4158,4374.76464247,4365.61625268,0.0
1.08640425834,0.89359900799,1.00001450652e-05,-27293723.1464,1.71820245429e-05,0.0,5756102.76584,680.955012576,649.938588351,66818502.2856,1742.67552972,35959812.7523,69293390.6397,4509.66407637,4501.08168946,0.0
1.18140721398,0.877998176296,9.78314271472e-06,3912454.11625,2.40330899401e-05,0.0,5862277.39112,686.800350312,655.927642342,65743195.0006,1860.471047,52214478.8873,67024113.7287,4904.02134523,4893.09164936,0.0
1.13443709349,0.793421260696,1.00598095074e-05,-11064439.7478,2.29066628112e-05,0.0,5577729.29561,683.821986899,652.971886989,66310928.4195,1804.08750628,43715099.5639,67591994.5152,4709.04837508,4699.40237748,0.0
1.05672444372,1.07717053386,9.86685285921e-06,-41112513.6308,1.33102756587e-05,0.0,5842291.98124,679.186732388,647.91506216,67040380.2616,1702.95088073,35067725.7225,70315664.3565,4386.46316588,4378.151768,0.0
1.0676630482,0.827820380683,9.63722486925e-06,-36146923.6593,1.64413645717e-05,0.0,5820084.31006,680.039711742,648.64275011,66986732.4441,1718.13612577,34681653.9417,70349811.0234,4431.86931308,4423.57720814,0.0
0.946913803192,0.972639346531,1.01208581013e-05,-93365767.3465,1.35795181381e-05,0.0,6093066.11913,685.972119641,640.932700641,67639999.5167,1608.44325031,68473417.6906,68691360.372,3930.63919705,3924.44872659,0.0
1.11128555245,0.889548035358,1.03601423258e-05,-16580560.8787,1.92378631304e-05,0.0,5640389.69182,682.11061936,651.458087035,66460534.317,1773.60014867,40345248.9301,69114169.3201,4612.94632822,4603.48462885,0.0
1.05369239354,0.956949707046,9.74466353868e-06,-43531034.0605,1.44132575093e-05,0.0,5821718.24935,679.220163789,647.731456528,66974181.4157,1697.65580498,35492799.5254,71346907.3703,4373.87712558,4365.08773946,0.0
1.04394058472,0.617435019326,9.89942793267e-06,-51593516.1225,1.79644278718e-05,0.0,5859370.27617,678.74230559,647.139208335,67089677.6863,1687.51663957,38268868.1036,70990746.1719,4333.39736717,4325.86307269,0.0
1.00765296516,1.04471727519,9.95933239743e-06,-88707685.9509,1.32429680376e-05,0.0,5893522.70748,678.010564949,644.812957176,67104895.8606,1635.03282685,64449502.218,70835626.7072,4182.76745838,4174.33440081,0.0
1.13001563002,1.10128492514,1.00091490008e-05,-11119153.5198,1.77137085966e-05,0.0,5604719.69001,683.28895356,652.597764108,66385506.8985,1796.82046803,43787799.6282,67563264.1938,4690.69488021,4680.8228327,0.0
1.08772656575,0.988741408829,1.00689203679e-05,-26654664.2742,1.62631585303e-05,0.0,5756105.22589,680.934802118,650.015921375,66821109.375,1744.32568478,36068495.0356,69273609.7167,4515.15297443,4506.54995174,0.0
1.04388051585,0.898027719665,1.01010571666e-05,-49174871.4104,1.50545701885e-05,0.0,5821988.33384,678.556611389,647.114662418,66969628.4069,1684.85800864,37141151.8592,71007621.3857,4333.14802129,4324.55149217,0.0
1.04036253049,0.852903585228,9.69715493858e-06,-53859488.3421,1.53781280598e-05,0.0,5826046.02744,678.74466471,646.873955358,66970628.9548,1679.0938044,39339650.2809,71085630.9196,4318.54486406,4309.65649331,0.0
0.951193081109,1.17497058983,9.91700015897e-06,-93618196.2591,1.20501422712e-05,0.0,6101676.42622,685.923485574,641.209566099,67670774.5514,1611.80264126,68695570.9632,68915773.4361,3948.40247968,3942.15467166,0.0
1.05940534775,1.05435611594,9.9490653982e-06,-39457325.6353,1.36774986278e-05,0.0,5831528.06805,679.286062445,648.102937582,67014105.0767,1706.55054648,34808667.5624,69841936.6115,4397.59159851,4389.23850763,0.0
1.02688190864,0.789148104306,9.8982003473e-06,-64240020.5539,1.53920177092e-05,0.0,5912779.77082,678.026922206,646.049344164,67227585.547,1664.60227541,45440619.6219,70872781.9979,4262.58680276,4255.2967168,0.0
1.22656328767,1.05456326165,9.91456333025e-06,14234645.3694,2.45897002758e-05,0.0,15649886.1995,689.479359767,658.775559957,65077017.0213,1912.39595652,59454441.552,66604468.4384,5091.46420712,5079.24173081,0.0
1.12723393512,0.814878529254,9.8906628299e-06,-12980079.0683,2.17062661814e-05,0.0,5618883.26957,683.425894302,652.491042529,66429401.7032,1795.00102259,42457251.3543,67986986.2378,4679.14806468,4669.72420915,0.0
1.10591105919,0.769569249851,9.74074303541e-06,-19443354.5868,1.97339629068e-05,0.0,5677912.53202,682.339772484,651.187008491,66583843.5794,1766.94428106,39063181.4518,68653980.3804,4590.6368067,4581.26238979,0.0
1.03483746727,1.07120675432,1.05362469139e-05,-55493280.3161,1.32866036236e-05,0.0,5841041.35957,677.723198152,646.526130721,67022983.549,1673.23169301,40066235.617,70872901.9767,4295.61032664,4287.33352029,0.0
0.908954325062,1.07066593721,1.00655806639e-05,-91525377.6239,1.24445349654e-05,0.0,6124383.41186,691.268020312,638.469935646,67662621.0589,1596.39945095,66853619.2504,67662621.0589,3773.06940333,3766.28762408,0.0
1.09230460397,0.77140644505,9.73808515336e-06,-25343493.8084,1.91434274871e-05,0.0,5743482.44536,681.502089345,650.281126604,66782227.8472,1750.5098045,36482687.9815,69360959.2641,4534.15641108,4525.47664706,0.0
1.13638527258,1.13708435235,9.65038795582e-06,-10204995.8504,1.74594361801e-05,0.0,5626577.27908,683.984473709,653.104321638,66460449.134,1806.19407079,44478271.1511,67894134.2061,4717.13526648,4707.53932107,0.0
1.15928805816,0.905481366075,9.6263602881e-06,-2788479.71574,2.1563329104e-05,0.0,5475216.81794,685.413253449,654.441845283,65986112.483,1832.91017401,48648240.4638,68265204.9705,4812.20472942,4801.34457366,0.0
1.13161683465,1.02771587234,1.04577836759e-05,-10962887.3508,1.94080863477e-05,0.0,5571037.51144,683.173924941,652.699513086,66277096.1664,1799.2024474,43679931.2311,67626354.0857,4697.34148063,4687.43853377,0.0
1.18168052001,0.917056845873,9.70649861118e-06,3586960.12392,2.32393879378e-05,0.0,5716883.06457,686.834567327,655.95251767,65814017.9156,1861.24188717,52089947.5497,67083770.7536,4905.15583856,4894.33290974,0.0
1.0568744982,1.16897423489,1.01185387376e-05,-40039280.0747,1.25826868435e-05,0.0,5837285.55327,678.966259998,647.923788547,67030387.9261,1703.12869423,34892744.7179,69707153.9241,4387.08604203,4378.7737566,0.0
1.25165159089,0.877779679918,1.01270114296e-05,19963157.6267,3.18700482161e-05,0.0,21737355.9474,691.122022176,660.292175776,64534372.8635,1940.96316585,63994722.339,64856997.2365,5195.60575378,5182.82158377,0.0
1.0265671473,1.02367599784,1.02287516721e-05,-63778229.833,1.35741383785e-05,0.0,5856571.58382,677.720384238,645.998073964,67047730.5982,1661.42484398,45081107.1583,70856934.801,4261.28022844,4252.87464459,0.0
1.00786122416,1.00638000872,9.65453141843e-06,-87588311.6972,1.31347664875e-05,0.0,5911540.72303,678.246939403,644.831555989,67145504.7607,1635.39880355,63501499.4589,71013936.4538,4183.63194149,4175.24781239,0.0
1.08159149077,0.971163090432,1.01908036919e-05,-28403606.5184,1.60810553398e-05,0.0,5766577.65348,680.522375943,649.640600595,66845264.9081,1736.2992845,35690194.3615,69248471.9531,4489.68627819,4481.17882722,0.0
1.0685234087,1.11238156948,9.82727104364e-06,-35736116.6726,1.34840751481e-05,0.0,5817680.34001,679.849002034,648.694984971,66986425.0957,1718.54529689,34708774.9147,70185514.5678,4435.44066951,4426.94513752,0.0
1.07628784287,0.907161290652,9.49375750832e-06,-31916523.2643,1.57912959289e-05,0.0,5790791.62891,680.516303247,649.129891196,66901240.4858,1728.10263608,35235379.2025,69822027.7325,4467.67083575,4458.86588693,0.0
1.15208493927,0.985757484395,9.92241576509e-06,-6811515.48248,2.1811804458e-05,0.0,5572271.7995,684.852555966,654.110713529,66313082.651,1827.71483714,46213284.9514,68762276.812,4782.30458291,4772.8702544,0.0
0.97196503873,1.04105378181,1.01184154288e-05,-94572355.4574,1.33454377524e-05,0.0,6038251.63754,682.090731525,642.5463233,67507731.5449,1612.05357097,69535624.2598,69768760.4022,4034.62687577,4028.10416639,0.0
1.06005203676,0.589868894248,1.03806274522e-05,-37669013.4136,1.91779291894e-05,0.0,5785701.48063,679.188913838,648.144572493,66875369.8381,1708.09934143,34598637.9966,69828364.9483,4400.27600459,4392.00721251,0.0
1.124675607,1.11934799351,1.0087001473e-05,-13143979.5282,1.71461445418e-05,0.0,5618496.35823,683.000197556,652.311007933,66422024.6905,1790.17842918,42486144.2138,67695144.0741,4668.52844466,4658.7433151,0.0
1.18335972938,1.13535326457,9.45885031677e-06,3521000.88404,1.93436251334e-05,0.0,5635833.99687,686.943785686,656.06413505,65905297.6514,1863.24246101,52180025.1433,67198426.1687,4912.12623666,4901.26711061,0.0
1.22965838699,0.926323235223,9.98389425473e-06,15153162.2595,2.76578283492e-05,0.0,16558017.4063,689.54150146,658.903558295,65163826.1033,1917.94669663,60227337.7437,66744310.5937,5104.3119644,5092.70901241,0.0
1.17463015184,1.01871001426,1.04733531982e-05,2825426.12784,2.18325934523e-05,0.0,5394213.51022,685.898542198,655.490297899,65706398.1756,1851.37672352,51156837.3012,66889129.4953,4875.88976029,4864.96387983,0.0
0.980702291618,0.986985586714,1.00706919683e-05,-94824643.3711,1.36946134547e-05,0.0,6003046.16421,681.102587777,643.103646162,67409422.5708,1614.22065839,69757742.1867,69995849.3105,4070.89521251,4063.91548579,0.0
1.09524625556,0.866386731676,9.96561799434e-06,-24195385.4924,1.81395564269e-05,0.0,5733057.15388,681.461018801,650.464848901,66757719.1402,1754.3915362,36744962.7343,69092392.9557,4546.36720683,4537.64633704,0.0
1.23121425302,1.0691200092,1.00763180726e-05,15498541.2258,2.50220917024e-05,0.0,17008197.7237,689.480903812,659.002216993,65187843.6389,1919.37477875,60545487.4934,66811052.8828,5110.77036429,5099.13943744,0.0
1.04797029718,0.982768184644,9.60421698464e-06,-49074482.4424,1.41963046655e-05,0.0,5831029.08783,679.121015267,647.382184005,66995579.7113,1689.69362163,37237720.0155,70961412.9903,4350.12470359,4341.28464961,0.0
0.99439373156,1.08760953191,1.00735689467e-05,-95379894.9294,1.26940749942e-05,0.0,5924833.1779,678.830820157,643.96660869,67182046.58,1617.33273673,70246850.2527,70474383.4626,4127.72837971,4119.51101151,0.0
1.18996171016,1.07846604946,9.73301820127e-06,5321031.54666,2.09297522935e-05,0.0,6942319.66172,687.241540354,656.461890455,65717128.9316,1870.51896532,53093810.4383,66965049.9399,4939.53105887,4928.33978008,0.0
1.12322614868,1.01490457995,9.84436203317e-06,-13937548.7317,1.83352026014e-05,0.0,5649013.87069,683.087869954,652.213505574,66521659.1236,1789.4105846,41894923.7322,68709925.5489,4662.51174317,4653.05187572,0.0
1.08915211687,0.772179901221,9.92109999586e-06,-26557805.9276,1.89555731616e-05,0.0,5742819.06916,681.212127284,650.103520235,66780845.0294,1746.37996503,36103712.9773,69271060.9696,4521.07043713,4512.44514472,0.0
1.10134683911,1.13863387094,9.78570331286e-06,-21202598.2133,1.49620478056e-05,0.0,5673030.406,681.906446734,650.88666937,66555937.0904,1758.68674091,38257736.2231,68448027.185,4571.69072915,4561.63105688,0.0
1.16141818096,0.768191185457,1.03527300697e-05,-1765449.41937,2.75947470655e-05,0.0,5492500.85588,685.3300261,654.725063696,66042848.6905,1838.98126965,48669232.6429,67945299.4099,4821.04686917,4811.46484364,0.0
1.12788232314,1.13609915216,1.00498761451e-05,-12356224.7518,1.71510025287e-05,0.0,5613363.60008,683.123324967,652.447990278,66409202.3617,1794.27098479,42963874.6744,67320259.0243,4681.83952335,4672.00022409,0.0
1.12780389223,0.660595443774,9.86112825317e-06,-12596642.8552,2.45703269275e-05,0.0,5536238.61618,683.696911175,652.509399264,66159841.8958,1793.6834947,42609438.9439,67616534.563,4681.51395665,4671.1800249,0.0
1.1458978918,0.750193544904,9.98134226274e-06,-7183761.30978,2.54944508599e-05,0.0,5561002.49338,684.488987967,653.658591893,66265599.374,1819.47450576,46145746.205,68507512.2059,4756.62214886,4747.18518235,0.0
1.13587917945,1.17873006619,9.81143497202e-06,-10755854.0814,1.71176096565e-05,0.0,5617280.18675,683.861578313,653.065370534,66428512.9552,1805.40723228,44039204.0535,67809188.6463,4715.0344739,4705.33918367,0.0
1.19967684256,0.799393184499,1.00990003219e-05,9160994.73504,2.78934693233e-05,0.0,10600931.2455,687.823101748,657.09354692,65441110.5137,1882.40654307,55409517.6648,66726001.0976,4979.85857347,4968.71392577,0.0
1.14130842888,0.753787097869,9.89442374319e-06,-8407326.36576,2.43008405117e-05,0.0,5561934.55107,684.297767582,653.378135103,66274402.4177,1812.82892231,45541118.2792,68215077.2456,4737.57128828,4727.89410472,0.0
1.16751899197,0.925664111543,1.04118361592e-05,1247974.69992,2.28565547413e-05,0.0,5406393.46301,685.577308524,655.068223662,65729106.011,1842.46582496,50325340.2134,67335081.6523,4846.37133567,4835.48185432,0.0
1.14998757216,0.979104352439,1.00617993876e-05,-5636754.04965,2.14865583582e-05,0.0,5544138.95439,684.646868331,653.969267566,66218628.546,1823.46454935,46945782.3937,68708329.3491,4773.59841204,4763.77741587,0.0
1.19064338148,0.919963080712,1.01555214964e-05,6484665.76521,2.4414965042e-05,0.0,8024559.6495,687.187888094,656.527053964,65499020.2582,1870.71329297,53458606.3911,66607638.297,4942.36067652,4931.05901099,0.0
1.01261529762,0.976290383452,9.54782579263e-06,-82114191.7825,1.38790404278e-05,0.0,5908626.43167,678.4028744,645.13613154,67151298.2423,1642.42378008,58931143.3637,70965470.9177,4203.36610042,4195.10001169,0.0
1.08197242751,1.15881446614,9.85500868149e-06,-28846692.3765,1.39415189891e-05,0.0,5792749.96574,680.692950091,649.656540681,66922067.7598,1736.62536482,35779673.4683,69438398.7535,4491.26754659,4482.77300083,0.0
1.18858981905,0.816667187589,9.92060746662e-06,5592498.09966,2.61934739337e-05,0.0,7186098.59339,687.217437014,656.378771774,65644646.5918,1869.59025358,53183339.718,66891961.1712,4933.83633888,4922.89199385,0.0
1.07414851518,1.12937075303,9.84388003782e-06,-31709004.3689,1.32970508759e-05,0.0,5782350.55341,680.091256248,648.996044525,66872200.8614,1724.49837774,35039383.7846,69596487.3861,4458.79048651,4449.66614137,0.0
0.990187121396,0.617809296945,9.87928750177e-06,-95143561.6965,1.70663824643e-05,0.0,5912391.33002,680.086169002,643.699353628,67134528.8179,1613.30284829,70038816.855,70283428.3149,4110.26674091,4102.11739476,0.0
1.05581206074,1.01342654481,1.02789099707e-05,-40171319.6287,1.41888684299e-05,0.0,5824511.81571,678.967524749,647.937452332,66985434.8472,1702.11666794,34897659.4054,69598932.3113,4382.67586413,4374.47239408,0.0
1.09473801989,1.04073146975,9.85613052277e-06,-24733428.2995,1.58756801267e-05,0.0,5752239.04738,681.409627291,650.417984057,66815087.3211,1753.58692069,36647389.8499,69252340.5916,4544.25752056,4535.54462907,0.0
1.10859125343,0.937172351568,9.94246125553e-06,-18011146.1544,1.81047657601e-05,0.0,5642073.55285,682.278822676,651.319499772,66474640.5863,1768.76960336,39804766.5845,68921496.5879,4601.76229299,4591.85990976,0.0
1.05722890051,1.01611849572,1.02023825889e-05,-39787129.343,1.4202570245e-05,0.0,5827402.09595,678.990529812,647.955329939,66995359.5162,1703.99590975,34817376.4713,69667005.1266,4388.55716602,4380.33044023,0.0
1.18416407073,1.05794214354,1.06492968301e-05,5813508.46519,2.20081341947e-05,0.0,7258922.50394,686.372307623,656.105738225,65558926.5083,1862.42689328,52703798.8351,66585206.2739,4915.4650576,4904.37339013,0.0
0.994086665888,0.875729714406,9.95257401493e-06,-95349618.1342,1.46325285208e-05,0.0,5917029.82729,679.240585146,643.948121581,67156314.7623,1617.04294216,70220212.9832,70482430.9474,4126.4537501,4118.24135497,0.0
0.985377444648,0.960496834644,1.01723165133e-05,-94923794.0208,1.39805671942e-05,0.0,5937587.74741,680.042839782,643.389895556,67206232.902,1610.72644439,69845342.228,70086382.4096,4090.30177273,4082.30932577,0.0
1.09061266106,0.897906166315,1.0191267329e-05,-25279405.2754,1.7607294296e-05,0.0,5736547.92826,681.003289149,650.153832683,66766892.8093,1748.16455274,36373410.5998,69092109.7676,4527.13315606,4518.48496154,0.0
1.2048953634,1.11523733289,9.87071512819e-06,9529669.12888,2.17551895475e-05,0.0,10911169.7249,688.076029785,657.380013998,65373692.7186,1886.83463901,55692943.8573,66921054.9744,5001.52065347,4989.59875721,0.0
1.24093586744,0.92637906909,9.91538008211e-06,17758733.5803,2.85109138076e-05,0.0,19319126.3705,690.432326396,659.669784832,64926911.9154,1930.05599929,62276416.6051,67032342.636,5151.12478574,5139.05071537,0.0
1.16004130308,1.00738896456,1.02413346885e-05,-2038182.04436,2.07319889289e-05,0.0,5485850.5692,685.167686206,654.623802548,66027823.5794,1834.79866398,48624385.5772,67871911.8992,4815.33144909,4804.9884113,0.0
1.08112381729,0.83917990285,9.87026093331e-06,-29580554.0444,1.73665296157e-05,0.0,5772485.57567,680.759986804,649.595567684,66869818.0841,1735.8024128,35594064.8132,69333084.1892,4487.74496557,4479.24478203,0.0
1.25407545,0.888170453392,1.01995600971e-05,20577132.3214,3.18809455825e-05,0.0,22400979.9646,691.196805089,660.451616734,64556929.6994,1944.00217837,64475300.9659,65264657.537,5205.66719295,5193.07030277,0.0
1.13295149551,1.17140791065,9.80133955737e-06,-11526484.6726,1.69782453613e-05,0.0,5627350.23285,683.683820343,652.869877997,66452785.548,1801.66335365,43507114.3611,67610490.4267,4702.88165786,4693.23496638,0.0
1.01866006361,1.02523966736,9.8460544807e-06,-74947568.4708,1.31860882426e-05,0.0,5946864.74792,677.872838013,645.532107163,67310985.4757,1653.51412073,53193164.3262,70897463.9538,4228.45792405,4221.28500296,0.0
1.13030068414,0.761961292764,9.97342126977e-06,-11796357.8055,2.28182911619e-05,0.0,5573046.53688,683.540406521,652.61151701,66288962.8589,1797.80268669,43322171.6546,67373496.4569,4691.87813987,4681.99790962,0.0
0.940180988799,1.29816696257,9.96326944977e-06,-93187574.22,1.09212135809e-05,0.0,6130527.83589,687.124652936,640.500065271,67740763.8916,1607.5985646,68316421.6428,68531248.4953,3902.6912845,3896.59018104,0.0
1.09889412735,1.19884613084,9.76875381327e-06,-22091635.0115,1.41299248629e-05,0.0,5686340.40486,681.725469478,650.71434282,66592793.3925,1755.44915119,37904871.5285,68893558.2464,4561.50952263,4551.49284543,0.0
1.08100440577,0.736087033168,1.02652126007e-05,-29169685.9472,1.93233102207e-05,0.0,5756533.87141,680.537209976,649.608098078,66813106.21,1736.30678043,35495232.1283,69169100.4043,4487.24928835,4478.94503578,0.0
1.02681915266,0.970353834507,9.93599907394e-06,-65051273.1414,1.39335404051e-05,0.0,5870193.19807,678.035840123,646.025905379,67088271.2132,1662.10288454,45949928.7662,71041772.3393,4262.32630269,4254.00241996,0.0
0.962510268183,0.893504255961,9.62664347913e-06,-94111008.9219,1.46193339793e-05,0.0,6040574.43531,685.056061469,641.931383848,67479555.9041,1614.32141104,69129477.4612,69356071.7118,3995.38012323,3988.34276528,0.0
1.18885963975,0.868878363375,1.0224886762e-05,5917685.25609,2.55240906171e-05,0.0,7394773.83118,687.103575085,656.399190591,65413826.1502,1868.19176151,52967657.412,66586392.5249,4934.9563646,4923.45845669,0.0
1.02826754843,1.08868705376,9.97949019273e-06,-61800494.8582,1.27746743642e-05,0.0,5920366.37752,677.905738574,646.144584128,67253839.5613,1666.30407884,43802771.2539,71024144.0125,4268.33859353,4261.02868202,0.0
0.976972094661,0.903189107997,1.00990006007e-05,-94652473.713,1.4237946203e-05,0.0,6007419.2342,681.584091502,642.86380379,67416932.0101,1613.15636827,69606131.19,69841503.2335,4055.41116494,4048.48585338,0.0
1.0610125767,0.871470095057,1.01013159552e-05,-38037794.0186,1.57414595116e-05,0.0,5810324.43866,679.32885854,648.20697467,66954286.0653,1708.856063,34664515.4061,69941371.4392,4404.26320588,4395.88507866,0.0
1.17148884683,1.05812501328,9.99975529952e-06,1246958.41628,2.04320763965e-05,0.0,5452351.82573,685.969473712,655.337466024,65905017.4095,1848.45256724,50581643.9433,67578058.2434,4862.85020319,4852.19078511,0.0
0.951477912685,0.908407088875,1.0051495736e-05,-93553411.8861,1.4188778983e-05,0.0,6081846.55937,685.621883899,641.227065393,67614949.9552,1610.69983762,68638658.4155,68858723.9935,3949.58481556,3943.33334271,0.0
1.15741589759,0.933479878464,9.72809447386e-06,-4360614.01265,2.24573645795e-05,0.0,5522266.82328,685.359617215,654.436051282,66161804.3247,1832.90156483,47719308.6357,68497420.2807,4804.4333909,4794.36540682,0.0
1.0755641478,1.37811213668,1.02061994853e-05,-31855077.1648,1.20415475544e-05,0.0,5810206.55081,680.004784144,649.226797497,66982367.631,1728.7632759,35044360.2609,69501088.9181,4464.66677752,4456.44528416,0.0
1.19420952662,0.767212507285,9.65012664641e-06,6032773.20126,2.76233365125e-05,0.0,7629839.29883,687.877025113,656.728243742,65428409.3511,1875.36730526,53366034.7882,66709818.2508,4957.163745,4945.46613753,0.0
1.02797804534,0.792450620251,9.85186339592e-06,-62969139.8069,1.53429626002e-05,0.0,5912994.13605,678.090150093,646.110484106,67228510.5298,1666.08000648,44596781.2773,70922598.7419,4267.13686621,4259.83101237,0.0
1.19432797394,0.914006197985,9.8972191947e-06,6351509.96123,2.46525470683e-05,0.0,7877113.43796,687.628977548,656.756001573,65435377.5123,1874.91848396,53403056.4574,66614110.0661,4957.65541982,4945.95561815,0.0
1.12221632485,0.879076436864,9.93574673716e-06,-14249647.1025,2.02740221196e-05,0.0,5642442.96971,683.025141152,652.148782702,66494834.9468,1788.46278331,41740915.0573,68742385.564,4658.31996445,4648.97793733,0.0
1.08387425411,0.872312896844,9.41856077212e-06,-29307207.9253,1.66252608506e-05,0.0,5769074.65491,681.049674495,649.638866975,66845365.2839,1738.04720106,35659505.254,69462875.0265,4499.16202881,4490.18741929,0.0
0.915557494107,0.95097919001,9.77483243622e-06,-92023432.1654,1.38999731454e-05,0.0,6174870.56761,691.290176032,638.913656297,67839676.8995,1604.56789021,67292035.2016,67839676.8995,3800.47915804,3794.73230636,0.0
1.13086927852,1.15165845722,9.77549381391e-06,-13061575.0207,1.73390632476e-05,0.0,5576808.55747,683.650746458,652.710497059,66292537.2751,1796.85402655,42550083.8799,67574457.4291,4694.23837514,4683.80647309,0.0
1.13948852098,0.997622119045,1.0147725353e-05,-9559227.4651,1.98140336268e-05,0.0,5561295.90347,683.843568913,653.185134877,66249481.1236,1809.53829334,44579307.1802,68037658.6799,4730.01685059,4719.99736744,0.0
0.92613645839,1.07192191997,1.0300113198e-05,-92224438.0044,1.25829775924e-05,0.0,6072004.93566,688.499762895,639.574574484,67529533.4616,1599.22320889,67468971.551,67674729.999,3844.39243878,3837.3205476,0.0
1.02312819637,0.853359723496,1.02883307806e-05,-66367576.3089,1.49235341948e-05,0.0,5852628.74164,677.6388944,645.790658084,67031214.5499,1656.94520206,46835216.2224,70840622.8374,4247.00514313,4238.65480295,0.0
1.05657710843,1.09484874541,1.04553360884e-05,-39075376.384,1.34311774526e-05,0.0,5824194.70779,678.736194711,647.919257167,66988255.775,1703.09711148,34726909.3239,69688113.5639,4385.85157709,4377.63616232,0.0
1.14723677789,0.878189972167,9.93650776817e-06,-8105809.54581,2.31880351773e-05,0.0,5579383.88406,684.53393788,653.740172304,66329055.7827,1821.68030025,45461775.0219,68468514.5522,4762.17986502,4752.82498424,0.0
1.06825179663,0.992524255648,9.41750434813e-06,-36804016.1785,1.43390355231e-05,0.0,5829821.72824,680.181273495,648.678239384,67015692.7361,1718.3175453,34723283.6933,70377219.2431,4434.31320781,4425.82316663,0.0
1.16542204363,0.889159515763,1.00556346778e-05,94122.2219076,2.29233924513e-05,0.0,5420721.78266,685.711427985,654.944796599,65798282.7567,1839.92316234,49959519.3075,67618252.8675,4837.66690311,4826.69829164,0.0
0.967028959553,0.910149310206,9.91442019944e-06,-94157213.3389,1.45664184064e-05,0.0,6001880.18024,683.759502738,642.215867595,67376453.427,1612.42162212,69170258.9785,69399474.0835,4014.1372111,4006.74535825,0.0
1.05352313582,0.830195090213,9.8740660786e-06,-44933553.5298,1.60703442197e-05,0.0,5796523.74272,679.228765702,647.722799434,66900758.9849,1697.25335031,35749769.5197,70409998.0945,4373.17453679,4364.2413751,0.0
1.21416953453,1.0533523461,1.02256733185e-05,12184718.6721,2.39548499404e-05,0.0,13428314.2678,688.449922165,657.990975468,65318280.3191,1899.12141092,57732810.7797,66429929.7815,5040.01773783,5028.58661484,0.0
1.13182260847,0.893464969392,9.74532321651e-06,-12790485.6864,2.11217546689e-05,0.0,5549294.10063,683.891979888,652.77535751,66217011.3248,1798.50844354,42621501.0466,67399151.2811,4698.19564776,4687.74990175,0.0
1.14754118293,0.937771299135,1.00900351482e-05,-7247738.7145,2.18177903863e-05,0.0,5522477.08965,684.408382973,653.68548859,66142306.0389,1819.63820862,45817755.058,68582460.6204,4763.44345034,4753.24234865,0.0
1.0472668473,1.04752012708,1.01032900446e-05,-46041436.5828,1.36105234605e-05,0.0,5824783.74082,678.599931362,647.322410025,66977801.3073,1688.97535659,36013796.5297,70427799.1507,4347.20468314,4338.52163046,0.0
0.994418186499,0.990068137933,1.00751054709e-05,-95356864.4381,1.36688313281e-05,0.0,5917685.56143,678.875090949,643.968371696,67160808.5059,1617.44314776,70226569.9391,70464175.7126,4127.82989216,4119.61212785,0.0
1.04122166999,0.818851402071,9.9966038912e-06,-52133154.1019,1.57143528457e-05,0.0,5826757.90229,678.558836921,646.943371672,66977421.1402,1681.36953354,38456782.0625,70861547.3495,4322.11115213,4313.55755877,0.0
1.10358804145,0.832687210538,9.93788525924e-06,-21604491.0492,1.93264554689e-05,0.0,5706829.83512,682.050247683,651.056434873,66676953.7614,1765.32187499,37706253.3145,68577098.1548,4580.99396006,4572.14171512,0.0
0.964539963834,0.984491879883,1.02727292543e-05,-94041193.5604,1.37886440632e-05,0.0,6044012.69572,683.27167286,642.066432742,67526196.4904,1612.16705215,69068110.5915,69294933.8974,4003.80538987,3997.37790322,0.0
1.2267319082,0.85232279225,1.00051653104e-05,14405268.3115,2.88395357181e-05,0.0,15824309.02,689.58774569,658.792345538,65027030.1963,1913.51269829,59571190.3001,66534865.5535,5092.16415094,5080.16106929,0.0
1.09197275043,0.893261798967,1.02872018933e-05,-24550752.857,1.78475658309e-05,0.0,5728015.21089,681.026287321,650.247249052,66730618.7863,1749.92876809,36572737.8349,68953941.2709,4532.77888703,4524.10946176,0.0
1.10525848501,1.04772515923,1.0171389574e-05,-20820636.013,1.69952901883e-05,0.0,5705404.67035,681.872831673,651.144792694,66682596.0816,1767.12638203,38054436.4732,68726522.4818,4587.92797128,4579.04943606,0.0
1.14114874779,0.83637608208,1.04124919621e-05,-8356995.9248,2.32763514275e-05,0.0,5519307.17763,683.820362157,653.234455077,66132307.1495,1811.54575027,44939659.3022,68214706.3243,4736.90845208,4726.84257153,0.0
1.12226544791,0.782257408868,1.03008261886e-05,-13543150.9016,2.1515550692e-05,0.0,5590764.43925,682.890876962,652.149083774,66316012.2125,1787.64445832,42133842.5146,67954630.8109,4658.52387427,4648.79543361,0.0
1.11854430549,0.870641160588,9.91270733714e-06,-15122382.4843,1.99103709367e-05,0.0,5602848.80225,682.873389762,651.888793009,66355587.5369,1781.69595931,41199730.7889,68941059.9505,4643.07741209,4633.00291881,0.0
1.24617774877,0.884925244445,1.00516961415e-05,18988909.9128,3.05596045501e-05,0.0,20700569.6479,690.719324466,659.978181895,64809602.6572,1936.15093508,63251829.3824,65573658.4264,5172.88383514,5160.77829619,0.0
1.1687399514,0.693516301254,1.04057867799e-05,1884617.17101,2.77455962664e-05,0.0,5378275.34904,685.817176478,655.140648636,65651527.9475,1844.54002638,50706443.2825,66919327.3452,4851.43953826,4840.63508679,0.0
1.03989312404,0.902952652058,9.96709309357e-06,-51851420.4519,1.47507840084e-05,0.0,5830846.49043,678.487566118,646.860177186,66988797.4303,1679.07836395,38304553.7938,70858108.3509,4316.59635789,4307.88903556,0.0
1.10810486738,1.03752161004,1.00590726995e-05,-17985616.3422,1.68544928101e-05,0.0,5652261.49176,682.113791151,651.290373113,66498002.563,1768.23189392,39598240.9504,68926420.0334,4599.74330449,4589.94536456,0.0
0.926441090907,0.894780909735,1.04686391384e-05,-92169387.0567,1.37934087776e-05,0.0,6056343.44835,688.047018682,639.592722775,67481082.7984,1597.60076836,67420619.2805,67626463.0728,3845.65696836,3838.58045559,0.0
1.20255249639,1.16586610097,9.79849195461e-06,9213262.69588,2.0548459785e-05,0.0,10646720.8183,687.905773254,657.277507564,65607157.1768,1885.57388676,55574060.5656,66982656.8517,4991.79541251,4980.57209963,0.0
1.17491351849,0.602526848304,9.93950780693e-06,2520558.04172,3.05481042672e-05,0.0,5388164.61747,686.538403265,655.534809577,65718530.0602,1853.57915913,51350488.0561,66975157.74,4877.06601525,4866.45636866,0.0
1.05958196942,1.15921032463,9.59259468943e-06,-43265806.4539,1.28987798098e-05,0.0,5814530.5332,679.588403565,648.088764214,66962667.6762,1704.96094521,35422236.7254,70187282.1313,4398.32475506,4389.29107594,0.0
1.16567043546,0.995112350258,1.02187183964e-05,704723.40897,2.12137750169e-05,0.0,5458505.44562,685.499902184,654.972183975,65922755.7102,1840.9990643,50265762.8799,67612383.3117,4838.69797759,4828.16982839,0.0
1.05452052353,1.06767599985,1.01242502706e-05,-42874802.4764,1.39435499453e-05,0.0,5806927.92477,678.953414086,647.770383095,66935384.5823,1698.77336398,35266523.0682,70381941.6741,4377.31469317,4368.54537475,0.0
1.19397162932,1.06839796533,1.023539183e-05,7336437.4289,2.19405642106e-05,0.0,8791477.83404,687.233866454,656.746388012,65543791.4829,1874.65434336,53946950.3292,66570992.3021,4956.17623331,4944.92228376,0.0
1.02136819389,1.04815908535,1.02578458231e-05,-68249728.5373,1.3224981889e-05,0.0,5868827.53353,677.560115673,645.682632409,67076180.4035,1654.45820703,48173559.8811,70738952.1876,4239.69937284,4231.37724837,0.0
0.971382095108,0.724901339298,9.90527816873e-06,-94308981.9174,1.60337153684e-05,0.0,6014382.12776,683.438929639,642.503807998,67430158.4676,1616.51221108,69303785.5893,69535341.0485,4032.20707679,4025.30813981,0.0
1.18335015313,0.822595938746,1.01374073054e-05,4708661.6189,2.59954006373e-05,0.0,6392364.48539,686.731145631,656.034993544,65681714.3438,1863.26032745,52482591.4089,66938650.4444,4912.08648564,4901.3287326,0.0
1.19263738071,1.07604516966,1.04436694806e-05,7332030.34141,2.20043324261e-05,0.0,8736270.95366,687.012393017,656.657999818,65535610.0672,1873.09104203,53853824.0531,66514587.5929,4950.63776733,4939.50249337,0.0
0.956127699263,1.01965551503,1.00422508416e-05,-93758646.3002,1.34460011954e-05,0.0,6075962.3694,685.016529013,641.526536298,67604287.3109,1612.16439185,68819340.233,69041837.2597,3968.88607964,3962.57219264,0.0
1.0481484202,0.860509106413,9.58784940474e-06,-48990971.6649,1.52464607999e-05,0.0,5820399.26993,679.186679521,647.390421959,66962802.4178,1689.76154269,37170290.613,70807462.3745,4350.86409225,4341.93294649,0.0
1.12234953993,0.83432595354,1.02604149787e-05,-13549241.7511,2.10559982285e-05,0.0,5593799.4986,682.900573431,652.156128254,66327204.2576,1787.62341077,42133001.7963,67859860.4173,4658.87294025,4649.12660771,0.0
1.23695172833,0.811434739114,1.02230271812e-05,17001169.7115,3.14564315565e-05,0.0,18545876.1699,690.140804173,659.434122245,64875005.0002,1925.71289644,61683188.1686,66801056.4027,5134.5866243,5122.6507253,0.0
1.02555083192,0.817845399435,1.00343055911e-05,-64573511.0858,1.50755445791e-05,0.0,5912125.60756,677.852750851,645.967679215,67225287.3405,1662.8361426,45656595.638,70813274.5029,4257.0615033,4249.79044062,0.0
1.19323434202,1.10313286577,9.99877954694e-06,6193968.21169,2.12250948259e-05,0.0,7709380.25345,687.360860939,656.68886801,65508480.2262,1873.15807593,53283963.4699,66682030.7604,4953.11575373,4941.42293481,0.0
1.24794035334,0.915074597998,9.99808128176e-06,19241415.2044,2.99272698143e-05,0.0,20897465.5266,690.863459796,660.08013888,64738754.3324,1937.61453932,63442866.8625,64807188.0394,5180.20040671,5167.83086226,0.0
1.03374387091,0.962591493038,9.82600782496e-06,-59909485.1803,1.41523653385e-05,0.0,5858309.87717,678.368756075,646.47465878,67061957.7186,1671.32726945,42649862.2233,71154380.9644,4291.07080815,4282.63613795,0.0
1.11781416836,0.835716199743,9.71150832294e-06,-15811103.9666,2.00597373009e-05,0.0,5611474.27757,682.979059367,651.846926592,66391852.0077,1780.77881477,40964529.9499,69341065.4653,4640.04661286,4629.98472355,0.0
1.13436825811,1.00938454979,9.79888429966e-06,-11173606.5312,1.93615867235e-05,0.0,5612118.50691,683.757040105,652.890742502,66410253.5315,1803.69446605,43706802.9271,67672065.4712,4708.76263941,4699.11491202,0.0
1.1283128847,0.926205396776,9.89112949218e-06,-12476536.8912,2.00107359884e-05,0.0,5597668.48398,683.465458674,652.552630341,66359911.4252,1795.10292828,42880573.6199,67295472.9175,4683.62678439,4673.78020277,0.0
1.17579774089,0.901379171795,9.99365521456e-06,2353877.08552,2.34257345377e-05,0.0,5393262.947,686.359570082,655.578445067,65731922.0141,1853.13760672,51139845.2308,66962909.7362,4880.73642243,4869.68439845,0.0
1.13053762961,0.955980994383,9.88477785584e-06,-11770393.6164,1.9677969938e-05,0.0,5594889.61301,683.598258918,652.704921836,66354317.0595,1797.98042627,43300030.7682,67408412.3553,4692.86170051,4682.97734107,0.0
1.10599269371,1.0286496949,9.65051709108e-06,-18485356.2695,1.58300285101e-05,0.0,5704990.66109,682.237293991,651.19219023,66649801.8128,1766.41336387,39576986.2779,68919496.6356,4590.97567159,4581.53943126,0.0
0.989660278663,0.800448543941,9.85353955827e-06,-95397513.3404,1.47969360189e-05,0.0,5982893.57532,679.734086732,643.680957493,67344411.6734,1614.02363677,70262163.27,70505767.7335,4108.07981673,4100.89286057,0.0
0.956155890319,0.687079926905,9.96183293756e-06,-93721995.9899,1.61163405469e-05,0.0,6063926.2216,685.389417836,641.528770958,67565349.2548,1613.33765662,68787106.6296,69009673.8855,3969.00310071,3962.68883448,0.0
1.10759655092,1.07539674792,1.00711654313e-05,-18186143.0797,1.63222287214e-05,0.0,5656610.66682,682.058936465,651.260304774,66511242.5627,1767.52315502,39573958.1246,68910306.816,4597.63328287,4587.84464634,0.0
1.03214039345,1.02829696934,9.84297242912e-06,-59623820.3944,1.3414655101e-05,0.0,5913152.90333,678.177141799,646.390368011,67236130.64,1671.48640053,42571291.0239,71070228.825,4284.41477321,4277.04932811,0.0
1.10951352499,0.962557729968,1.01488894381e-05,-17577114.5076,1.81458406378e-05,0.0,5664572.66271,682.12424345,651.378200567,66552041.627,1771.15782998,39941840.9488,69023759.5137,4605.59064223,4596.25719905,0.0
1.06274055057,0.807298855105,1.00571741435e-05,-36666470.0768,1.62887352304e-05,0.0,5769872.79249,679.516537875,648.301423415,66820055.8483,1709.37605437,34558844.1191,69981129.1953,4411.43602542,4402.31766132,0.0
1.24440303592,1.0981854849,9.86258227796e-06,18368102.4687,2.5052257404e-05,0.0,19905980.9699,690.548206486,659.862822488,64882320.5552,1932.99471781,62706509.4109,66826382.0099,5165.5170021,5153.09534336,0.0
1.02684529119,0.960832800272,1.0273490007e-05,-61859285.7786,1.39171254352e-05,0.0,5855106.00881,677.704260994,646.031548717,67042505.0005,1662.01271769,43819605.6392,70915533.4825,4262.43480373,4254.02443135,0.0
1.06610454229,0.867618834273,9.85404090314e-06,-36673086.1808,1.59732745069e-05,0.0,5807014.59818,679.794542678,648.536945103,66949436.0231,1715.55357328,34662150.9844,70202184.1452,4425.39995505,4416.94230622,0.0
1.13070980543,1.00459162189,9.44569900238e-06,-12761955.0284,1.87376943479e-05,0.0,5647416.80373,683.825699297,652.711357982,66526490.2751,1799.43478464,42673075.1489,68239177.7602,4693.57640234,4684.06983419,0.0
1.07924561295,0.932933308716,9.92665406298e-06,-29258410.0125,1.58266108928e-05,0.0,5734780.6039,680.601372715,649.44582112,66735475.0199,1730.74473759,35534198.8881,69232595.6433,4479.94853936,4470.55453932,0.0
1.1126758312,0.867796496374,1.00460577976e-05,-16676502.1348,1.95316712842e-05,0.0,5667650.30325,682.395218006,651.565512416,66558173.2249,1776.11511777,40472765.6433,69178563.8465,4618.71737531,4609.52921733,0.0
1.14013239784,1.17424058489,9.6399477746e-06,-10125855.7567,1.72899415071e-05,0.0,5618023.79069,684.22240388,653.340053842,66439985.9939,1811.2298437,44474543.8886,68046466.004,4732.68958343,4723.02872366,0.0
1.04679854499,0.924949231391,1.02530053474e-05,-46010164.0956,1.49906625583e-05,0.0,5808804.96412,678.536100113,647.289983017,66932416.6103,1688.41285393,36184727.175,70331961.1013,4345.26076025,4336.52820191,0.0
0.982443945858,0.793654339089,9.72885024804e-06,-94938565.6046,1.5411641703e-05,0.0,6003212.58416,681.859337263,643.217994959,67407077.5212,1618.08485887,69858045.673,70097272.0126,4078.12481926,4071.11862652,0.0
0.933683315348,0.752809092729,9.68492734864e-06,-92586704.717,1.58345170472e-05,0.0,6059662.97882,689.770847582,640.063412481,67493821.8078,1609.87125608,67787848.6754,67997083.4744,3875.71944201,3868.53041025,0.0
1.25807862818,1.0206038811,1.00534575742e-05,20998070.0485,2.90778628999e-05,0.0,22916864.5438,691.440708471,660.710671435,64561415.0354,1948.42693337,64836745.8553,65660879.4327,5222.28438558,5209.49201243,0.0
1.05702318818,0.783682612136,1.01378151824e-05,-41531191.0978,1.70306834638e-05,0.0,5781086.08507,679.176080029,647.915490897,66860205.3373,1702.30430995,34976270.8084,69496007.0498,4387.70325414,4378.89311233,0.0
1.17112833629,0.872768772557,1.00556094312e-05,1209281.16448,2.36156172319e-05,0.0,5397141.80365,686.075532705,655.297668107,65730509.5356,1847.17750533,50433127.9552,67401015.9548,4861.35372394,4850.28160208,0.0
1.12023762901,0.972289230896,1.02302064469e-05,-14511372.7241,1.88893761177e-05,0.0,5619384.20091,682.69493325,652.019346754,66408148.3235,1784.96067903,41541427.551,68468528.0959,4650.10639802,4640.49415357,0.0
1.03140049148,1.10196613523,9.47908433424e-06,-62943266.3517,1.26990450035e-05,0.0,5933174.41446,678.462695373,646.339130832,67293157.3888,1670.36534869,44616835.0932,71183318.9277,4281.34344013,4273.98861846,0.0
1.0489768393,0.955995605443,9.87557270436e-06,-46139297.6893,1.45206103025e-05,0.0,5820553.38239,679.018160899,647.512355355,66964432.2454,1691.27164468,36089096.9538,70499976.4763,4354.30285993,4345.59200849,0.0
1.136586418,0.824994740434,9.72815297113e-06,-10736110.3525,2.23049694322e-05,0.0,5594934.18204,684.134549138,653.114458559,66365519.6685,1807.01156415,43935365.1571,67736900.7744,4717.97022112,4708.36779501,0.0
1.07486822994,0.943060418615,1.04607663105e-05,-32031676.9539,1.6381397102e-05,0.0,5701436.26024,680.02912511,649.15437551,66628898.6659,1724.68458081,34801563.2172,68874777.1655,4461.77802248,4452.16195044,0.0
1.12662112624,1.15892882418,1.03359597829e-05,-12411268.2556,1.70200136872e-05,0.0,5606674.78462,682.859664466,652.363851585,66376205.3946,1792.72342892,42815835.8564,67259416.9855,4676.60429502,4666.7858973,0.0
1.10596267079,0.886837212423,1.00435626869e-05,-20669661.9376,1.89282933972e-05,0.0,5699174.24082,682.080613908,651.192706882,66660294.5513,1768.34064793,38140369.205,68699712.0021,4590.85104645,4581.961257,0.0
1.08702333973,0.890943789523,1.03547161989e-05,-26146514.1892,1.76326790941e-05,0.0,5744428.47195,680.717574938,649.955485654,66779213.0219,1743.8180751,36106620.7063,69127872.8348,4512.23388322,4503.73946406,0.0
1.06130627261,1.00705160666,9.8330964142e-06,-39879647.9031,1.43542453995e-05,0.0,5806640.45877,679.648481444,648.303547932,66940994.4316,1708.22997908,34847703.1251,69818804.3381,4405.4823376,4396.7503146,0.0
1.12458936837,1.02540760382,9.70132103692e-06,-13902382.2973,1.81554208782e-05,0.0,5652166.43169,683.259820771,652.302780463,66533268.4952,1791.19626926,42012000.2115,68715370.2249,4668.1704681,4658.68818589,0.0
1.07140030106,1.08764279357,9.9891169368e-06,-33009383.5945,1.39913041799e-05,0.0,5802833.45652,679.850771047,648.848114576,66938187.6681,1722.152686,34978594.5932,69773261.7715,4447.3826497,4438.84373789,0.0
1.01840100845,0.845212023967,9.82382494486e-06,-75433318.5295,1.47110013826e-05,0.0,5940045.96077,677.948275603,645.515845656,67287266.6725,1653.26016185,53570061.9371,70887372.9464,4227.38258608,4220.21334348,0.0
1.06217004376,0.885923332215,9.77531356621e-06,-38045093.4848,1.5304287899e-05,0.0,5788334.13194,679.663597963,648.267557683,66870587.2117,1708.50339614,34625946.5917,69945349.7414,4409.06785165,4399.95898669,0.0
1.16001628678,1.12246243308,1.00667018568e-05,-2711847.46834,1.86120387935e-05,0.0,5471065.76355,685.253032091,654.61496825,65951511.1926,1833.37012999,48204798.7542,67721528.2709,4815.22760642,4804.3792034,0.0
1.06966308118,1.05177586632,1.01349869436e-05,-33211602.743,1.4349967419e-05,0.0,5799166.0189,679.669693562,648.743142127,66925999.9111,1719.9008536,34937805.5722,69741845.0596,4440.17144998,4431.65833759,0.0
1.17387669645,0.900551946262,9.99572780404e-06,2163823.66987,2.32666209722e-05,0.0,5400699.3271,686.232783578,655.461903842,65751733.0893,1850.63253991,51065404.9154,66999457.8479,4872.76216696,4861.74607299,0.0
0.949344240058,1.22626285432,9.9896384493e-06,-93536853.8301,1.15833364088e-05,0.0,6105350.69523,685.924405195,641.090033557,67680041.4801,1610.38274843,68623941.2715,68843260.5228,3940.72794048,3934.50486868,0.0
1.1506424598,1.07867852763,1.01343109079e-05,-6714160.30592,2.03526961933e-05,0.0,5575638.95881,684.583115597,654.0214622,66326436.7885,1825.67801728,46125150.1234,68719233.7097,4776.31685063,4766.90737151,0.0
0.968310316047,0.974847823633,1.00210779039e-05,-94198166.7505,1.40321141401e-05,0.0,5997751.8519,683.250820734,642.297623777,67368061.5672,1611.57785002,69206318.0338,69436110.1134,4019.45612191,4012.04478951,0.0
1.05916408751,0.904291638094,9.91395097617e-06,-39676572.1067,1.52196815541e-05,0.0,5824038.70529,679.355138864,648.082703833,66989795.365,1706.33281898,34825361.8804,69786396.5685,4396.59012725,4388.24079191,0.0
1.08100611438,0.700017164137,9.32804582415e-06,-31009562.4544,1.87801416219e-05,0.0,5798713.24867,681.000173408,649.454809617,66944097.158,1736.2714101,35310928.1072,69864472.4136,4487.25638079,4478.85447193,0.0
1.14038995409,1.00284369187,9.81029032884e-06,-8908991.51722,1.99642773944e-05,0.0,5592940.09846,684.18264982,653.343592212,66366905.6509,1811.40013131,45327846.3411,68192272.6947,4733.75869943,4724.09669273,0.0
1.1871673541,0.765926090254,9.87194989827e-06,4834584.31114,2.72990475257e-05,0.0,6455774.29151,687.282833213,656.263358418,65461213.2163,1866.61309437,52532193.0517,66767807.8736,4927.93168687,4916.37083485,0.0
1.2096495385,0.958737338774,9.96514477196e-06,10676502.6386,2.51960653012e-05,0.0,12000278.3503,688.403519076,657.641218827,65242001.629,1892.70599553,56517028.7147,66801734.0631,5021.25523431,5009.24428212,0.0
1.15095306548,0.875989744602,9.61849194319e-06,-6118836.11051,2.26643574739e-05,0.0,5547457.01589,685.024231483,654.014012465,66233105.1137,1824.78665622,46906302.1288,68819907.029,4777.60617481,4767.67540818,0.0
1.15976172461,0.902695052068,1.01274816502e-05,-2315568.38866,2.23068530755e-05,0.0,5481967.99416,685.286015848,654.609747122,66012604.7274,1834.67875819,48555301.5665,67912478.7164,4814.17091886,4803.83267499,0.0
1.07418826734,1.0029723265,1.01602332787e-05,-32529031.1851,1.54047903954e-05,0.0,5800070.40091,679.888193626,649.000949108,66948311.6242,1727.20332166,34939240.8041,69597229.5962,4458.95549773,4450.7548804,0.0
0.947046119565,0.984050609015,1.00352768682e-05,-93390644.0091,1.3567617267e-05,0.0,6096586.28651,686.20068357,640.941685576,67649922.4127,1609.41089281,68495277.9349,68713236.9218,3931.18844231,3924.99620701,0.0
1.00689710841,0.883832132523,1.00508079625e-05,-88626147.0318,1.46850119422e-05,0.0,5881714.10852,677.962170204,644.763676782,67068651.854,1634.16504886,64377844.1541,70758613.4025,4179.62989701,4171.20920699,0.0
1.01040612259,0.941355482198,1.01715637829e-05,-81388568.5259,1.38252998243e-05,0.0,5926705.2727,677.489348946,644.992451524,67208109.4121,1641.15740543,58315788.3267,70854691.5514,4194.19581487,4186.70436726,0.0
1.01335641127,0.931536155865,1.0052322719e-05,-79470141.3924,1.39585383133e-05,0.0,5941772.04688,677.611467517,645.178276206,67267508.3548,1646.10747982,56765664.4619,71350944.5638,4206.44246318,4199.25655279,0.0
1.17683840512,0.976471798866,1.01524592053e-05,1780620.58798,2.39065057561e-05,0.0,5437852.56115,686.288751905,655.659143846,65878571.2927,1856.76215164,50817338.6638,66948707.7811,4885.05621965,4874.7668385,0.0
1.08268766183,0.95389195613,1.01085317887e-05,-28277564.2145,1.62937220953e-05,0.0,5765838.99463,680.649376991,649.710083989,66844358.3544,1737.75234223,35744052.0263,69272101.1836,4494.23648426,4485.71198935,0.0
1.09918917294,0.769594467668,1.00252188855e-05,-22903463.2808,1.99736568786e-05,0.0,5708477.5844,681.751883174,650.768601975,66677001.4181,1759.50204523,37155795.4507,68780461.5092,4562.73425687,4553.95074106,0.0
1.14980695439,1.06757759108,9.87111227675e-06,-7561954.15361,2.01669238462e-05,0.0,5590729.86933,684.66593378,653.935835129,66365436.3867,1824.76372327,45796228.8862,68678555.0883,4772.84866767,4763.45091495,0.0
0.980605843743,1.00708065571,9.96904058472e-06,-94980135.9099,1.35479347448e-05,0.0,6020951.73293,681.125869438,643.101945075,67461067.1695,1614.25403106,69894712.678,70133781.9289,4070.49485738,4063.77169686,0.0
1.0807669903,0.933176005528,9.96831678217e-06,-29402725.8409,1.62900436114e-05,0.0,5775572.59961,680.637511664,649.576202475,66868737.6141,1735.25985798,35627619.8867,69322014.7928,4486.26377674,4477.7691364,0.0
1.09741465377,0.970778945839,9.76628441994e-06,-23904693.2703,1.68507823547e-05,0.0,5737826.68701,681.687370829,650.613165006,66766905.7446,1756.81756954,36889248.9786,69198890.4359,4555.3682278,4546.51462319,0.0
1.13691803729,0.8217483667,1.02675669929e-05,-10365179.1753,2.35524955769e-05,0.0,5597067.14921,683.65875987,653.052267075,66376101.4948,1808.48569983,44045935.8167,67902561.9409,4719.34677279,4710.18139825,0.0
1.09092111197,0.837861566398,1.02876478855e-05,-24862064.444,1.84676395514e-05,0.0,5727064.01663,680.980298489,650.172884587,66726376.0978,1748.60352525,36448914.3908,68993883.3696,4528.41353579,4519.76057568,0.0
1.12060129476,1.15853513914,1.00475738144e-05,-14266677.9458,1.62945594765e-05,0.0,5640260.07811,682.731829217,652.0352562,66481198.3759,1784.90915167,41786334.7034,68608916.0927,4651.61597455,4641.89949886,0.0
1.13841657615,0.753944835318,9.9969028162e-06,-8875521.17731,2.41008200509e-05,0.0,5559192.52542,684.091103573,653.212497102,66256387.4893,1808.78545448,45206615.2319,68046790.602,4725.5672076,4715.83295472,0.0
1.07931394371,0.998915941438,1.02423059019e-05,-29002907.4869,1.56253724491e-05,0.0,5761246.55789,680.343348226,649.487368529,66816290.2401,1732.62266115,35484417.4309,69227581.369,4480.23218034,4471.56859,0.0
1.17661806078,0.740425602052,1.01999482263e-05,3080490.55897,2.72346409942e-05,0.0,5362890.49432,686.400143471,655.623646481,65630358.6692,1854.36500998,51598753.307,66840480.5406,4884.1415703,4873.181895,0.0
1.17877879499,1.07321767246,9.7269044297e-06,2617745.64628,2.03532753463e-05,0.0,5401511.50804,686.592130116,655.762372141,65764777.264,1856.17703,51460200.063,67042218.9376,4893.110778,4881.80407012,0.0
1.08417548156,1.00679140414,9.96731422308e-06,-28211376.8626,1.57131904522e-05,0.0,5771436.3808,680.815918576,649.806281266,66861575.2125,1739.66866729,35828642.7037,69330595.806,4500.41242396,4491.86477313,0.0
0.987072621207,0.909963443888,1.00631073685e-05,-95007671.0095,1.44393120111e-05,0.0,5934779.88458,680.112762758,643.499512129,67199012.9276,1612.14307058,69919186.0675,70159904.1025,4097.33845063,4089.3189437,0.0
1.0807434615,0.991414013739,9.85492013751e-06,-29805485.6454,1.55880971944e-05,0.0,5784201.86606,680.68500485,649.568173702,66905152.7999,1735.18523472,35561843.848,69370507.3206,4486.16610869,4477.67183381,0.0
0.955692396892,1.08994456334,1.00204630113e-05,-93760055.8885,1.27883526904e-05,0.0,6081836.63991,685.099038805,641.4986872,67621251.9058,1612.19247966,68820564.8558,69042902.6517,3967.0791395,3960.77110696,0.0
1.09550426264,0.868015335261,1.00276383357e-05,-24129451.7157,1.82633783937e-05,0.0,5727278.30718,681.443136015,650.493206933,66743469.0896,1754.59723656,36750925.9221,69030381.8273,4547.43819422,4538.71262718,0.0
1.09443620181,0.784928915147,1.00661194808e-05,-24348054.1943,1.93419903475e-05,0.0,5722118.20079,681.383849104,650.414189106,66727064.983,1753.26856695,36656229.8052,69003115.6111,4543.00467371,4534.29662887,0.0
1.18406761239,1.13397208849,9.95571689904e-06,4153791.30841,1.9993680159e-05,0.0,5854753.27048,686.723653235,656.066356137,65676664.1208,1862.3070189,52175766.6346,66996831.2718,4915.06465903,4903.66160824,0.0
1.18763613936,1.11731719173,1.03360136184e-05,6068720.4362,2.07982608884e-05,0.0,7555540.55909,686.742983574,656.327931203,65581752.1919,1866.55306402,53077719.518,66674074.7714,4929.87761448,4918.61683761,0.0
1.11168820633,1.07657377054,9.82471079565e-06,-17378617.1378,1.64215339698e-05,0.0,5699699.65861,682.405302923,651.52683333,66664169.197,1774.74663875,40130649.1555,69139166.1918,4614.61774448,4605.44544589,0.0
1.15228231807,1.02990443489,1.00845108075e-05,-6396931.28781,2.1246756559e-05,0.0,5567986.6333,684.741131904,654.122443171,66303417.6271,1827.83056791,46380561.5396,68673226.7941,4783.12390231,4773.68640193,0.0
0.954619604374,0.997384867594,1.02374673817e-05,-93565123.6359,1.35636883899e-05,0.0,6055097.83209,684.850280754,641.423366739,67536192.9069,1609.77659507,68648989.9038,68870361.2468,3962.62597776,3956.04664215,0.0
0.954470305958,0.776538494904,1.00748299679e-05,-93649359.1858,1.51775272811e-05,0.0,6069111.31798,685.225427645,641.419542474,67579000.5064,1611.48689622,68723113.0408,68944926.637,3962.00624003,3955.71463107,0.0
1.11834650299,0.849439457499,1.03392123348e-05,-14762886.9395,2.05237790544e-05,0.0,5610764.19785,682.569566536,651.895240346,66378936.4206,1782.70524141,41545629.8362,68557601.1916,4642.25633391,4632.67574168,0.0
1.05445803498,0.89877344023,1.01368461357e-05,-40375214.5292,1.52292240814e-05,0.0,5815924.50357,678.908419695,647.760784507,66951668.9858,1699.31034449,34865913.3598,69850832.3647,4377.0553032,4368.59811115,0.0
1.09377412124,1.09839678699,9.88878465589e-06,-25200236.1211,1.52207938435e-05,0.0,5754953.10939,681.307633098,650.357211427,66823936.9655,1752.13979492,36521479.1921,69254413.7226,4540.25637727,4531.55871876,0.0
1.18946403135,1.01132299598,9.82994813127e-06,5831366.88169,2.22330507394e-05,0.0,7441886.55122,687.169901863,656.431654816,65721935.4048,1870.2456318,53403834.5219,66996670.744,4937.46519413,4926.48754862,0.0
1.21843397139,0.705004525728,1.03373820436e-05,13185819.1107,3.28394821514e-05,0.0,14383554.4398,689.05085669,658.252323361,64931171.7916,1903.56164967,58442179.9538,66250383.5831,5057.71941524,5045.76582579,0.0
1.07794855907,1.14790085097,9.97279995522e-06,-29838857.6154,1.38662469439e-05,0.0,5796419.08951,680.363175942,649.378735942,66927315.6338,1731.23435069,35556543.5621,69406250.4565,4474.5644687,4466.1072117,0.0
1.02149568087,0.906288040702,1.00731387077e-05,-69146288.3723,1.43201838836e-05,0.0,5918435.02886,677.700060438,645.710141569,67231609.8309,1656.99189801,48848031.9136,70784217.6128,4240.22857129,4232.92601343,0.0
1.01351960327,1.03421741303,9.69268345878e-06,-82575439.3627,1.30585088599e-05,0.0,5966920.35456,678.016643657,645.209551103,67342638.0304,1646.54707126,59301328.4846,70982035.7821,4207.11987317,4200.01979414,0.0
1.21190952919,0.813291982417,9.68981759248e-06,10950430.7497,2.78931369092e-05,0.0,12284678.4906,688.784327204,657.796826112,65287330.4062,1896.82852828,56789553.4938,66733610.7666,5030.63645567,5018.93154306,0.0
1.03619263159,1.09724190065,1.05221137695e-05,-52097152.5519,1.31198785242e-05,0.0,5825893.89888,677.779229887,646.617288583,66976252.4238,1673.94073687,38307276.6837,70631754.8855,4301.23561373,4292.58778681,0.0
1.25530540024,0.931492731246,1.01635810902e-05,20642897.6493,3.09938287519e-05,0.0,22503988.4934,691.264913847,660.531281064,64566954.2624,1945.53233014,64577236.0257,65382371.9271,5210.7727164,5198.1487626,0.0
1.15928231428,1.00964189257,1.00231740608e-05,-2469580.12735,2.02872536347e-05,0.0,5463429.92081,685.296557324,654.570015512,65959877.0217,1832.5045789,48402864.6986,67741191.4568,4812.18088658,4801.34479404,0.0
1.12724537085,1.02802485755,1.03136459558e-05,-12330913.4568,1.87981205072e-05,0.0,5598708.42459,683.076925105,652.485931665,66357206.88,1793.98867197,42921926.3453,67254077.0505,4679.1955344,4669.46703396,0.0
1.02610725671,1.14012965274,1.01363772197e-05,-64530415.6084,1.2520222559e-05,0.0,5867467.11828,677.753237433,645.981327993,67078646.3462,1660.62828152,45594610.6491,70886650.4241,4259.3712226,4250.93012589,0.0
0.9926769615,0.83127735279,9.95733162156e-06,-95281955.9587,1.49484608853e-05,0.0,5918650.68013,679.424596809,643.858307477,67157342.9812,1615.27370338,70160632.2059,70408993.1131,4120.60206719,4112.41248721,0.0
1.07801704273,0.739565011004,9.67947777826e-06,-31518587.4356,1.8315656918e-05,0.0,5785813.63726,680.563130621,649.255896643,66902072.2527,1731.79614103,35215360.5891,69669023.2453,4474.84874437,4466.39677387,0.0
1.09960603245,1.25007173016,9.90183962602e-06,-23048801.622,1.39854556905e-05,0.0,5749751.83492,681.641085607,650.786454434,66815466.3615,1759.78472861,37195748.2983,69146511.6783,4564.4646407,4555.67520859,0.0
1.29723625634,1.00317981476,1.02477738864e-05,27884606.4614,3.38563736435e-05,0.0,29320025.4316,693.828095295,663.183098602,63943358.1678,1991.83264041,68732071.1074,69887140.5226,5384.82770007,5371.53180627,0.0
1.08219924903,0.81672735907,9.58557510004e-06,-30095351.7626,1.7527976777e-05,0.0,5783795.35327,680.846756179,649.534307298,66901350.531,1737.22698116,35575714.2935,69406594.0637,4492.20908272,4483.69218369,0.0
1.02528269392,0.948950883189,9.89402272907e-06,-66342195.4751,1.39719184614e-05,0.0,5924287.94121,677.940056896,645.943551301,67259068.5725,1662.39920727,46873240.1208,70960171.4901,4255.94846246,4248.68122935,0.0
1.21674709168,0.931717891848,1.01264951572e-05,12862248.8322,2.65025422867e-05,0.0,14094103.709,688.739061134,658.158214246,65294957.843,1902.5539311,58219536.5894,66479001.8889,5050.71717756,5039.35307797,0.0
1.06217654817,0.965839791344,9.62655372486e-06,-39428130.3205,1.46098506255e-05,0.0,5831468.60954,679.721870886,648.286477496,67013068.838,1710.23006278,34841710.7611,69970355.6566,4409.09485145,4400.69857351,0.0
1.0027474148,1.09845588602,1.03945252373e-05,-90670957.5806,1.28039009699e-05,0.0,5893444.1516,677.554589279,644.495631044,67105489.4429,1628.7449877,66128278.3115,70623542.7787,4162.40451883,4154.13304392,0.0
1.24885441417,0.91789615523,9.67876005464e-06,19164095.0927,2.91231552512e-05,0.0,20760092.8966,691.078346846,660.139294871,64774883.4367,1938.96134181,63362696.7184,65342492.9085,5183.99467322,5171.53945533,0.0
1.16549513273,0.988161087114,9.76929763393e-06,-760260.69139,2.0925452089e-05,0.0,5447742.1619,685.838201426,654.957508572,65894537.4108,1840.23184065,49630995.2,67813040.8261,4837.97029596,4826.99881389,0.0
1.19331103724,0.898368653254,9.98609513758e-06,6304213.7383,2.5022282749e-05,0.0,7824636.3669,687.532109122,656.693379036,65421880.4535,1873.60509378,53335871.2509,66533485.0116,4953.43411558,4941.73987545,0.0
0.963904740309,1.00978482689,1.0057273966e-05,-93981796.5856,1.37475593511e-05,0.0,6040451.01458,684.144352745,642.022265733,67505516.5621,1614.36244625,69015735.633,69242253.5309,4001.16857702,3994.45666047,0.0
1.08626372664,0.957640270709,9.96988040698e-06,-27405578.2979,1.64274358697e-05,0.0,5762354.81373,680.942442131,649.931346384,66836566.1965,1742.45190187,35927928.5795,69322900.8344,4509.08072928,4500.4997882,0.0
1.05137447298,0.729199302963,1.00512943134e-05,-44128139.4402,1.69488464755e-05,0.0,5796273.34481,678.977051029,647.585973813,66897549.8299,1694.67076826,35574751.423,70426477.8759,4364.25543734,4355.50554802,0.0
1.05399192518,0.639315252087,1.01085786782e-05,-41806582.3976,1.81963183368e-05,0.0,5780085.90994,679.064689171,647.728710113,66853317.2465,1698.06644695,35078237.7338,69795934.3184,4375.12048142,4366.32810553,0.0
1.19456903551,0.908202466899,9.90995458431e-06,6435877.85848,2.48065640525e-05,0.0,7948778.52839,687.643489063,656.773036493,65427465.7905,1875.20370285,53448394.1827,66593803.778,4958.6560664,4946.95179865,0.0
1.15962428684,0.908327867504,1.00092895494e-05,-2827016.90068,2.19519078979e-05,0.0,5451229.0824,685.405299969,654.593213537,65922379.6525,1833.23010851,48148970.6374,67685477.5125,4813.60041467,4802.75900053,0.0
1.02210013463,1.14499326737,1.0250919306e-05,-67644814.7263,1.24050926532e-05,0.0,5873078.95407,677.546136913,645.728756129,67090978.2738,1655.37596566,47740922.9406,70869571.4364,4242.73765885,4234.40380488,0.0
1.16154145142,0.785443174504,1.01766600565e-05,-3451626.52647,2.68511948442e-05,0.0,5503640.62279,685.457257552,654.739981648,66116898.9763,1839.67797014,47781281.3191,68128006.2146,4821.55856484,4811.97178525,0.0
1.11155847823,0.897123412536,1.04193778591e-05,-16325643.3169,1.92232395607e-05,0.0,5637482.95314,682.059674674,651.457945357,66452571.1527,1773.93238419,40438480.0464,69457965.776,4614.07924313,4604.61238705,0.0
1.15111372043,0.953553832817,1.02554113873e-05,-6299593.20154,2.26438519299e-05,0.0,5556356.58008,684.601924729,654.044582383,66269358.1002,1826.34001006,46338907.0796,68585189.5714,4778.2730535,4768.85600918,0.0
1.15490087967,1.05328622446,9.88438636754e-06,-5786166.81341,2.06817495025e-05,0.0,5565781.45807,685.016670813,654.287474049,66288435.4807,1830.96731308,46783409.6119,68693553.2947,4793.99355151,4784.41946149,0.0
1.24424100228,1.07087196483,9.27595899584e-06,17612169.8188,2.48716774354e-05,0.0,19128263.6551,690.830955688,659.832808766,64992422.2246,1934.13594486,62213093.1062,67119866.4563,5164.84440046,5152.41505152,0.0
1.08278762745,1.14471428614,9.48966860316e-06,-29699739.1156,1.3619277633e-05,0.0,5809782.02299,680.807200237,649.572241413,66975228.816,1737.75476008,35700794.2552,69524534.4696,4494.65144154,4486.07597945,0.0
1.11908799833,0.944591542569,1.02151580885e-05,-14819440.0895,1.91159366453e-05,0.0,5621658.93443,682.644595322,651.943759142,66413450.2281,1783.52924839,41303328.5283,68684672.5319,4645.33428107,4635.74127047,0.0
1.05239521291,0.907630737782,9.57609637385e-06,-44964515.8786,1.47692159439e-05,0.0,5828348.38669,679.320159422,647.65887071,66989064.0958,1695.93018828,35872384.8299,70680766.2283,4368.49252879,4359.72431277,0.0
1.03675012834,1.08004103177,1.04120731989e-05,-52410757.4681,1.32934879892e-05,0.0,5827678.01687,677.900128311,646.648565444,66980890.7211,1674.68332454,38489456.0132,70740411.7725,4303.54978274,4294.89284546,0.0
1.03044378949,0.853256706721,1.01504233359e-05,-59368990.251,1.49240539342e-05,0.0,5845947.0881,677.97563143,646.258944313,67018267.7713,1666.85492419,42292357.808,70997908.7888,4277.37217017,4268.90381687,0.0
1.08063960064,1.02095768074,9.87901031766e-06,-29747684.2346,1.52325748867e-05,0.0,5785602.70328,680.647209285,649.561914665,66909427.8964,1735.02435703,35582310.6865,69370466.1502,4485.73498226,4477.24232052,0.0
1.17367129068,1.15028300597,1.01334314722e-05,2000092.59684,1.92386868461e-05,0.0,5400736.60371,685.992975064,655.436344705,65736684.5724,1849.16160599,50893558.6495,67042543.8528,4871.90952761,4860.58528361,0.0
1.12713628958,0.775146055159,9.67852123103e-06,-13087666.8085,2.20456870405e-05,0.0,5621125.84308,683.577394497,652.470494859,66439712.9468,1794.66862282,42421010.4611,68259929.0563,4678.74273805,4669.19309682,0.0
1.17901847066,0.659589280849,1.02669035879e-05,3567876.60296,2.9983461363e-05,0.0,5554921.06469,686.655875435,655.745496572,65403451.1452,1856.55259154,51629434.4368,66719659.7876,4894.10567171,4882.68175686,0.0
1.16078925238,1.07541232414,1.03969972172e-05,-1864923.83246,2.10537637891e-05,0.0,5466013.47285,685.140407009,654.6641755,65946717.3474,1835.41237028,48632128.4154,67643084.9444,4818.43618663,4808.00797064,0.0
1.11531245209,0.888513683507,1.00619733333e-05,-15877466.0901,1.95519742942e-05,0.0,5660062.35351,682.501228032,651.701660444,66540135.0497,1779.49927749,40830208.3475,69376598.0432,4629.66198863,4620.43115305,0.0
1.05660123196,0.661840717335,9.90035586064e-06,-41850652.521,1.78597965004e-05,0.0,5795481.40868,679.357865233,647.899666794,66899169.0585,1702.24690684,35123261.3968,70079959.5306,4385.95171387,4377.29553603,0.0
1.07682790709,1.20129030473,1.02197004775e-05,-31238757.3838,1.35295512862e-05,0.0,5798574.53108,680.120682837,649.314200011,66948663.3809,1730.49978011,35118070.1685,69280982.0383,4469.91264233,4461.67195478,0.0
1.25074296281,0.907210135008,9.68931197171e-06,19468327.1891,2.96589493063e-05,0.0,21135483.0258,691.21920943,660.249562473,64710213.6479,1940.93521245,63568568.7908,64986851.7749,5191.83403862,5179.23155224,0.0
1.19661825082,1.02678770266,1.00503714047e-05,7322453.85284,2.28742256433e-05,0.0,8810237.39382,687.592582307,656.904207656,65406385.5651,1877.14456672,53993937.402,66523566.9383,4967.16235915,4955.40839286,0.0
1.16309077452,0.858632947229,1.00734193037e-05,-475699.809547,2.32328460316e-05,0.0,5427357.61961,685.578421651,654.801100224,65817856.2402,1837.12803943,49593053.5414,67652697.1636,4827.98980503,4817.08871056,0.0
1.16502656459,0.844153197967,9.60397721867e-06,-801015.244848,2.31494114211e-05,0.0,5433059.1603,686.01020699,654.927872604,65856333.9754,1839.57941113,49747095.7491,67907969.0078,4836.02526961,4824.9608283,0.0
1.05901120368,1.049999056,9.49400837501e-06,-40637767.9685,1.33924719787e-05,0.0,5843902.08259,679.588622053,648.058257519,67044273.6544,1705.46533268,34977105.5124,70313620.5724,4395.95550648,4387.4242142,0.0
1.02559451635,0.702264962925,9.94857421396e-06,-65348255.964,1.60926801337e-05,0.0,5909685.27141,677.977210017,645.972424635,67215562.3998,1662.95208937,46182126.0633,70935839.1616,4257.24283737,4249.9711507,0.0
1.09623877476,0.742196702914,9.59504180034e-06,-24731148.4016,1.9630360669e-05,0.0,5730242.44862,681.823703919,650.513040204,66752437.7612,1755.50390284,36672393.5757,69236267.3743,4550.48715403,4541.65220316,0.0
1.16078562015,0.926283601874,1.01155768025e-05,-1047109.40152,2.18007191348e-05,0.0,5442675.62578,685.366267823,654.657544581,65862120.0129,1834.14545284,49279894.0645,67774132.631,4818.42110924,4807.5484747,0.0
1.02007775157,0.99394323325,9.65290950032e-06,-75062370.1505,1.35256100782e-05,0.0,5949657.14938,678.088395114,645.626515068,67319772.7626,1655.36371356,53290786.5793,71031065.4434,4234.34274677,4227.14968076,0.0
0.921730377787,0.917711118866,9.92168706962e-06,-92124209.4298,1.4100979494e-05,0.0,6105544.60056,690.286306517,639.296874869,67619739.9032,1603.20095645,67380623.5533,67619739.9032,3826.10279819,3819.38440479,0.0
1.16929646536,1.09463992359,9.62250987415e-06,-1157985.34241,2.06841854473e-05,0.0,5521862.93776,686.082903687,655.225426296,66172391.6451,1848.40208962,49496249.1224,68040677.8494,4853.74962771,4843.80470189,0.0
1.07667667562,0.92029619804,9.96901677629e-06,-31098907.7249,1.6155260277e-05,0.0,5789645.05322,680.201770544,649.167229824,66917380.164,1729.89649441,35264984.1084,69488938.728,4469.2848805,4460.85367594,0.0
1.13726421223,0.904144485067,1.0128214371e-05,-9993274.12943,2.14145480729e-05,0.0,5546154.3127,683.926192939,653.14427249,66195555.8651,1806.40551149,44285274.3935,67866837.6636,4720.78374497,4710.6825199,0.0
1.16445713051,1.04943550318,9.56529796086e-06,-2347920.04882,2.07627179047e-05,0.0,5508682.43139,685.884192204,654.918506342,66115712.8552,1841.18245846,48870077.874,68092623.6075,4833.66154875,4823.36768134,0.0
1.04421124002,1.03148751366,9.87633234173e-06,-50854004.0388,1.38493153826e-05,0.0,5821642.95734,678.695151839,647.124794064,66964121.6145,1684.11406058,37956250.741,70946936.0759,4334.52085732,4325.56830907,0.0
1.04104012679,0.677156714321,1.00064502492e-05,-52229502.5225,1.71223359731e-05,0.0,5817898.56499,678.602971459,646.933884678,66950137.5542,1681.23509561,38500029.8177,70808894.4002,4321.35756631,4312.80690138,0.0
1.09503056101,1.2544986494,1.01830344077e-05,-23977636.8185,1.38688274426e-05,0.0,5748422.46773,681.153454356,650.469648712,66795387.6639,1753.65457477,36844665.7904,69026387.6255,4545.47185875,4536.75356009,0.0
0.971148551048,0.958155169341,9.96264708995e-06,-94322055.3196,1.42502730059e-05,0.0,5992297.73431,683.034363575,642.480496175,67354603.2272,1612.88566219,69315394.7643,69546923.633,4031.2376354,4023.78307976,0.0
1.1301386954,0.987923507182,9.75890454747e-06,-13386764.2131,1.95945741481e-05,0.0,5565574.44821,683.720610461,652.660664498,66272579.6502,1796.46112444,42258416.7878,67683542.7232,4691.20572461,4680.79402928,0.0
1.01371817897,0.967210589138,1.0018784495e-05,-79341399.7338,1.36984608971e-05,0.0,5943692.93008,677.646584883,645.203332352,67274445.972,1646.56847742,56658376.8104,71294001.6031,4207.9441609,4200.75308283,0.0
1.0857518699,1.05627049045,1.00697992796e-05,-27343109.7237,1.52671361542e-05,0.0,5766441.89015,680.797349603,649.895875286,66849940.5591,1741.68237782,35928590.6807,69306776.3197,4506.95601195,4498.38379867,0.0
1.18073515869,1.22162839232,1.05001389559e-05,4298209.39247,1.91988010821e-05,0.0,5868932.92914,686.162049382,655.856563173,65580544.0709,1857.31325249,51970150.0969,66835704.4123,4901.23164372,4889.77780483,0.0
1.14269584794,1.04492350213,1.03843495062e-05,-7377369.82735,2.04238126893e-05,0.0,5581306.39106,683.857893809,653.442914459,66311949.4001,1814.9347952,45877704.9452,68461435.127,4743.3304648,4733.96987958,0.0
1.02352250309,0.869167108345,9.76873391415e-06,-69743453.9821,1.46217892406e-05,0.0,5930235.94802,678.060420056,645.844181569,67271084.8053,1660.06347717,49287205.6948,70926265.4096,4248.64191033,4241.39979509,0.0
0.993806146328,0.826337882583,9.81765487062e-06,-95552882.5627,1.49420108805e-05,0.0,5976415.20008,679.427333602,643.948221294,67334759.9583,1619.01427096,70399074.6789,70636027.073,4125.28931341,4118.12607059,0.0
1.14964798379,0.999011101161,1.00419708103e-05,-7236663.89638,2.15096219326e-05,0.0,5576239.61954,684.60386659,653.939364223,66324842.5451,1824.54960405,45922497.9614,68683935.8046,4772.18878071,4762.79525792,0.0
1.07696512728,1.03871538025,1.00611382479e-05,-29812555.554,1.46153742142e-05,0.0,5753292.61324,680.315186301,649.298214029,66780832.6456,1728.21173186,35479469.4429,69284951.1466,4470.48224334,4461.29326881,0.0
1.08692626132,1.0134124766,1.0186793774e-05,-26579194.776,1.59710011483e-05,0.0,5755160.53294,680.785615607,649.959896435,66818081.4512,1743.24317194,36098516.6064,69211391.3862,4511.83091074,4503.24019703,0.0
1.23347611471,0.835866374691,1.01593218887e-05,16187666.1643,3.04308617531e-05,0.0,17804794.3027,689.734472794,659.118243876,65037621.7805,1922.2802256,61078535.1999,66720140.8714,5120.15935216,5108.48770966,0.0
1.03073204118,0.627041617152,1.00920742173e-05,-59445338.2764,1.71511256322e-05,0.0,5832289.61764,678.138843569,646.278410467,66978968.756,1667.41044199,42335355.9393,70973611.9037,4278.56870294,4270.0956982,0.0
1.2029311548,1.25676110327,1.00843909185e-05,9447617.51592,1.95516506694e-05,0.0,10880411.4254,687.706850157,657.272520414,65519653.2854,1885.08683307,55710948.0313,66975936.7807,4993.36722357,4981.94483639,0.0
0.99520781626,1.0292137603,9.74427957591e-06,-95725681.4296,1.31582151779e-05,0.0,6004389.70805,679.23430166,644.042731374,67432926.4994,1621.732944,70551106.4639,70787358.7586,4131.1076453,4124.26719196,0.0
1.11865958284,0.91199213324,1.00224275858e-05,-14932954.0672,1.94839230069e-05,0.0,5600799.12127,682.791712449,651.896506405,66352172.7972,1781.77691205,41322108.1586,68709552.5433,4643.55592837,4633.47943485,0.0
1.06320261502,1.19113844901,9.82549301168e-06,-38195755.4946,1.25547944929e-05,0.0,5834916.90883,679.536896555,648.350234269,67029109.75,1711.49650874,34729794.8601,70110583.6229,4413.35405495,4404.94176341,0.0
0.972977363667,0.846085339497,1.00004474456e-05,-94368966.6094,1.51032133531e-05,0.0,5980659.64214,682.718803897,642.597858201,67323025.6495,1613.00790769,69356723.3954,69588828.7421,4038.82903658,4031.34657503,0.0
1.10566413757,1.12651355201,1.00134722105e-05,-20892860.3596,1.58034076124e-05,0.0,5719932.2034,681.974144318,651.176920367,66723084.5577,1767.750238,38064775.2176,68757261.9704,4589.61183505,4580.72676917,0.0
1.12388044745,0.987353118653,1.0146208484e-05,-13203351.2498,1.90308150493e-05,0.0,5605976.27165,682.978337488,652.257149327,66383933.4741,1789.2760691,42430203.0211,67695246.0989,4665.22773736,4655.45602169,0.0
1.08385630087,0.673205977021,1.03524317384e-05,-27168878.5013,2.04190584498e-05,0.0,5737820.28348,680.652895739,649.773314611,66754657.739,1739.84961729,35870691.6572,69122214.3822,4499.08750491,4490.64199061,0.0
1.09401158539,0.965865356509,9.9919290664e-06,-24762975.0938,1.69678539659e-05,0.0,5740248.56152,681.315403773,650.376921949,66779639.7246,1752.55918869,36577706.9308,69130502.6566,4541.24209095,4532.54064622,0.0
1.09583460838,0.801204749989,9.82622859593e-06,-24368858.9797,1.89645370586e-05,0.0,5732436.9792,681.61805412,650.499773192,66754252.0713,1755.25364643,36734574.9999,69162279.1199,4548.80945939,4540.07871672,0.0
1.1745370525,1.07182531369,9.71793851552e-06,1734519.25113,1.99768277735e-05,0.0,5434114.70782,686.325932216,655.517350517,65867998.406,1851.4383642,51039899.1658,67116934.0295,4875.50330493,4864.47539697,0.0
1.1095182211,0.936359581773,1.01520959472e-05,-17564050.6168,1.84639284671e-05,0.0,5662372.04283,682.134042954,651.378335558,66545022.1177,1771.1877942,39943075.2699,69018821.5482,4605.61013579,4596.27661551,0.0
1.19265214639,1.00340754914,1.01484582138e-05,6333923.40585,2.31302222089e-05,0.0,7799157.7615,687.309902009,656.650964169,65434139.3664,1872.47483867,53249165.7428,66498819.2152,4950.69905966,4939.03692198,0.0
1.1392682398,1.02001347467,9.95826699778e-06,-8825664.82706,1.98017915997e-05,0.0,5583749.84783,684.012038445,653.262031703,66333220.9764,1809.57362803,45273680.3289,68171768.9027,4729.10246341,4719.35403302,0.0
1.02022149781,0.93692923293,1.00821667657e-05,-70652630.5515,1.40440097247e-05,0.0,5922722.9748,677.656651266,645.626608085,67241413.6666,1655.2802239,49941259.3542,70797961.3444,4234.93943741,4227.65519313,0.0
1.15467321194,1.11459776808,9.95031869329e-06,-5567374.16746,1.95080422743e-05,0.0,5532494.74817,684.968460189,654.259063947,66189588.5254,1828.88472935,46740061.4494,68545216.3035,4793.04850276,4782.93315791,0.0
1.1179254351,1.08082814507,9.91283261672e-06,-15401835.688,1.70359346525e-05,0.0,5624163.78285,682.722629128,651.851082062,66419684.8726,1780.66466431,41134020.0317,69150059.7646,4640.5084811,4630.44382714,0.0
1.15274610167,0.847165572409,9.85463377056e-06,-7389065.4694,2.42137778586e-05,0.0,5451503.85967,685.188956175,654.114758078,65933809.9974,1825.11200049,45603655.4598,68398736.2087,4785.04906803,4774.13286916,0.0
1.02408404265,1.00058885291,1.04179965699e-05,-66553665.3566,1.36949517594e-05,0.0,5832959.03665,677.489437565,645.842842763,66976500.9575,1656.89320953,46956668.2068,70453600.6944,4250.97286104,4242.18542699,0.0
1.24158776066,0.959865495055,1.0529659806e-05,18512787.9264,2.95209157504e-05,0.0,20239767.0754,690.105309484,659.690727613,64856592.3535,1930.21891769,62920074.0452,65857701.5189,5153.8307945,5141.9257604,0.0
1.12035901904,0.89950622982,1.0431677175e-05,-13999557.45,2.01207274936e-05,0.0,5603861.75461,682.615564794,652.027052094,66364189.5057,1785.17705177,41790765.0837,68056824.1128,4650.61028803,4640.99614229,0.0
1.15533531021,1.18349397539,9.66217205371e-06,-5159138.99852,1.84943195934e-05,0.0,5585088.41703,685.096335657,654.318391157,66361159.565,1831.15550454,47445791.8435,68856276.8841,4795.79687268,4786.19180654,0.0
0.984993593028,0.890672835394,9.75779289218e-06,-95053299.9285,1.46694678461e-05,0.0,5999938.91001,681.37481538,643.381587638,67402728.1921,1618.26698169,69959076.6985,70199230.3025,4088.70840466,4081.66559403,0.0
1.19692521334,0.836682895053,9.95372008827e-06,7610838.96687,2.63991183947e-05,0.0,9058420.17081,687.764558337,656.93803463,65472733.5506,1878.9021993,54292149.9195,66566366.7541,4968.43656057,4957.12274511,0.0
1.17350865875,0.907489926223,1.00453204628e-05,1846321.20991,2.32855673275e-05,0.0,5391132.45185,686.196870079,655.435179107,65717797.1044,1850.00284161,50784817.4449,66952701.8853,4871.23444247,4860.11890456,0.0
1.05070796449,0.818410491124,1.00071671773e-05,-44704222.1129,1.59734420157e-05,0.0,5805611.57393,678.946796543,647.549339067,66924218.226,1693.7053304,35745138.4586,70463256.2952,4361.4887606,4352.74973032,0.0
1.13065620835,1.02692899607,1.01557744032e-05,-11672392.3881,1.90370322962e-05,0.0,5586714.40155,683.416841668,652.715914594,66317934.0579,1798.08392687,43249009.6441,67452986.2985,4693.35392086,4683.46725433,0.0
1.2016236357,1.08848108459,1.01286753528e-05,9059223.53793,2.22741088626e-05,0.0,10414051.9633,687.758888708,657.185377178,65359372.2175,1882.72650314,55265571.0246,66754644.8888,4987.93971179,4976.10537592,0.0
1.08091826537,1.05780805126,1.00838058718e-05,-29020481.5047,1.49298997493e-05,0.0,5778968.8891,680.520297696,649.593433253,66881103.5519,1735.35636977,35646859.3108,69312020.4094,4486.89171955,4478.39472938,0.0
1.08126040037,0.987836645207,1.0139931392e-05,-28692195.1181,1.58440694107e-05,0.0,5770656.68361,680.535434712,649.620401303,66857193.8575,1735.852817,35660562.0491,69270244.2375,4488.31192194,4479.80961622,0.0
1.08059065456,0.986919890272,1.07134407807e-05,-27074849.7915,1.61741763111e-05,0.0,5747636.43283,680.06703136,649.558288608,66780042.967,1734.89836326,35755241.0244,69055935.2782,4485.53180708,4477.03839574,0.0
1.02762321728,0.799552673762,9.72632997046e-06,-65076077.5931,1.53558214696e-05,0.0,5917969.04443,678.224611165,646.106001726,67242575.1501,1665.56270307,46015585.2701,70962860.8727,4265.66397493,4258.36328527,0.0
1.04943190881,0.981041509975,1.02738126023e-05,-45405094.9327,1.4519839021e-05,0.0,5804876.35801,678.650898069,647.465715728,66927163.6906,1692.01448136,35879106.8531,70376866.6593,4356.19185347,4347.41628604,0.0
1.13833167347,1.00370203287,1.01871161789e-05,-9606456.59116,2.00917448283e-05,0.0,5548777.99212,683.876245311,653.193887523,66206555.3339,1807.60998234,44490552.9158,67992393.4012,4725.21477657,4715.09522819,0.0
1.03288239544,0.875078190439,1.0247236253e-05,-56569618.4705,1.48101299617e-05,0.0,5838329.63738,677.965122421,646.410426855,67001910.192,1670.08027006,40672842.7813,70853229.1467,4287.49482347,4278.98708648,0.0
1.10166981685,0.762236740737,1.02604767649e-05,-21554700.5529,2.05427753213e-05,0.0,5689713.04229,681.747995712,650.92730735,66629486.6082,1762.71272978,37659942.2896,68505325.1503,4573.03140974,4564.20955854,0.0
1.11402671111,1.24042654016,9.41446996279e-06,-17526925.7672,1.43760519926e-05,0.0,5693012.57275,682.789311005,651.67472028,66641879.7824,1776.59607598,40047784.9081,69278398.2944,4624.32487782,4614.62011208,0.0
1.10615834306,0.900460037712,1.02109146171e-05,-18371651.1453,1.86391660665e-05,0.0,5667525.78292,681.925398457,651.177957345,66557371.4413,1766.88155069,39544476.9358,68827269.4,4591.66328204,4582.38422212,0.0
1.07530725579,0.920685871413,1.02400645715e-05,-31736798.7465,1.64606535746e-05,0.0,5784755.40855,680.117930529,649.210427411,66904075.6999,1728.70711544,35009208.388,69399795.8249,4463.60041878,4455.38282488,0.0
1.1298446626,1.04967805204,9.69110216371e-06,-12416118.5511,1.82835422291e-05,0.0,5632571.44501,683.610286936,652.661992821,66479589.7724,1797.8423859,42829022.5883,67860454.3386,4689.98519445,4680.39078154,0.0
1.08323880722,1.00690017698,9.47037467487e-06,-29624690.1094,1.51542963267e-05,0.0,5796866.50815,680.903367447,649.601051055,66935306.4661,1738.21600805,35688462.6722,69499744.0603,4496.52428877,4487.89449504,0.0
1.11557419514,1.11149491006,1.00089670419e-05,-15987364.397,1.65839410883e-05,0.0,5679362.0245,682.448402069,651.721968413,66598745.5238,1779.64240981,40827722.6577,69428751.6834,4630.74848403,4621.51340738,0.0
1.0009970005,1.20729613625,9.91249186046e-06,-95750260.1022,1.17429301389e-05,0.0,5921657.01705,678.4737863,644.388086317,67180422.1084,1626.03387791,70573015.9561,70809390.1018,4155.13854908,4146.81394461,0.0
1.05588081796,1.08789490962,1.01176918625e-05,-39607114.8142,1.33634530436e-05,0.0,5842268.13576,678.893200661,647.87307327,67036221.2687,1701.7721374,34878418.6982,69792622.5921,4382.96127535,4374.85935816,0.0
1.03617375839,0.783850954928,1.00559930975e-05,-55976722.6654,1.58385095213e-05,0.0,5834390.09177,678.316827421,646.62940315,66995038.2353,1674.71192047,40360463.1467,70978620.0922,4301.15727108,4292.68358473,0.0
1.14917315124,0.927459765291,1.00680007704e-05,-7260249.98875,2.26790964954e-05,0.0,5570322.02387,684.591140161,653.905663057,66307213.3631,1824.00971595,45872569.4314,68635440.7485,4770.2177508,4760.83184279,0.0
1.14972374429,1.0635019503,1.04354234429e-05,-4604813.98813,1.9241462821e-05,0.0,5482465.07943,684.43955362,653.97174708,65982350.1675,1820.40999841,47001015.916,68241628.2555,4772.50326255,4761.82681809,0.0
1.12302666935,1.17945781759,9.62477770262e-06,-14533080.3359,1.58559808467e-05,0.0,5649545.86918,683.163720315,652.191529736,66514432.3181,1788.08973616,41737046.3609,68928517.8845,4661.68370447,4651.82647151,0.0
1.09954753755,1.05470638377,1.03219324848e-05,-20214113.3004,1.63218801586e-05,0.0,5655560.46666,681.458287244,650.767723757,66505141.7701,1756.52449215,38521305.9129,68460646.8638,4564.22182837,4554.38075875,0.0
0.989800682865,0.885767548641,1.00551892771e-05,-95149681.4973,1.44567558331e-05,0.0,5924231.28169,679.556766308,643.673467768,67173134.6766,1611.95546727,70044186.1832,70289754.4564,4108.66263457,4100.51972485,0.0
1.22611347248,0.726040906892,9.795064766e-06,14307305.3089,3.18024669312e-05,0.0,15726023.8213,689.767975143,658.759454128,65048749.2081,1913.78247617,59474691.5639,66523462.0452,5089.59702426,5077.79553298,0.0
0.945992818868,1.04796868302,1.00498451871e-05,-93358213.6975,1.29454553463e-05,0.0,6101982.54394,686.256675878,640.873827338,67664683.3004,1608.83450462,68466720.0204,68684233.6066,3926.81619112,3920.63799873,0.0
1.15280878179,0.948322229766,1.01124174836e-05,-4213206.78302,2.09343378719e-05,0.0,5518771.84725,684.648164199,654.042954346,66120128.6255,1825.94064349,47645875.3827,68078669.2574,4785.30925321,4775.08994883,0.0
1.03134123782,1.00008114636,1.00121541885e-05,-60475275.3998,1.37683334597e-05,0.0,5859004.48632,678.101499966,646.32345128,67061921.6677,1668.14901321,42989342.7209,70957667.6886,4281.09747819,4272.70131469,0.0
1.1381719851,0.97074489127,1.03427584748e-05,-9879541.39832,2.13482082671e-05,0.0,5598450.99716,683.706826904,653.193736544,66385452.7828,1809.91398366,44310650.1684,68013523.8618,4724.55191015,4715.36663676,0.0
1.152181782,0.913471605285,1.02599751108e-05,-4969479.03551,2.16392572668e-05,0.0,5477561.08265,684.610837032,653.993774172,65993621.6314,1824.34991198,47009786.6573,68217374.7579,4782.70657708,4772.06445799,0.0
1.18169706816,0.89237370942,9.97937358636e-06,4132322.21748,2.41787102074e-05,0.0,6011116.69827,686.674039452,655.940325634,65763136.8675,1861.26377816,52234943.5573,67035557.4072,4905.22452993,4894.49101856,0.0
1.11269383824,0.928711478339,9.72404534845e-06,-19333649.523,1.86758308664e-05,0.0,5689936.66648,682.653297146,651.600355548,66647460.6386,1776.65681612,38961321.0762,69000614.3356,4618.79212253,4609.69304565,0.0
0.937026391039,1.09952376085,9.91549564112e-06,-93039847.9066,1.23641560296e-05,0.0,6131158.57045,687.776858701,640.296736678,67734480.0829,1607.29353145,68186396.204,68399509.6248,3889.5965492,3883.53719222,0.0
1.13221779538,1.0412818219,9.85581475812e-06,-11587597.7252,1.87709008128e-05,0.0,5615957.03606,683.668777392,652.822309662,66418346.9809,1800.84169188,43458471.4508,67552685.9646,4699.83606862,4690.20235682,0.0
1.11059414081,0.903483075719,9.80656464072e-06,-19544237.8943,1.87571714687e-05,0.0,5693566.01772,682.486723294,651.472385275,66655195.0043,1774.06083903,38826196.967,68913672.9388,4610.0762785,4601.01175229,0.0
1.24152644247,0.893662303923,1.03174921449e-05,18330969.7525,3.0363468699e-05,0.0,19949301.7413,690.275985974,659.688153936,64838934.5712,1930.35743992,62725004.9698,66486826.9499,5153.57626269,5141.55604288,0.0
1.12347607774,1.19044516051,9.98416031249e-06,-13715068.9478,1.60875661734e-05,0.0,5633151.06286,682.952250177,652.231631193,66462832.2678,1788.59404187,42210220.8339,68210102.1059,4663.5491987,4653.7843017,0.0
1.12617085367,1.03901092533,9.72880707499e-06,-13491624.8763,1.78354472929e-05,0.0,5597923.87825,683.393110097,652.388196467,66357719.4294,1791.21198949,42177531.6496,68046794.4376,4674.73521358,4664.44696994,0.0
1.05138502227,1.0499692719,9.96157899206e-06,-44610882.883,1.37132887149e-05,0.0,5820579.53922,678.921025318,647.592048039,66970646.1253,1694.42510174,35733333.6322,70543571.1706,4364.29922744,4355.5491662,0.0
1.03319273996,1.08698078632,1.00680790476e-05,-58546914.3055,1.29762335994e-05,0.0,5858836.24722,678.062844245,646.430145828,67066387.517,1670.55664073,41822300.0083,71072754.0655,4288.78306357,4280.3572326,0.0
1.24527661896,1.17837440398,1.00790045299e-05,18713522.6663,2.4319298157e-05,0.0,20321686.4547,690.41941695,659.924757703,64953299.2056,1934.59922878,63104338.8491,66099636.0012,5169.1432453,5157.05432633,0.0
1.15646301793,0.567563780914,1.00738779848e-05,-5034357.03926,3.17686369079e-05,0.0,5497397.31836,685.386768689,654.429416747,66089901.8377,1833.76548517,47040485.9124,68331811.3408,4800.47798743,4790.97320183,0.0
1.14157931025,1.12847034045,1.0100009818e-05,-9033130.35228,1.83446296532e-05,0.0,5563146.25413,683.912611424,653.291050407,66258146.5982,1811.89008382,44883270.7314,68247170.9355,4738.69571685,4728.59838914,0.0
1.00268962673,1.18109271691,9.75801386241e-06,-95418725.7984,1.17452052369e-05,0.0,5997520.49948,678.266374718,644.518101567,67420234.0506,1631.88401425,70283370.6994,70992290.076,4162.16464056,4155.21698447,0.0
1.08981971553,0.698894170023,9.89200012944e-06,-26388459.9824,2.01202284807e-05,0.0,5736558.35642,681.298458575,650.139699425,66761484.7528,1747.33638656,36172811.4882,69260253.2211,4523.84163916,4515.20528194,0.0
1.11565390993,1.25255844248,1.00869897368e-05,-15816074.3327,1.50542875328e-05,0.0,5685086.5871,682.343337025,651.723984864,66618241.045,1779.6126885,40883233.0666,69458594.0942,4631.07938012,4621.84301169,0.0
1.11887263719,1.19377705246,1.01179910152e-05,-14608428.2174,1.58149113521e-05,0.0,5645266.68024,682.559790429,651.921085346,66494507.6513,1782.62640302,41552784.884,68830613.3664,4644.44031698,4634.75199745,0.0
1.02948410824,1.15626385659,1.025821612e-05,-60933986.471,1.2457265547e-05,0.0,5857145.96204,677.750147758,646.199817685,67053655.7803,1665.22486565,43251181.2607,70847658.2692,4273.3885333,4264.93597549,0.0
0.989013244813,0.975903586843,1.00779783644e-05,-95322997.1313,1.36384517624e-05,0.0,5984446.17577,679.368897646,643.638234626,67356534.843,1613.21136002,70196509.9618,70438683.666,4105.39397922,4098.30015714,0.0
1.0406373426,0.852443908408,9.66775706623e-06,-53854235.0056,1.53898969993e-05,0.0,5826413.33656,678.782876137,646.892751516,66971899.8264,1679.45193502,39348631.3061,71088738.8489,4319.68560913,4310.79266198,0.0
1.06518835066,1.06960322127,1.01904901468e-05,-35781910.5427,1.39009163392e-05,0.0,5809142.53455,679.413093854,648.478778394,66949477.5746,1714.21397055,34648416.2674,70050123.2814,4421.59684359,4413.15352567,0.0
0.98990383891,0.970445321187,9.82636070967e-06,-95440917.1959,1.35544574118e-05,0.0,5990925.28009,679.712950884,643.696982715,67368785.2518,1614.24877067,70300365.0151,70544138.3296,4109.09083532,4101.90033278,0.0
1.08118805399,0.963475642684,1.00493311682e-05,-28991395.466,1.60449899018e-05,0.0,5773217.68719,680.603273119,649.611707689,66863064.9598,1735.79802312,35649729.0346,69296783.7694,4488.01161211,4479.50969005,0.0
1.08092007896,0.919782323006,1.00872202922e-05,-28969038.7413,1.65314043959e-05,0.0,5769365.38083,680.576555724,649.594008924,66852002.2744,1735.46752059,35639689.6274,69278347.4629,4486.89924776,4478.40222942,0.0
1.20634783884,1.06781079728,9.87740331327e-06,9877250.29627,2.27086072778e-05,0.0,11242899.7644,688.175382983,657.451928651,65335680.7308,1888.63256438,55951518.133,66976295.2623,5007.54987902,4995.600835,0.0
1.03240142821,0.990788912895,1.01233224253e-05,-57938610.3453,1.38080057401e-05,0.0,5850644.89422,678.012700416,646.377221962,67036905.8838,1669.36340876,41455878.8419,70953560.4866,4285.4983285,4276.99836501,0.0
0.962264316782,0.908285205583,9.52358886202e-06,-94124805.1265,1.45748423008e-05,0.0,6045636.49513,685.375379329,641.916185816,67493498.5367,1615.30486906,69141573.0728,69367865.5924,3994.35917896,3987.32542102,0.0
1.23398960738,0.790581800218,9.75351802988e-06,16272792.5071,3.06645227886e-05,0.0,17715211.4162,690.186432737,659.266886216,65016964.1021,1922.75661814,61112733.3133,66761760.2108,5122.29086023,5110.45378754,0.0
1.081354599,0.898788468472,1.01819459105e-05,-28500239.2392,1.68724111307e-05,0.0,5762780.40882,680.54533845,649.626737567,66833691.1985,1736.04219331,35681317.6496,69236671.8439,4488.70294045,4480.19917099,0.0
1.1942628703,1.12731793439,1.02004080297e-05,7264858.86616,2.09348117711e-05,0.0,8683038.86204,687.239073801,656.769994279,65566698.0364,1874.96935315,53972572.8535,66594907.0539,4957.38517462,4946.12599625,0.0
1.09423044055,0.604254436395,9.60215604498e-06,-25343822.4959,2.18921453771e-05,0.0,5723002.51777,681.790221683,650.391728724,66727164.0516,1753.02741334,36476511.019,69249491.6638,4542.15055872,4533.34743033,0.0
1.04622267934,0.926421604951,9.55796263753e-06,-50109157.3806,1.46741141807e-05,0.0,5833168.36203,679.084196032,647.254350249,67001942.521,1687.40471398,37597292.9003,71165481.0965,4342.87034194,4334.05907473,0.0
1.05651913065,0.854917862485,9.84225990677e-06,-43556813.1379,1.59591091472e-05,0.0,5788895.87949,679.49580036,647.979162846,66882371.8113,1701.21148315,35411578.2582,70215908.1089,4385.61091133,4376.62810157,0.0
1.1118516579,0.786998522264,1.03139326789e-05,-16478820.0761,2.07551628635e-05,0.0,5630686.88999,682.235285739,651.491025113,66431725.9541,1774.45649852,40390080.9687,69114017.0259,4615.29623194,4605.82514658,0.0
1.13490998404,1.00521839788,1.03808319556e-05,-10685717.1449,2.05516483091e-05,0.0,5610588.66453,683.484762233,653.011387341,66416455.4638,1805.69722872,43858679.9829,67849609.8311,4711.01134375,4701.87779825,0.0
1.14859530619,0.903727663405,9.78011463481e-06,-7520182.33678,2.22431606618e-05,0.0,5541817.61444,684.771558469,653.826398028,66208105.0751,1821.6472864,45732095.7664,68588575.0602,4767.81911599,4757.80671814,0.0
1.04069608073,1.09490030115,9.52754811387e-06,-54532468.8507,1.30623331926e-05,0.0,5847439.59475,678.803313525,646.897086122,67037075.4223,1679.31449036,39737792.0072,71392667.1908,4319.92943111,4311.03550567,0.0
1.10357603141,0.921082040552,9.91389887059e-06,-21680677.9132,1.81680629621e-05,0.0,5715081.86373,682.021837117,651.055626118,66702055.7049,1765.22380234,37678376.6829,68590450.0901,4580.94410638,4572.09205117,0.0
1.0816252302,0.969691046266,1.0045634798e-05,-28847827.3853,1.6006059099e-05,0.0,5772467.02302,680.628920585,649.641399321,66861737.5534,1736.35624297,35687836.0652,69300599.7719,4489.82633056,4481.31835521,0.0
1.04249983795,0.862444217921,1.00610748392e-05,-50523803.828,1.53401074042e-05,0.0,5824426.23523,678.514273168,646.999922961,66973383.7115,1683.04515019,37718508.7657,70904791.9502,4327.41682733,4318.84260462,0.0
1.12493820332,0.898437804563,9.60877612902e-06,-14137429.4134,1.99593706075e-05,0.0,5648227.14948,683.402214646,652.328505989,66523350.5736,1791.94204519,41861006.4964,68810983.2877,4669.61848198,4660.2065689,0.0
1.1593896371,1.05144524381,1.03499628224e-05,-2331621.06827,1.99878614482e-05,0.0,5456770.04498,685.079757263,654.573506912,65918073.4018,1832.75347311,48195535.3419,67689511.5065,4812.6263836,4801.87910381,0.0
1.11320562571,0.871471971869,9.7764136545e-06,-18819697.3322,1.93947680484e-05,0.0,5684083.86699,682.661898752,651.62679397,66630021.6198,1777.47860353,39218402.5732,69018662.4646,4620.91655232,4611.80914861,0.0
1.16105363471,0.952723174405,9.78560701337e-06,-1237574.91396,2.11533609188e-05,0.0,5491634.26616,685.528726991,654.695518965,66028042.2569,1835.60035657,49486143.1418,68154339.9978,4819.53363768,4809.05942047,0.0
1.0617673145,1.07359131285,1.0096222711e-05,-37752621.7401,1.36549656825e-05,0.0,5821444.58496,679.293797402,648.255904978,66989578.8198,1709.71584601,34674381.3675,70019272.8687,4407.39612249,4399.00622788,0.0
1.16332661166,0.765386693307,1.01415648867e-05,-523318.564641,2.52016186276e-05,0.0,5409784.9042,685.63551921,654.814638214,65765378.7805,1837.65833686,49522784.0199,67555014.6357,4828.968765,4818.06190382,0.0
1.02288347729,0.970225188768,1.03067720027e-05,-68992680.424,1.39541110354e-05,0.0,5837712.74685,677.581209592,645.767553575,66987911.9828,1655.30033839,48690930.0107,70659145.5849,4245.98931423,4237.22192558,0.0
1.04970329648,1.02874360855,9.92039007727e-06,-45738067.6382,1.38482891582e-05,0.0,5824802.8414,678.877461686,647.483843816,66979422.719,1692.19445917,36196768.7451,70572438.6232,4357.31838369,4348.59571162,0.0
0.992414390021,1.00926986295,1.03609783108e-05,-95186009.8594,1.35482109874e-05,0.0,5914909.91985,678.557504605,643.839060153,67155050.2159,1614.99083841,70076188.3256,70322730.2105,4119.51213298,4111.40691248,0.0
0.944508599215,1.07421586578,9.60702983508e-06,-93364105.0855,1.30035650452e-05,0.0,6107237.32949,687.812263324,640.77559582,67661739.448,1612.73710174,68471899.9725,68687581.654,3920.65519534,3914.18459674,0.0
1.16400872034,1.04710329469,9.54703585403e-06,-2499054.29412,2.0746381879e-05,0.0,5510929.43137,685.870362734,654.891338096,66122352.4146,1840.63486487,48785583.9667,68128545.7196,4831.80019813,4821.5139983,0.0
0.981273980617,0.845553114674,1.02322283442e-05,-94723467.0163,1.46947011192e-05,0.0,5939812.2079,680.528783372,643.126209508,67206919.5373,1609.43786125,69668823.0305,69907233.0826,4073.26829354,4065.34099869,0.0
1.17960309701,0.759674128812,1.03957131007e-05,3899241.42003,2.73487739546e-05,0.0,5817054.80918,686.444754508,655.789990906,65552383.8788,1857.95057872,51804003.7784,66809691.8565,4896.53245569,4885.51813654,0.0
1.09096736627,0.910862737195,1.03329902159e-05,-24899785.263,1.77058461593e-05,0.0,5735456.59035,680.921542159,650.177445285,66758210.5308,1748.96024035,36447252.9191,69042579.6704,4528.60553739,4520.05005307,0.0
1.01571193088,1.03731857994,1.01883557019e-05,-77897487.8479,1.33611688065e-05,0.0,5864680.57117,677.595670118,645.321474015,67044520.3748,1645.86641053,55489792.3272,70715617.0931,4216.22022508,4207.65469629,0.0
0.991515725417,1.07225172065,1.03288568581e-05,-95168545.7343,1.29473131837e-05,0.0,5922721.70955,678.719696107,643.781528716,67176699.3899,1613.74837027,70060811.8513,70300942.5999,4115.78177621,4107.69116835,0.0
1.17510789341,1.14634212284,9.93073449665e-06,2292932.20764,1.91985082996e-05,0.0,5459672.559,686.145422775,655.548581806,65938096.7234,1852.97025733,51291864.0733,67210070.5551,4877.87286554,4867.25837743,0.0
1.18478991059,1.06208215239,1.01772898765e-05,5196551.26432,2.14168791516e-05,0.0,6801739.84418,686.679268589,656.114806852,65584534.0231,1862.75558671,52693803.9176,66841198.4508,4918.06291886,4906.63771243,0.0
1.11591726957,1.15011929653,9.82411321047e-06,-17982513.6114,1.60894498731e-05,0.0,5694320.29799,682.648002605,651.781114062,66652059.6481,1780.72931442,39778266.147,69231368.2226,4632.17258599,4623.02260151,0.0
1.08261258677,0.985246816328,1.04607204976e-05,-27348931.6945,1.6293379947e-05,0.0,5757890.45476,680.373968734,649.694275509,66816206.8485,1737.95264153,35826567.7037,69154473.4433,4493.92484768,4485.49850682,0.0
1.09373326901,1.14292612734,1.00246827993e-05,-24806307.6846,1.47908684155e-05,0.0,5752254.65783,681.19671917,650.356799927,66817420.4046,1752.04259571,36581013.3706,69153048.3072,4540.08679966,4531.38978186,0.0
1.08845250601,0.824126382613,1.00304697113e-05,-26489938.2825,1.82480648665e-05,0.0,5744199.96281,681.068495905,650.056865587,66785354.7486,1745.41347426,36115109.7011,69245456.1696,4518.16635245,4509.55199219,0.0
1.12562560609,1.03485911399,1.01278093919e-05,-13252573.7192,1.89773677196e-05,0.0,5655247.73867,683.028900496,652.394742269,66552560.0028,1793.69547205,42434096.8061,68198602.9085,4672.47189088,4663.4866646,0.0
1.09161032596,0.931578032039,9.87025264787e-06,-25927587.7498,1.70597789963e-05,0.0,5749963.10143,681.293699773,650.237375739,66804361.4902,1749.45911146,36298702.2056,69301126.7721,4531.27446306,4522.61071359,0.0
1.06845212675,0.979714661638,1.00219931651e-05,-34163066.3667,1.50404640204e-05,0.0,5801930.10423,679.738515603,648.68805058,66930060.0834,1718.36323692,34781891.8787,69935951.4243,4435.14477814,4426.65065692,0.0
1.19266089208,0.83370579352,9.88143861905e-06,6013676.82429,2.62396129354e-05,0.0,7577091.15669,687.585776316,656.630792458,65423076.6592,1873.05508063,53218332.3969,66663177.2252,4950.73536302,4939.05316839,0.0
1.1272383798,1.02180759635,1.00189421496e-05,-12577642.514,1.86823279147e-05,0.0,5606499.61519,683.163320527,652.404467934,66388176.7976,1793.58651487,42852139.8728,67268275.0534,4679.16651455,4669.33810269,0.0
1.21750943375,0.952732437406,9.54381843083e-06,11875462.8611,2.53613515747e-05,0.0,13228745.5732,689.170374903,658.173675022,65213904.6376,1902.46055043,57585946.1971,66319375.5576,5053.8816595,5041.73924155,0.0
1.01497594515,0.830203807419,1.02272054158e-05,-78270743.3404,1.52029824604e-05,0.0,5852069.7905,677.63253125,645.275778642,67002023.448,1645.03826944,55786961.0672,70529131.2043,4213.16514832,4204.61189312,0.0
0.973185675228,0.870886641441,1.01641244666e-05,-94584228.7062,1.47141279495e-05,0.0,6025516.58838,681.856749802,642.624553645,67472178.2455,1611.99120185,69546250.9125,69779608.5118,4039.69373787,4033.15437995,0.0
1.08893553076,1.10357029869,1.034305033e-05,-25598197.7195,1.52440580775e-05,0.0,5754068.32531,680.726441711,650.05784962,66810773.9253,1746.14997031,36290132.4044,69156188.5676,4520.17138818,4511.64738511,0.0
1.1777558607,0.913416885009,9.87951780888e-06,2632398.59624,2.32198959039e-05,0.0,5393119.69305,686.540852516,655.701934199,65731421.9586,1855.62185318,51354062.7696,66946893.8427,4888.86457777,4877.77746361,0.0
1.15002036709,0.885512606978,9.76884259626e-06,-7148969.89807,2.26755403078e-05,0.0,5535460.71091,684.898957326,653.939391619,66189602.2849,1823.47398843,45947136.065,68656401.8598,4773.73454379,4763.69804593,0.0
1.02482488387,0.909360915259,9.82398610457e-06,-67597854.2688,1.42961139559e-05,0.0,5926462.97575,678.022393282,645.928133709,67264205.1349,1661.78782516,47745823.7405,71036866.6038,4254.04809294,4246.78739634,0.0
1.02850756745,0.943592109862,1.01173016096e-05,-61497095.3984,1.41116861647e-05,0.0,5856434.06037,677.914157305,646.139859538,67048642.3481,1664.22212862,43603083.4324,70968108.4588,4269.33491249,4260.89777666,0.0
1.22566929539,0.884345351857,9.82985362789e-06,14134494.8491,2.76298342172e-05,0.0,15526747.4026,689.550477688,658.728491346,65141789.6526,1912.79303658,59382748.9094,66605844.3694,5087.75324516,5075.95980872,0.0
1.18163722767,0.902886137379,9.98554187348e-06,4107806.89377,2.39769750398e-05,0.0,6009416.69784,686.657026103,655.936218868,65766525.0597,1861.16950844,52234213.0056,67039013.9807,4904.97613206,4894.24366294,0.0
1.18233809025,0.924558023909,1.02826108118e-05,4324628.4655,2.38813813277e-05,0.0,6056956.2369,686.538331084,655.966942565,65646840.0419,1861.37007162,52158962.0883,66893789.9972,4907.88541263,4896.92904361,0.0
1.15924244727,0.942263570783,1.03898817033e-05,-3366463.59541,2.31524578693e-05,0.0,5457930.66264,685.162932032,654.571629937,65921593.6247,1834.12305443,47656220.5603,67598625.379,4812.01539862,4801.6125798,0.0
1.19260794063,0.819838851589,9.83151196235e-06,5925457.25209,2.64668620399e-05,0.0,7480080.10069,687.619334397,656.625064214,65428380.9261,1873.11070365,53193084.7173,66600669.4378,4950.51556156,4938.84760734,0.0
1.26244792817,1.34911661166,9.89271441238e-06,21635102.0459,2.30181395688e-05,0.0,23522485.0617,691.549794794,661.009303917,64740524.1663,1953.70720986,65361823.0763,66169381.2808,5240.42134983,5227.77915515,0.0
1.06494936688,1.03211431661,9.86492244923e-06,-37193158.0492,1.41281199677e-05,0.0,5820174.62298,679.656795494,648.462841886,66987832.6169,1713.92363764,34678518.553,70175889.4997,4420.60482192,4412.16598596,0.0
1.11416898927,1.15539767876,1.00926524495e-05,-16181612.539,1.59021767877e-05,0.0,5664099.99357,682.298972385,651.626589943,66550334.0059,1776.84006245,40645503.2922,69392030.3427,4624.91547446,4615.40555806,0.0
1.13530414694,0.853807993267,1.01248507321e-05,-10744439.3343,2.24932004624e-05,0.0,5604114.48985,683.759115599,653.035448033,66385461.7689,1806.15175326,43826544.9954,67792211.7049,4712.64751395,4703.40249806,0.0
1.14929513082,1.04594737682,9.84024886259e-06,-7369206.66313,1.99259069597e-05,0.0,5537322.76385,684.723852054,653.885744188,66184811.2961,1821.84459616,45868925.6445,68669028.7877,4770.72408803,4760.49284946,0.0
1.15085634095,1.2705374836,9.95786914336e-06,-6165173.57163,1.75173411233e-05,0.0,5598051.57332,684.595517704,654.034165104,66393498.8264,1825.57957506,46796563.1077,68862988.6029,4777.20467128,4767.7929909,0.0
0.991247247953,0.927913748287,9.84045811255e-06,-95264936.3484,1.42580310053e-05,0.0,5929886.9473,679.886015832,643.768227736,67192509.4842,1613.95114906,70145579.5207,70390667.6337,4114.66732625,4106.50085909,0.0
1.10897657288,1.23606815974,9.59579257612e-06,-19442412.2871,1.44869128883e-05,0.0,5661280.27017,682.430249245,651.355815915,66530676.516,1768.422388,39208651.1529,68873894.1077,4603.36175402,4593.16651068,0.0
1.06834177287,1.16525251555,9.68516924741e-06,-34653426.0179,1.27355791182e-05,0.0,5820955.62446,679.897859482,648.678821152,66983523.8958,1717.48193344,34838182.4375,70243025.2678,4434.68669918,4426.00889278,0.0
1.0850687037,0.715472136268,1.01342807339e-05,-27287978.3336,1.95890260914e-05,0.0,5741619.05512,680.861183229,649.852416708,66772886.711,1741.06703541,35884294.8841,69208807.0639,4504.12018906,4495.55862406,0.0
1.08026373369,0.861061779329,1.00245008853e-05,-29390974.6376,1.71400178453e-05,0.0,5769881.61933,680.598073782,649.543743228,66851347.1226,1734.65454168,35580215.6074,69291605.3766,4484.17475855,4475.68793363,0.0
1.03205459778,1.11402182685,9.66046526287e-06,-60664336.3497,1.26177525151e-05,0.0,5925271.4747,678.319216928,646.391273508,67270756.3881,1671.27909434,43122142.4172,71153221.3118,4284.05863538,4276.69442246,0.0
0.918488637442,0.872804064881,9.69763218843e-06,-92143526.1441,1.45882134375e-05,0.0,6168396.36563,691.257581333,639.102725583,67822395.4177,1606.796311,67397595.5973,67822395.4177,3812.64633402,3806.8616395,0.0
1.15489985622,0.98184696188,9.86910844963e-06,-5812356.7762,2.19135597712e-05,0.0,5559362.73647,685.067322911,654.28746862,66269073.7596,1831.05160808,46764780.0735,68677089.9246,4793.98930317,4784.41522976,0.0
1.13744214054,1.21417704253,1.02555571483e-05,-10341741.1417,1.7598119835e-05,0.0,5624892.73413,683.625190132,653.166408074,66463220.481,1808.78178075,44111416.2592,68017679.9573,4721.52232538,4712.34863601,0.0
1.16092423946,1.04757510745,1.01433130512e-05,-1433121.19341,1.99199789299e-05,0.0,5461371.43886,685.279823488,654.669577989,65928342.241,1834.67620058,49031497.493,67767455.1981,4818.996518,4808.2228895,0.0
1.07991150394,1.09171282599,9.76170964418e-06,-30490925.3511,1.4284832086e-05,0.0,5801182.91664,680.469547507,649.381819896,66955049.8307,1734.01166817,35448935.4635,69420099.0242,4482.71265285,4474.23129621,0.0
1.13593209929,0.9499704517,1.01958832162e-05,-10782252.9499,2.12977688998e-05,0.0,5611786.63595,683.70142705,653.078582248,66418004.6914,1807.12537931,43855970.0811,67861698.0254,4715.25414415,4706.10440306,0.0
1.20400963867,1.09223470647,9.82259385734e-06,9383692.21738,2.19132395979e-05,0.0,10778806.6877,688.030966088,657.364555571,65561490.9265,1887.54266028,55677933.8385,66966603.548,4997.84401012,4986.59221736,0.0
1.11315970062,0.95940959837,1.01666931148e-05,-16290979.4006,1.83245236701e-05,0.0,5647538.5571,682.290427507,651.567358731,66501327.605,1775.63382098,40538889.0665,69294584.8942,4620.72591727,4611.23191334,0.0
1.12377150106,0.829769328188,9.98239460217e-06,-13499364.3868,2.10105572076e-05,0.0,5600908.382,683.157514767,652.249716625,66362438.6814,1789.34841268,42295065.146,68020358.9078,4664.7755009,4655.00562252,0.0
1.07257776315,1.12020836923,9.7559730227e-06,-33646424.7712,1.35728451914e-05,0.0,5821869.37061,680.082568537,648.939813569,67003546.4631,1724.37159482,34862654.4688,70039348.6008,4452.27029484,4443.9024633,0.0
1.10484791261,0.955004175215,1.01939297106e-05,-20870436.3642,1.82099028609e-05,0.0,5698467.02158,681.87576862,651.117778625,66660733.1623,1766.67260974,37982637.4153,68699527.9915,4586.22368524,4577.35164263,0.0
1.03449515287,1.13885727879,1.0137990966e-05,-55962704.1862,1.24591484566e-05,0.0,5854979.91022,678.02627388,646.517657604,67054928.1939,1672.03746892,40348492.7256,70934634.8887,4294.18937956,4285.65555583,0.0
1.06462061517,0.618294507098,1.01059128867e-05,-35515438.849,1.90039789666e-05,0.0,5784120.21024,679.617118976,648.441781342,66869481.0497,1713.60752985,34627231.612,70040207.3951,4419.24017357,4410.80602693,0.0
1.09803141569,1.08114560754,1.04784972678e-05,-20726640.3417,1.59314146748e-05,0.0,5656344.87887,681.259700768,650.672302156,66492564.1068,1754.77717685,38284313.7831,68321725.3359,4557.92840653,4548.11327049,0.0
1.1155641295,0.918434501793,1.05438657618e-05,-15003959.4729,1.94775672582e-05,0.0,5616772.21379,682.22125911,651.712163403,66398589.9228,1779.00856774,41154767.0457,68713839.1702,4630.70670155,4621.1733357,0.0
1.21459673184,1.21344539182,9.97895248408e-06,11699221.7897,2.08124313391e-05,0.0,12959384.8002,688.533158516,657.987474074,65296850.2233,1898.31275785,57333411.783,66374014.8945,5041.79103387,5029.81854307,0.0
0.990893199067,0.924953142541,9.95934572238e-06,-95224240.7593,1.42187978866e-05,0.0,5927248.34178,679.623879509,643.742051525,67182649.8982,1613.1741546,70109828.3186,70357417.478,4113.19766933,4105.03692166,0.0
1.17164937765,1.0807703973,1.02458217716e-05,1505093.09434,2.04199313893e-05,0.0,5393607.2516,685.855163562,655.310879435,65715561.5442,1846.78835993,50540157.4755,66981382.8132,4863.51656663,4852.22763481,0.0
1.18632005135,1.0443246089,9.87218601742e-06,5320543.76724,2.1395256354e-05,0.0,6935360.27129,686.91838415,656.225053318,65737276.2597,1865.98957909,53043246.4648,67051217.8524,4924.41453315,4913.39966547,0.0
1.13492056874,0.963831267982,9.6735024585e-06,-11280550.4905,1.99375825283e-05,0.0,5615649.34926,683.994624813,653.006537056,66424788.8875,1804.75325422,43627658.8357,67664050.6453,4711.05528084,4701.48029039,0.0
1.08667102909,1.02864698443,9.69716694857e-06,-27789187.6461,1.52768110773e-05,0.0,5775357.93922,681.133538818,649.964305071,66878401.6902,1742.71087103,35935486.8537,69430576.0137,4510.77144175,4502.08767398,0.0
1.10756146367,1.0325146101,1.01924878028e-05,-18076942.1415,1.70618240966e-05,0.0,5674889.80894,681.951239519,651.26156894,66581398.5023,1768.55785454,39718731.6322,68937695.4907,4597.48763569,4588.18621539,0.0
1.01366038928,1.01526276906,1.00568532832e-05,-79059021.7653,1.32780977673e-05,0.0,5944761.69246,677.588495203,645.202572342,67277400.5948,1646.48162365,56433479.536,70720231.048,4207.7042759,4200.51402343,0.0
1.12759499404,1.18578334405,9.57492627832e-06,-13709039.7103,1.64562753918e-05,0.0,5683781.29528,683.447407255,652.512305707,66639387.5512,1796.13049235,42204584.7616,68789101.6924,4680.64682026,4671.49972044,0.0
0.995269641153,0.909333984275,9.50466647009e-06,-95522235.2157,1.43826336547e-05,0.0,5930488.5053,680.037019274,644.025916038,67190837.0583,1618.39427257,70372137.0562,70614024.031,4131.36428043,4123.05268278,0.0
1.12013444209,0.872230497647,9.80729686998e-06,-16714878.286,2.01123607743e-05,0.0,5660209.4589,683.003179856,652.013302761,66554266.6678,1786.43582906,40422352.7277,69277589.4156,4649.67806912,4640.46015138,0.0
0.998712042369,1.10058985666,1.0109064679e-05,-95573423.1957,1.25864306483e-05,0.0,5913374.60843,678.313272596,644.241378348,67154382.4251,1623.1135473,70417320.3469,70724074.6942,4145.65368787,4137.36625425,0.0
1.10339656037,0.827464662338,9.68977605525e-06,-20799472.2723,1.90004686041e-05,0.0,5640943.21923,682.267792524,651.020595436,66458727.1332,1761.59204461,38260525.0338,68462753.1611,4580.1991221,4570.10210885,0.0
1.10184526373,0.80635906825,1.02644951655e-05,-19357106.2515,1.94619132801e-05,0.0,5642779.94359,681.749465125,650.913164365,66462330.8771,1760.37563517,38875324.2213,68535823.5966,4573.75968974,4564.06911882,0.0
1.05588366119,1.03697002865,1.00221091268e-05,-40853357.6132,1.37298176444e-05,0.0,5835852.76273,679.035455257,647.858828972,67021635.4098,1701.88849134,34985113.6846,70157707.9507,4382.9730776,4374.67473782,0.0
1.03743692989,1.136177732,9.87970204006e-06,-56391645.377,1.26421644716e-05,0.0,5859038.44931,678.388558495,646.711529184,67070757.0412,1676.10842559,40608008.4937,71114225.1357,4306.40069597,4297.90806949,0.0
1.15592803786,1.01993638057,1.02327302415e-05,-3338262.21435,2.00941209023e-05,0.0,5465774.74049,684.969835045,654.359004131,65933794.4908,1828.29037367,47755475.4489,67672573.7794,4798.25728516,4787.46884444,0.0
1.09896460909,0.903368509566,1.02829553294e-05,-21970699.5001,1.81478774575e-05,0.0,5705374.66133,681.502214125,650.753633465,66665620.5075,1758.82631548,37480117.8373,68414561.2443,4561.80209233,4552.92387532,0.0
1.01850968451,1.01596510392,1.01716060716e-05,-71596897.4012,1.34935372067e-05,0.0,5876138.4684,677.642408924,645.503552471,67088698.728,1650.63481174,50620846.8356,70886669.7991,4227.8337004,4219.55731989,0.0
1.0192034943,1.03305483709,9.80722142292e-06,-74608501.9846,1.31245238632e-05,0.0,5947624.49503,677.902601648,645.570677665,67313866.0977,1654.20774707,52935016.9118,70974291.1246,4230.71370484,4223.53289681,0.0
1.22963772165,1.06301295429,1.03941679799e-05,15498828.3086,2.56228115107e-05,0.0,17031148.071,689.336514006,658.988129857,65127504.1123,1917.13284439,60503296.1007,66728416.6371,5104.22618257,5092.65230692,0.0
1.05650608912,0.836356160687,1.03757590952e-05,-39391543.3761,1.60175972987e-05,0.0,5812169.75518,678.886498068,647.913132695,66949995.9942,1703.16108603,34748006.2494,69620631.6106,4385.55677594,4377.34262812,0.0
1.24680462491,0.846531297779,9.95349304883e-06,18788734.5765,3.1299354519e-05,0.0,20444777.4117,690.911645749,660.004412603,64662361.405,1936.18420562,63006172.9065,65686708.746,5175.485998,5162.90563475,0.0
1.22465248566,1.00732201357,9.98763026381e-06,13723698.2816,2.5584815729e-05,0.0,15030916.8586,689.369131492,658.651204689,65056261.9175,1910.41730362,59010714.0277,66493584.2134,5083.53246797,5071.34277178,0.0
1.02840007717,0.873367724719,1.02706664616e-05,-60436670.6329,1.46753050054e-05,0.0,5847151.83736,677.787806524,646.130605272,67021452.8058,1664.12691071,42926316.0706,70797865.9915,4268.88872033,4260.4533162,0.0
1.07678246233,0.822984337359,1.02796339859e-05,-30231522.4855,1.76120702007e-05,0.0,5771182.79863,680.217074223,649.311807077,66858541.8522,1730.44688447,35307372.8976,69209980.4613,4469.72400113,4461.38729966,0.0
1.17651592358,0.971400150418,1.01338553607e-05,2710836.17909,2.24010361113e-05,0.0,5391428.3444,686.271388447,655.617502338,65709848.1928,1853.78081629,51267532.9089,66935860.4298,4883.71759878,4872.65270975,0.0
1.09413697993,0.858943521742,9.9714678063e-06,-24770204.6635,1.82130260171e-05,0.0,5732933.02868,681.382977542,650.383803288,66757721.2783,1752.81042945,36580685.2812,69109660.8302,4541.76260369,4533.05925349,0.0
1.17744526604,1.06097859718,9.93264599533e-06,2569821.2979,2.0630352013e-05,0.0,5410004.5838,686.384181807,655.681509192,65784353.2008,1854.97107722,51301280.8859,66996636.4202,4887.57529933,4876.49375403,0.0
1.05592270327,0.818234143009,1.04017150232e-05,-39554407.7109,1.6170160316e-05,0.0,5811590.68184,678.83726789,647.871905312,66947629.0242,1702.39878217,34759732.4996,69580824.0342,4383.13514127,4374.92996935,0.0
1.15393546147,1.02078849294,1.02887822866e-05,-5414104.24915,2.17827873955e-05,0.0,5549201.88008,684.786683202,654.268731165,66250133.8727,1829.81591998,46777064.0378,68477172.3975,4789.98610056,4780.52201726,0.0
1.15112931096,0.63981734976,9.99381698136e-06,-5274472.09962,2.82392812182e-05,0.0,5504425.26438,684.989911773,654.042276332,66095684.0131,1825.42307579,47119647.4661,68564560.9547,4778.33776979,4768.4961331,0.0
1.07356725124,0.766285965459,1.00372934227e-05,-31737052.9115,1.7861089765e-05,0.0,5773607.21542,680.036293308,648.952991829,66853864.4749,1725.25842677,35126979.1333,69529317.7714,4456.3776599,4447.80468137,0.0
1.20184985755,0.887678410355,9.98206657622e-06,8417253.96718,2.57286777441e-05,0.0,9880809.41363,687.996963771,657.227547667,65413202.0594,1884.84892408,54957584.6096,66695708.7479,4988.87875869,4977.47367109,0.0
1.12345813279,0.89035066279,9.63516678972e-06,-14362603.9776,1.97375248404e-05,0.0,5622551.40224,683.335742938,652.219913236,66432270.892,1788.93843059,41888114.0811,68736902.2535,4663.47470921,4653.6101432,0.0
1.09188818034,1.03650576619,9.90501115034e-06,-25759826.3677,1.58619571621e-05,0.0,5755100.25558,681.228290819,650.247855412,66821908.7279,1749.73173856,36340667.089,69295589.3678,4532.42783659,4523.75973587,0.0
1.04740415836,1.02775075556,9.72580366183e-06,-48819744.7133,1.35941056747e-05,0.0,5875396.41437,678.906997856,647.395553965,67133415.9437,1691.40657278,37142875.5848,82194795.777,4347.77466135,4340.00379519,0.0
1.21162973711,0.925528381586,9.78476607322e-06,11003136.7903,2.55615495505e-05,0.0,12333281.0422,688.604615826,657.772024742,65318879.8008,1896.09232323,56855042.94,66662708.2387,5029.47503874,5017.77543803,0.0
0.925845698571,0.825571015382,1.00113356175e-05,-92249745.6105,1.47558284465e-05,0.0,6087836.11533,689.615521779,639.561252302,67573362.5149,1603.88827481,67491155.0079,67696501.1595,3843.18549477,3836.40690606,0.0
1.21568469573,0.949175677083,9.61230191562e-06,11685672.9929,2.52219146307e-05,0.0,13000237.0356,688.969300401,658.054420755,65303699.5531,1901.01125663,57414763.1661,66331108.4065,5046.30717198,5034.50585151,0.0
1.1747218006,1.17015687182,1.0164373134e-05,2714068.24136,1.90017410286e-05,0.0,5427751.65546,685.988216942,655.511578556,65827405.1224,1851.31495944,51380034.9968,67083115.4215,4876.27019429,4865.34665896,0.0
1.1307134875,0.900170033084,1.00994301041e-05,-11756297.4486,2.08260225402e-05,0.0,5580149.22606,683.41948179,652.639802127,66294840.7198,1798.31199343,43240146.662,67410291.3197,4693.59168661,4683.70404963,0.0
1.05362884878,0.887696352782,9.79101906202e-06,-45305624.18,1.5444348133e-05,0.0,5803386.06008,679.278570871,647.734269626,66920509.396,1697.32368055,35897184.3735,70497708.252,4373.61335129,4364.67843965,0.0
1.014542047,1.01023899304,1.05268548438e-05,-72790859.2128,1.34481320178e-05,0.0,5874449.55661,677.215599021,645.246661706,67071739.3961,1645.57571424,51533055.5264,70459455.5669,4211.3640371,4203.23542022,0.0
1.21991690356,1.00912226628,1.02713977038e-05,13101749.0488,2.55479470299e-05,0.0,14327664.8552,688.902364489,658.344800672,65089306.758,1904.52467995,58454470.5956,66407998.5938,5063.87506668,5051.78087844,0.0
1.19113612885,0.978711603868,1.02075114599e-05,6696787.4046,2.34036761024e-05,0.0,8187786.97407,687.149552165,656.563486963,65509587.1031,1871.15899849,53524045.404,66586612.3853,4944.40607086,4933.09550719,0.0
1.04372459027,1.0009367066,9.93177450927e-06,-50471586.9058,1.40889746957e-05,0.0,5834686.98664,678.630196569,647.083962756,67005182.4135,1684.55254499,37721392.268,70996083.32,4332.50077421,4323.90676542,0.0
1.17145409778,0.814196671593,1.01516888797e-05,1824884.76677,2.49906402743e-05,0.0,5398222.59853,686.048712673,655.315142464,65729104.0322,1847.96063062,50758476.8546,66985906.0461,4862.70595988,4851.83793601,0.0
1.04289797161,0.918512420571,9.86304669014e-06,-50742428.54,1.46978170986e-05,0.0,5828728.20109,678.669253188,647.022910947,66986966.1898,1683.04701238,37881751.8297,70998223.5243,4329.06948015,4320.31287352,0.0
1.16474625524,0.842412185278,9.91171388873e-06,-604194.234113,2.35675106e-05,0.0,5425150.8896,685.806801842,654.907035653,65826871.9631,1839.41090919,49601139.9823,67698289.6604,4834.8617055,4823.90364828,0.0
0.982646148425,1.09538405712,1.02162846307e-05,-94833250.9564,1.27047227092e-05,0.0,5951253.47473,680.257336838,643.214689217,67243546.907,1609.65777669,69765412.52,70004802.2382,4078.96416211,4071.01503877,0.0
0.99025537668,1.0705295087,1.04003385583e-05,-95101806.8817,1.29164131941e-05,0.0,5922797.99804,678.69598696,643.700879571,67176283.9935,1612.13892865,70002034.3254,70250669.1665,4110.5500686,4102.47965537,0.0
1.1168489727,0.9900859513,9.60251118055e-06,-18524579.4891,1.83035927181e-05,0.0,5701240.48264,682.932821428,651.855742097,66680645.3865,1782.80885763,39428474.8363,69220048.9044,4636.04008568,4627.07843718,0.0
1.05547650083,0.952263865046,9.62033030989e-06,-43093822.4968,1.44878795434e-05,0.0,5822091.09564,679.405802624,647.842285227,66976811.7267,1700.01190974,35389818.8056,70608114.4322,4381.28295495,4372.46441844,0.0
1.11640935131,0.817660773082,9.57045617136e-06,-16381716.1432,1.99599706515e-05,0.0,5643442.64305,683.00580934,651.796098404,66482842.4031,1779.98369994,40574314.6626,69318638.9839,4634.21521729,4624.47017941,0.0
1.07339688511,0.964885413583,9.6056409325e-06,-32758604.1613,1.49017265015e-05,0.0,5782576.39867,680.336414642,648.985162889,66866941.1165,1723.6771481,34861268.9145,69852267.3527,4455.67047009,4446.55853945,0.0
1.04181255419,0.868641033186,9.91328891892e-06,-51076079.9753,1.51379444545e-05,0.0,5826204.14374,678.609426643,646.962761705,66977674.2921,1681.64563961,38026069.8275,70936734.9934,4324.56391244,4315.82512128,0.0
1.14708985816,1.02406181212,1.02896415906e-05,-6346703.14002,2.11404747692e-05,0.0,5574864.4276,684.261643275,653.782929869,66302721.976,1820.8758797,46476822.4637,68698918.1023,4761.57000122,4752.21870168,0.0
1.01223643684,0.844029311337,1.03996772046e-05,-78775108.08,1.46171362936e-05,0.0,5929496.1429,677.258110149,645.119351396,67238510.603,1644.89387962,56192082.8269,70706709.5094,4201.79344932,4194.71161245,0.0
1.03264244704,0.904950440388,1.01296064854e-05,-57661774.2771,1.4551327631e-05,0.0,5845113.0205,678.044348487,646.390152359,67020092.0477,1669.73812673,41286808.4151,70965034.4511,4286.49879766,4277.99493913,0.0
1.12089817919,0.79023714706,1.02661289646e-05,-14203300.8982,2.15348455929e-05,0.0,5598918.35738,682.813335568,652.0639115,66347627.0053,1785.98459115,41698555.5001,68212045.1299,4652.84834182,4643.22605912,0.0
1.18933123355,0.934865113423,1.02179633094e-05,5984743.30322,2.42179578394e-05,0.0,7440080.91674,687.085400743,656.431179442,65439378.0348,1868.65095889,53014064.3373,66602530.5194,4936.91395047,4925.40739549,0.0
1.07742110444,0.79154863966,1.00008935569e-05,-30057562.9043,1.75861510211e-05,0.0,5753982.27798,680.467376242,649.337694332,66789940.1234,1729.73900046,35327672.4459,69310201.3412,4472.37500453,4463.55186175,0.0
1.16198940164,1.04118169191,1.01509806047e-05,-1960847.27319,2.18168500263e-05,0.0,5522853.35147,685.33103046,654.762798814,66147708.2738,1839.15498387,48749661.6635,68118648.2482,4823.41800621,4813.7178482,0.0
1.14689043212,0.846143344234,1.01723766251e-05,-7617011.17591,2.40176866842e-05,0.0,5566053.11766,684.406612413,653.743089447,66292053.6906,1821.14756726,45610005.2454,68496347.3734,4760.74218373,4751.39117501,0.0
1.13126414217,0.958708664795,9.59696948233e-06,-12208090.506,1.96557146201e-05,0.0,5623957.44738,683.811366782,652.757129738,66453295.1297,1799.79959572,43018876.6786,67741468.6085,4695.87745415,4686.25954251,0.0
1.08197690258,0.858106540991,1.00654234291e-05,-28625501.5746,1.73320045082e-05,0.0,5763166.89246,680.684876671,649.668406467,66834361.72,1736.900157,35700597.969,69285822.9893,4491.28612261,4482.77268062,0.0
1.11041276898,0.996882270361,1.02687821921e-05,-17043813.7275,1.79055506622e-05,0.0,5658798.94713,682.068409029,651.420487993,66521801.96,1772.27828988,40187227.9039,69111913.3664,4609.32340404,4599.97519418,0.0
1.06079113224,0.986805439407,9.96338762751e-06,-38728594.5291,1.44804563921e-05,0.0,5823261.36982,679.379534311,648.19384787,66991303.8155,1708.44993592,34746129.6387,69939223.9953,4403.34398993,4394.96931404,0.0
1.14403350993,1.15088665556,9.85030160985e-06,-8270671.00036,1.84340170323e-05,0.0,5617723.73087,684.243884671,653.545159955,66460654.2076,1817.1203387,45657947.5019,68430183.4076,4748.88309972,4739.5823456,0.0
1.09810149741,1.0620678445,1.03532875288e-05,-20576574.1121,1.61238744327e-05,0.0,5659405.93719,681.349672402,650.677862703,66515593.7767,1754.63875467,38301754.6235,68371945.0,4558.21931575,4548.40379425,0.0
1.13568266057,1.10925493411,9.83089304137e-06,-10775641.135,1.80444216725e-05,0.0,5611380.11024,683.872162667,653.053160676,66408884.3674,1805.21753999,44049025.258,67784173.5853,4714.21872403,4704.52669902,0.0
0.975504978686,0.734426618336,9.6731941941e-06,-94657360.0497,1.57864906209e-05,0.0,6019839.36998,683.027785027,642.772478267,67445691.4849,1617.16994863,69610399.8405,69845661.1328,4049.32116653,4042.41422053,0.0
1.18623696292,0.993662034458,9.94477104902e-06,4567776.80237,2.25677644076e-05,0.0,6200080.53139,686.982023065,656.203159686,65568263.6905,1864.98592521,52380958.1777,66864979.5122,4924.06963308,4912.52592838,0.0
1.0919014503,0.994288975836,1.03382461465e-05,-24611023.9548,1.68490464603e-05,0.0,5738262.93704,680.948686319,650.247101978,66767850.3547,1750.113498,36529385.7798,69018627.8899,4532.4829202,4523.91294719,0.0
1.08015430029,0.888826934772,9.74114349751e-06,-30423245.2962,1.65977571797e-05,0.0,5787806.97762,680.584055415,649.398037075,66913650.3424,1734.48601621,35472399.1058,69380329.7841,4483.7205005,4475.23537467,0.0
0.9835941838,0.665332630493,1.01117358592e-05,-95034813.339,1.60532438005e-05,0.0,5980112.29003,680.198453676,643.289659456,67336429.3576,1611.61645264,69942926.9154,70182860.2494,4082.89945695,4075.88483959,0.0
1.1282000379,1.02885556437,1.00353910501e-05,-12290509.7375,1.86750145766e-05,0.0,5603024.80709,683.211521072,652.46936602,66378739.8292,1794.79848988,43014046.0685,67317356.232,4683.15835732,4673.31368456,0.0
1.28688950214,0.805627386322,9.80654721039e-06,25922514.7127,3.6171697338e-05,0.0,27563894.2889,693.463759166,662.433316297,63994622.5329,1980.9387006,67883492.1999,68781172.4659,5341.87832338,5328.46460738,0.0
1.06694399962,0.886453600371,9.92262968945e-06,-36011986.6816,1.58478117581e-05,0.0,5803486.98312,679.780920192,648.592083053,66941091.0822,1716.65385238,34663383.6081,70136873.935,4428.88454242,4420.41375425,0.0
1.1932579876,1.00816319083,1.03256372865e-05,7341997.53699,2.31815745314e-05,0.0,8710673.21036,687.173789423,656.704512028,65522855.5835,1874.12415082,53892437.0093,66524441.1089,4953.21390653,4942.08115896,0.0
1.16510189361,0.960033700625,1.00420162834e-05,-48181.3604099,2.16578427906e-05,0.0,5431343.00036,685.651164353,654.925736103,65830422.4476,1839.43488449,49897966.9511,67670729.6599,4836.33796038,4825.37508831,0.0
1.26397615918,0.929575543792,1.01933617161e-05,22380298.1241,3.22827849202e-05,0.0,24342961.7253,691.812072669,661.106488575,64502172.8914,1955.9453989,65872555.1161,66780013.4104,5246.76503676,5234.21918037,0.0
1.10201267737,0.762177636334,9.81516995535e-06,-22395988.4338,2.01157146377e-05,0.0,5710950.836,682.080280322,650.954391033,66699051.6731,1763.35342487,37411138.6672,68671741.8097,4574.45462376,4565.62725067,0.0
1.08818415423,0.965082492442,9.92097339091e-06,-26934091.7667,1.64576309585e-05,0.0,5759456.70929,681.078822461,650.049475171,66829974.9726,1744.95068821,36049181.2081,69328617.554,4517.05242421,4508.44225572,0.0
0.938323270461,1.16397340939,1.00146239518e-05,-93081135.5399,1.18013313326e-05,0.0,6126722.71088,687.288977891,640.379700335,67726265.259,1606.53671777,68222737.3195,68436594.8963,3894.97989568,3888.9033915,0.0
1.15107941739,1.02677431149,1.01236464317e-05,-4684461.36794,1.9559003832e-05,0.0,5532520.51905,684.492603728,653.937126907,66161487.8447,1823.6630016,47388537.6046,68136078.5,4778.13066159,4767.94247786,0.0
1.18615288144,0.976701533455,9.81492716271e-06,5519065.64267,2.25395241092e-05,0.0,7151586.4149,686.991554206,656.210295968,65694591.9327,1865.48802749,53252223.9239,67031818.7319,4923.72061086,4912.60660816,0.0
1.04444354423,0.837306150261,1.00901632502e-05,-48931817.3868,1.56703239802e-05,0.0,5817149.28462,678.621339539,647.154520096,66955760.7607,1685.64268279,37087714.7239,71005511.9641,4335.4851521,4326.8795199,0.0
1.11576081945,1.15940916758,9.34476926523e-06,-19378122.1463,1.57625773027e-05,0.0,5728136.95665,682.983264685,651.805500113,66772401.7947,1781.37569543,38950706.4849,69202993.7279,4631.52316154,4622.57870373,0.0
1.11745378661,1.11948034706,9.83653777522e-06,-15669090.201,1.63609173652e-05,0.0,5684112.21547,682.657528522,651.840095582,66626983.3423,1782.17853893,40998026.5469,69487802.8782,4638.55066822,4629.28593494,0.0
1.13293475532,0.820040277601,1.01007714496e-05,-11169558.4339,2.22957866653e-05,0.0,5564130.86901,683.603549992,652.787692213,66250559.9262,1801.23589742,43570994.5947,67552314.7103,4702.81216933,4692.88606326,0.0
1.01671468091,1.15215503679,9.67122923999e-06,-78987059.2018,1.2086496217e-05,0.0,5965821.92557,677.993093979,645.417557748,67357099.8723,1650.79033917,56385951.0451,71063362.4608,4220.38264046,4213.23732343,0.0
0.977103412934,0.878378434863,9.95147165387e-06,-94818288.1279,1.45823429758e-05,0.0,6023974.42182,681.725779245,642.877025642,67464276.152,1613.76154907,69752153.685,69989256.8317,4055.95626709,4049.28164228,0.0
1.24853775821,1.01076247368,1.00400533574e-05,19643756.0903,2.81036682625e-05,0.0,21321711.7641,690.729805401,660.123549728,64915339.8729,1939.05464276,63839969.0489,65019653.3259,5182.68023433,5170.76939442,0.0
1.03901529652,0.845415567074,1.01173560594e-05,-53111210.4403,1.53719099856e-05,0.0,5829442.48444,678.343770402,646.797541964,66981805.461,1678.44769486,38902627.3842,70969915.2105,4312.95249585,4304.43309108,0.0
1.10226135014,0.779540191079,1.02543012249e-05,-19244360.1275,1.99143033692e-05,0.0,5638921.41127,681.797217197,650.937979396,66450570.3058,1760.94776329,38940300.6884,68545700.7675,4575.48686443,4565.78921192,0.0
1.32353818585,0.916370958359,1.03558687399e-05,31051278.9018,4.00682804931e-05,0.0,32226511.5267,695.613116419,664.830276941,63349613.5929,2021.41591037,70264663.5756,71742206.6981,5494.00700946,5480.02919939,0.0
1.10662343785,0.852695084788,1.00547213037e-05,-20437111.2081,1.9448056043e-05,0.0,5693880.81806,682.123647188,651.231112572,66645958.8072,1769.22515605,38237297.9612,68738263.3598,4593.59389052,4584.69364237,0.0
1.11912870184,0.960904857997,1.00279706742e-05,-14788097.4083,1.89135688155e-05,0.0,5602916.42582,682.794332637,651.926561264,66358729.9068,1782.32243041,41351325.934,68624775.1033,4645.50324134,4635.41770846,0.0
1.19936086616,1.06121270926,9.8252013357e-06,8197479.988,2.20777066343e-05,0.0,9671133.15512,687.818815003,657.076145625,65499062.124,1880.88423836,54795758.9934,66713095.8341,4978.54695543,4966.96973483,0.0
1.19239672003,1.01103130368,9.89727672204e-06,5876048.85789,2.26832644963e-05,0.0,7443602.35689,687.415964078,656.618185021,65505502.7326,1872.4157959,53159635.6027,66748056.8147,4949.63878484,4937.96148326,0.0
1.0777744561,1.14233660257,9.46780300899e-06,-31524888.3152,1.32938890993e-05,0.0,5804405.3211,680.517124829,649.227951265,66947966.0048,1729.87349683,35277992.9838,69793992.032,4473.84176727,4465.01294849,0.0
1.1009743901,0.778281366079,9.64958878078e-06,-23021792.2814,1.95268661617e-05,0.0,5716889.91698,682.105976462,650.872911597,66706757.418,1761.65115202,37213962.0471,69173443.0921,4570.14469331,4561.23452077,0.0
1.12907526098,0.943813370051,9.78482040361e-06,-12466591.5829,1.9802908938e-05,0.0,5622404.61347,683.550424285,652.612658103,66434941.8721,1796.85836838,42853414.6845,67773630.4547,4686.79140833,4677.23487817,0.0
1.01039371261,0.978418917883,9.81162177808e-06,-85302033.3683,1.35075669353e-05,0.0,5966963.56477,677.90679755,645.006346533,67341211.9149,1642.39523268,61572202.3715,70961032.7941,4194.14430104,4187.08836156,0.0
1.1289289767,1.25136274753,1.01929161966e-05,-12123416.2263,1.60041927607e-05,0.0,5612668.56484,683.056482699,652.518512969,66394744.1701,1795.63713755,43026791.9993,67396269.2067,4686.18418228,4676.32676146,0.0
1.10831089386,1.07145239246,1.0053424266e-05,-20019675.1425,1.67298967883e-05,0.0,5706049.93771,682.112368054,651.331342299,66686473.663,1771.18642854,38499206.0621,68864727.6612,4600.59852041,4591.67154033,0.0
1.22682045586,0.838521522664,9.81575854429e-06,14246411.7211,2.88425584861e-05,0.0,15685449.295,689.734253179,658.791456177,64977554.1745,1913.1820134,59404664.4184,66502750.0971,5092.53171227,5080.26803432,0.0
1.06542192505,0.899151791058,9.99781434241e-06,-35618311.0439,1.57267896729e-05,0.0,5805427.81864,679.620969352,648.492380756,66944770.1746,1714.43910599,34668807.5067,70152269.9525,4422.56641088,4414.11973573,0.0
1.11187782877,0.972687069581,9.63623318225e-06,-19803311.2898,1.79898642335e-05,0.0,5699812.4635,682.652017767,651.556560711,66673736.9635,1775.59398979,38744722.8391,68970656.6361,4615.40486722,4606.31987357,0.0
1.09660219869,0.934879484447,9.73566337887e-06,-24257339.1692,1.71436431807e-05,0.0,5739132.49461,681.663897245,650.549629836,66769967.5527,1755.78496616,36787201.1056,69198340.3198,4551.99572676,4543.15501237,0.0
1.03369231326,1.11972065424,1.00165738084e-05,-57528747.5323,1.26346095468e-05,0.0,5907102.77735,678.037382302,646.483701198,67224286.4885,1673.53879941,41282898.1227,71056403.4706,4290.85679234,4283.46904378,0.0
1.03963591266,1.0067541117,9.90335038363e-06,-52363903.5987,1.37594244351e-05,0.0,5840402.78926,678.477758579,646.834921095,67016690.1874,1678.65365485,38516746.0185,71025554.5745,4315.52867345,4306.82556461,0.0
1.01896636174,1.03032140771,1.01823579705e-05,-71174409.2481,1.32020814524e-05,0.0,5926399.69384,677.502946479,645.543156618,67250631.1973,1653.57226129,50326670.2454,70857108.3021,4229.72936758,4222.46314402,0.0
1.15041774296,0.971360157951,9.78613183644e-06,-7035678.8156,2.13079374547e-05,0.0,5541652.13607,684.864053238,653.967882673,66208476.7771,1823.85526706,46010913.4729,68706388.2296,4775.38405103,4765.34063288,0.0
1.13732104014,1.04594622792,9.81989899393e-06,-10319649.7653,1.91009651692e-05,0.0,5600553.20284,684.011715618,653.156541833,66379254.3425,1807.38832611,44253726.2115,67886405.3891,4721.01963762,4711.30037697,0.0
1.00397184327,1.00400945216,9.71904722249e-06,-94060329.8707,1.32541350474e-05,0.0,5987184.79225,678.305019173,644.60314592,67390099.3541,1633.69771555,69087268.5399,71090150.5474,4167.48712141,4160.52149311,0.0
1.04802014055,0.903107107991,9.74873293638e-06,-48450081.505,1.50249376358e-05,0.0,5819791.03972,679.03721695,647.379707704,66963575.6378,1689.84171097,36967881.4173,70683611.6448,4350.33160342,4341.49072787,0.0
1.08119342327,0.947627035371,1.0264052746e-05,-29137633.5893,1.6580332448e-05,0.0,5770176.68263,680.462010863,649.620030464,66855316.6268,1736.38873384,35528158.3181,69215280.0535,4488.03389999,4479.72676586,0.0
1.09349466874,1.00096551537,9.89686526836e-06,-25249374.4949,1.64587945708e-05,0.0,5748119.89715,681.330103688,650.338503215,66802673.7625,1751.85568789,36482106.5199,69227578.3036,4539.09636994,4530.40309381,0.0
1.23039431068,0.909033250255,1.01046064245e-05,15430607.1062,2.83140242957e-05,0.0,16916334.3955,689.534805622,658.950218351,65125178.0051,1918.64080597,60446511.8245,66727866.5577,5107.36678363,5095.75060283,0.0
1.13946166618,0.687972308929,9.95123887651e-06,-8674131.01064,2.54743251794e-05,0.0,5549316.51593,684.226802004,653.271685646,66227045.6479,1810.2335813,45338227.7204,68087152.5799,4729.90537631,4720.15372483,0.0
1.0599048483,0.802862047085,1.04046832126e-05,-37691111.3388,1.66018183733e-05,0.0,5800895.39359,679.064800791,648.135213959,66922218.1488,1707.72236663,34616837.8379,69870281.6807,4399.66502529,4391.3985044,0.0
1.04375158256,0.858624154691,1.03183550102e-05,-48049822.088,1.54022746896e-05,0.0,5809381.25657,678.388949538,647.104504269,66930879.6005,1684.53809788,36726339.2671,70534528.9495,4332.61281921,4323.93002576,0.0
1.12611429475,1.05459500469,1.02363563351e-05,-13167735.2732,1.88213995609e-05,0.0,5651137.50569,682.994695716,652.427012092,66523836.1341,1794.44415469,42453213.8096,68032483.9721,4674.50043751,4665.50660605,0.0
1.09724349996,1.19718976048,1.02997960371e-05,-21083970.784,1.44425048416e-05,0.0,5675601.36569,681.265739494,650.62222102,66562911.6419,1753.41761015,38178989.9467,68325612.7433,4554.65776833,4544.8570353,0.0
1.23297535154,0.976407763787,1.0013968966e-05,16114066.6401,2.71110508993e-05,0.0,17563672.1145,689.682182292,659.107670113,65126343.1388,1921.40689212,61033157.9614,66803070.8961,5118.08068424,5106.41735026,0.0
1.13001110033,0.938730268274,1.02664471143e-05,-11604202.0042,2.03784475323e-05,0.0,5578093.87645,683.25089369,652.595856495,66292702.8317,1797.31835808,43243227.6517,67426741.7485,4690.67607747,4680.80033802,0.0
1.08889950571,0.895716541343,9.7620624354e-06,-26948781.1297,1.70991511297e-05,0.0,5762035.96558,681.264868791,650.098006083,66834843.0682,1746.08272171,36116867.5193,69383591.1099,4520.0218482,4511.40039552,0.0
1.10899654337,0.967019466497,9.64475531726e-06,-19218017.2823,1.77345850885e-05,0.0,5636320.71496,682.535049212,651.353003874,66454613.1403,1768.72439278,39314138.1489,68816813.3485,4603.44465153,4593.24992932,0.0
1.1567790344,0.995246714028,1.03873143582e-05,-2830281.54119,2.07639187805e-05,0.0,5458474.55979,684.933698475,654.411590086,65920938.2378,1829.60935979,47861474.6789,67797649.5233,4801.78977179,4791.08866729,0.0
1.23278430589,0.894144452577,1.00245372246e-05,16117815.0435,2.88127694955e-05,0.0,17568612.3673,689.726657136,659.09600815,65092013.5949,1921.3059715,61025016.2249,66762561.6408,5117.28765375,5105.6279763,0.0
1.23024496752,0.811219896367,9.87212748166e-06,15300091.4456,2.99471540892e-05,0.0,16726317.8412,689.925471135,659.017676703,64939332.2962,1917.31302341,60283137.8818,66605189.8995,5106.74686018,5094.58671576,0.0
1.19437639655,0.804112653434,1.03811862113e-05,7586461.64501,2.75579538874e-05,0.0,8984923.8578,687.415803825,656.751699448,65291894.2873,1874.67337185,53943653.3598,66340242.1226,4957.85642208,4946.25935124,0.0
0.959853612592,1.08847517224,1.0121213934e-05,-93822014.8884,1.28743159144e-05,0.0,6053166.12914,684.445856451,641.761213379,67536258.1591,1612.4190695,68875146.8556,69098925.4341,3984.35234587,3977.69732699,0.0
1.04960925919,0.893379557657,1.02790090987e-05,-45244543.8601,1.53603556565e-05,0.0,5798753.32113,678.69117822,647.477459627,66908696.9765,1692.31214303,35824179.8059,70360951.3099,4356.9280349,4348.14956451,0.0
1.11428176273,1.10144254563,1.00249515819e-05,-15955301.6591,1.61803982747e-05,0.0,5651758.41936,682.40564628,651.64084911,66501041.4804,1776.50699634,40794617.7754,69335269.9913,4625.38359709,4615.58047683,0.0
1.14096290229,1.0565101204,1.01223379916e-05,-9257014.8037,1.95166442039e-05,0.0,5576856.25384,683.887563095,653.26699967,66317640.6777,1812.00661682,44747689.9629,68164354.9079,4736.13700741,4726.35674896,0.0
1.07217198082,1.00691061345,1.01141102165e-05,-32127932.8689,1.49922777952e-05,0.0,5790494.10373,679.805083886,648.868034465,66904227.9941,1723.23757193,35088897.5986,69594020.9449,4450.58589238,4442.03337827,0.0
1.10222969315,1.09772084479,1.01007711314e-05,-21888518.1187,1.60320883044e-05,0.0,5721411.76826,681.733956189,650.969144764,66724238.8617,1763.13652716,37559890.5816,68587937.8259,4575.35545627,4566.5247714,0.0
1.10266973979,0.84843070743,9.96605156298e-06,-21793062.453,1.90487039948e-05,0.0,5709741.2015,681.96455819,650.996555016,66684614.5055,1764.10840713,37616862.3412,68531778.1653,4577.18208987,4568.34434654,0.0
1.19867329893,0.875606123893,9.77926278682e-06,7708333.42742,2.54155078459e-05,0.0,9168005.84588,687.939551129,657.049752408,65497674.7189,1881.13425498,54444188.5805,66647331.2931,4975.69286386,4964.34757672,0.0
1.14280640006,1.17707017338,9.89820905068e-06,-9095997.50462,1.75798562504e-05,0.0,5573038.09116,684.090284889,653.37662424,66285997.9424,1813.48610547,44868791.7185,68282564.2475,4743.78936665,4733.67097355,0.0
0.986468429413,1.33984254622,9.5624571948e-06,-95238360.1888,1.11059047045e-05,0.0,6026744.92115,681.524459447,643.477959968,67484126.3554,1620.26295315,70121911.1126,70363404.4713,4094.83045049,4087.76642143,0.0
1.06636357896,0.987089690602,9.520712947e-06,-37264255.0445,1.43422823371e-05,0.0,5830057.03278,680.005812134,648.555647479,67014935.6777,1715.8412249,34713673.7561,70276731.0894,4426.47521626,4418.01474485,0.0
1.05814788794,0.704580139623,9.89550824459e-06,-40204681.2195,1.73158508758e-05,0.0,5811985.77356,679.492692415,648.082240258,66950127.1906,1705.11328054,34881779.2344,69742842.2964,4392.37188284,4384.03835842,0.0
1.13364570846,1.1363918341,1.04489007356e-05,-10919101.2539,1.84896242252e-05,0.0,5622304.96875,683.226014592,652.876090072,66454630.5362,1803.92536032,43723084.7051,71250429.2358,4705.76333582,4696.64980677,0.0
1.03408511376,1.09463813658,1.01148897058e-05,-56500997.4582,1.28400442212e-05,0.0,5854109.54538,678.045872927,646.489581083,67050928.0248,1671.52213992,40642905.5263,70992833.8707,4292.48730722,4283.96011903,0.0
0.985596933581,0.813000236405,1.01011669181e-05,-95151921.2492,1.47274881479e-05,0.0,5984739.21939,679.855088872,643.418325383,67353296.4941,1611.9567394,70045983.3437,70287216.0821,4091.21287129,4084.16820706,0.0
1.04444983687,0.88343843039,1.00610768777e-05,-49102821.7893,1.52122006593e-05,0.0,5821192.7645,678.626734406,647.154605677,66967927.1098,1685.61764388,37143908.4849,71032527.1082,4335.51127285,4326.90553889,0.0
1.08677815347,1.02252859165,9.93418410706e-06,-27409061.936,1.56774104366e-05,0.0,5766939.98662,680.969088017,649.962930531,66850976.9844,1743.05889391,35966356.6791,69346614.7502,4511.21611505,4502.62789524,0.0
1.14834612968,0.863021887198,1.03932860369e-05,-6379804.79297,2.37044101672e-05,0.0,5513842.30933,684.4391531,653.856417951,66103500.1195,1821.34117393,46015610.6455,68526849.4103,4766.7847843,4756.88262919,0.0
0.986165916445,0.884024989448,1.02513646822e-05,-94926436.2631,1.44861321597e-05,0.0,5928631.55146,679.735452471,643.439907051,67182339.5044,1610.12756585,69847620.5045,70088779.2576,4093.57471916,4085.56969051,0.0
1.00792989425,0.799619740059,9.92611570799e-06,-87159611.2886,1.48419030162e-05,0.0,5960796.59233,677.85439918,644.852132492,67319581.5263,1639.18221198,63129789.0721,70982907.2823,4183.91699103,4176.89575925,0.0
1.07400097896,0.995827374066,1.04464262212e-05,-32473457.6706,1.57316837878e-05,0.0,5708826.7836,679.955875259,649.092419859,66650159.5188,1723.51450455,34768566.6267,69080937.155,4458.17806366,4448.5769457,0.0
1.14177025993,0.820556915469,9.85589720049e-06,-8122812.3604,2.29037300907e-05,0.0,5542747.89157,684.226291315,653.308576241,66207766.906,1812.22122334,45702063.0227,68272038.0942,4739.48834897,4729.3914995,0.0
0.967915318991,0.947600702806,1.01558064436e-05,-94382415.2594,1.40820657306e-05,0.0,6041693.94992,682.588706619,642.285639349,67512173.3682,1610.77702122,69368370.965,69599114.298,4017.81648913,4011.3488835,0.0
1.23365639398,1.04658523746,9.81745315285e-06,15708388.3829,2.52406463812e-05,0.0,17188698.9939,689.991614384,659.231116627,64971208.5446,1920.5783452,60672127.8018,66730470.2121,5120.90769141,5108.5127935,0.0
1.18245411971,0.867766884419,1.03431857587e-05,4478574.01963,2.50874181423e-05,0.0,6123398.356,686.554834249,655.975235379,65614211.825,1861.53940719,52197968.2333,66837725.4016,4908.36705092,4897.40862791,0.0
1.04744420041,0.867333723716,9.67190014642e-06,-49023770.28,1.53366473291e-05,0.0,5822086.81039,679.091379318,647.3479482,66967901.9143,1689.10100637,37201881.9858,70914564.5402,4347.9408759,4339.107947,0.0
1.15337623768,0.74460582864,9.9083790846e-06,-5829081.88857,2.59004206291e-05,0.0,5499018.54721,685.150480691,654.178572742,66084041.6631,1827.7770932,46506793.5646,68529381.6861,4787.66476261,4777.57142087,0.0
1.10737021581,0.922274703244,9.85515599687e-06,-18617882.8268,1.79945317119e-05,0.0,5674964.75564,682.26175716,651.266275732,66575189.8393,1768.38730632,39405059.0212,68810317.5328,4596.69376583,4587.19835067,0.0
0.977509807012,1.14243561722,1.01002949105e-05,-94719141.2696,1.22343355945e-05,0.0,6018051.26511,681.405797056,642.898419982,67451625.4404,1613.10413849,69664880.8243,69900707.1378,4057.64320891,4050.71022054,0.0
1.16509182357,1.12539981079,9.84649360339e-06,-784982.089325,1.87474854376e-05,0.0,5461227.30003,685.673980052,654.931083952,65937474.2814,1839.48315161,49599854.4817,67841417.8104,4836.29615964,4825.33190834,0.0
0.972243374748,1.0224391027,9.72193962224e-06,-94563244.1786,1.34260325172e-05,0.0,6039808.98441,683.233609717,642.562574284,67500979.9032,1615.71237752,69527557.4084,69760710.3961,4035.78224858,4028.92159196,0.0
0.968823011318,1.1060553484,1.06023177513e-05,-93972812.7581,1.23286501353e-05,0.0,5966996.64084,681.89118374,642.321699277,67284982.526,1607.31697747,69008123.4977,69237602.0872,4021.58431998,4013.85214712,0.0
1.1444558366,1.10627060749,1.00031413514e-05,-8360855.02583,1.87848492629e-05,0.0,5555663.11015,684.129086488,653.451378515,66236378.5559,1815.59410543,45246404.6405,68427212.2998,4750.63617773,4740.48960847,0.0
1.1797959806,1.05912556608,1.03861234288e-05,3765051.98918,2.13856000339e-05,0.0,5686440.66804,686.232200029,655.802404945,65678265.7328,1857.70422643,51768855.6392,66945003.4985,4897.33311547,4886.31536048,0.0
1.12152027536,0.759737298212,9.60915765614e-06,-14854750.3173,2.14330253407e-05,0.0,5617719.15913,683.30169435,652.089565918,66412793.5147,1786.60731507,41503780.9893,69050668.5724,4655.43066302,4645.59901541,0.0
1.22060752796,0.892971941133,1.01384876252e-05,13155139.5548,2.76805958021e-05,0.0,14349647.2898,689.110508303,658.390761919,65043478.4771,1905.73643599,58470497.5486,66374412.6167,5066.74184856,5054.6555876,0.0
1.07449088521,0.929092933156,1.01920430165e-05,-32280648.1091,1.62782282086e-05,0.0,5789233.16158,680.092822736,649.147968411,66915575.8347,1727.64249473,34964781.505,69508592.6688,4460.21166451,4452.00645748,0.0
1.20367479582,0.917897345737,1.0522551945e-05,9653273.10822,2.60224035621e-05,0.0,10973804.0109,687.719838738,657.270011389,65250567.4703,1885.64946254,55557298.1376,66791759.7138,4996.45407745,4984.8076181,0.0
1.15103136367,0.935174830645,9.79747861887e-06,-6821885.59676,2.19613029138e-05,0.0,5535139.72025,684.922719596,654.01339576,66190678.1012,1824.66102298,46128922.787,68726001.0116,4777.93119059,4767.87758125,0.0
1.03511742575,0.849862494258,9.5455202541e-06,-59251384.7208,1.51162757737e-05,0.0,5908111.92951,678.611926662,646.580927486,67223684.3497,1675.48423529,42350141.1482,71183060.6076,4296.77243429,4289.36417945,0.0
1.01437673104,0.897885175178,9.87873507836e-06,-79711639.6925,1.41867084482e-05,0.0,5950927.42485,677.821654514,645.24722661,67297734.6687,1647.81264809,56961831.9704,70782682.1655,4210.67781055,4203.56560778,0.0
1.15625262609,1.0752064792,1.01910260006e-05,-5023671.33493,2.093016168e-05,0.0,5551355.57139,684.960407972,654.414360424,66258765.8614,1832.73715224,47019174.8151,68471721.3776,4799.6046509,4790.10325603,0.0
1.18992987912,0.835980314342,9.89263148233e-06,5425703.88158,2.59703601303e-05,0.0,7024286.65536,687.396558987,656.450558521,65455211.0589,1869.76356194,52896133.5713,66747583.6339,4939.39892823,4927.76727979,0.0
1.14261543959,1.27237873142,1.00167672346e-05,-8994468.47375,1.654189762e-05,0.0,5572758.94346,684.064841702,653.438251695,66287359.8927,1813.10337405,45024171.8234,68325915.6284,4742.99668974,4732.88003581,0.0
1.12770212412,1.14418620013,9.64180629071e-06,-13135351.0119,1.67713232525e-05,0.0,5653142.93758,683.444577966,652.509895376,66537727.2221,1795.0259968,42489569.0382,68347600.7514,4681.09151722,4671.53252922,0.0
1.19815209048,1.07557155362,9.89793952205e-06,7690386.33351,2.17284541451e-05,0.0,9126757.37243,687.685268001,657.013760661,65569230.6928,1880.04694295,54396907.0105,66696372.0854,4973.52932758,4962.19342759,0.0
0.886612856968,1.07922988418,9.97770743146e-06,-90707336.6932,1.15339463414e-05,0.0,6182196.48179,693.700429132,637.031821092,67804317.9682,1587.26470605,66133545.6579,67804317.9682,3680.32996927,3673.87740954,0.0
1.06349864418,0.938682254124,1.01429156678e-05,-36724309.7268,1.51967128026e-05,0.0,5806723.65225,679.407032261,648.367907373,66937764.4605,1712.08831246,34626122.3855,70080958.1968,4414.58287199,4406.16595807,0.0
1.11885105065,1.03531426939,9.70787255785e-06,-15568028.631,1.75144868265e-05,0.0,5626019.99027,682.932153635,651.910404534,66438889.0435,1781.89957537,41079145.489,69255998.7501,4644.35071125,4634.27083362,0.0
1.08772336467,0.959481849287,1.01283316693e-05,-26464537.7914,1.66250408075e-05,0.0,5751530.18754,680.89802816,650.008702165,66807909.9972,1744.3376037,36090564.0899,69237262.9748,4515.13968675,4506.53671403,0.0
1.13441298353,0.850393984912,9.89653941604e-06,-10469470.7531,2.2243777457e-05,0.0,5615384.82569,683.835814742,652.981007294,66429739.9971,1804.77681756,44255988.7554,67802446.5135,4708.94829463,4699.69435277,0.0
1.2124661671,0.993906566058,9.76897066272e-06,11127376.0907,2.4345604216e-05,0.0,12440553.2741,688.62402042,657.832695324,65338361.7219,1897.01547346,56948340.9383,66573008.1062,5032.94705963,5021.22826606,0.0
0.981622274396,0.879170935293,1.02650311989e-05,-94737286.2824,1.44397337924e-05,0.0,5939445.21113,680.365049516,643.14827647,67206982.1763,1609.11653242,69680982.7422,69920126.7292,4074.71406102,4066.78122781,0.0
1.07346539547,0.698057510501,1.01407562982e-05,-31375016.1549,1.87840796186e-05,0.0,5764849.30139,679.985355968,648.946448594,66829047.8526,1725.17925868,35168813.4579,69415819.5879,4455.9548566,4447.38348058,0.0
0.928840375472,0.995930558321,9.70182536736e-06,-92560914.2994,1.40637806842e-05,0.0,6146158.52128,690.088048965,639.769385959,67774486.3814,1610.75495632,67764943.2473,67971938.1716,3855.61639858,3849.69478196,0.0
0.942288001024,0.627231207766,9.77568411859e-06,-93068563.3346,1.69151946769e-05,0.0,6063387.04823,688.057749938,640.626764463,67528611.954,1611.01121085,68211877.76,68426305.5085,3911.43749225,3904.72228282,0.0
1.13886375574,1.0610828005,1.05271360177e-05,-7958762.29957,1.99062947286e-05,0.0,5581622.14975,683.520833046,653.190524068,66314199.0253,1809.68096422,45537529.9413,68284894.1922,4727.42345008,4718.00391808,0.0
1.14998197897,1.12719486759,9.90871448542e-06,-7454978.48665,1.93103270334e-05,0.0,5593380.1238,684.628737414,653.951897687,66375323.4956,1824.90641365,45876883.3148,68717149.5701,4773.5751947,4764.1746338,0.0
1.06459490522,0.831369722341,9.53121350399e-06,-38033077.7965,1.5864228701e-05,0.0,5824428.92552,679.963704011,648.441751499,66994634.5083,1713.60547569,34722864.1209,70148603.6136,4419.13345157,4410.70063959,0.0
1.01109335789,1.0027527826,9.82628558963e-06,-84291897.5879,1.33103865254e-05,0.0,5965708.78914,677.869835876,645.05097125,67337249.8653,1643.33047573,60727757.2889,70899817.8981,4197.0485286,4189.98255433,0.0
1.21274998408,0.935869636612,9.77416378998e-06,11038243.1812,2.55315126829e-05,0.0,12363624.3439,688.713705078,657.845129454,65239319.8434,1896.9783175,56889019.7228,66507300.2195,5034.12518392,5022.18536833,0.0
1.10641066942,0.827465989033,9.9902775084e-06,-20671561.0189,1.97176156674e-05,0.0,5695497.05362,682.167873649,651.220638993,66648415.7455,1768.99493302,38174739.5208,68716466.7519,4592.71068876,4583.81380889,0.0
1.09028508651,0.885201054243,1.00342493885e-05,-25854696.2531,1.76155727942e-05,0.0,5742732.73639,681.118584997,650.151923769,66784848.5357,1747.75482409,36254154.8044,69220863.5899,4525.7733941,4517.13038583,0.0
1.07468199974,0.927878087382,1.00788705015e-05,-31188304.2762,1.60139692715e-05,0.0,5779912.14135,680.005080586,649.02881691,66876618.1436,1726.59500314,35250919.1665,69454382.7665,4461.00498092,4452.41445582,0.0
1.14018243215,0.629281067663,1.00122735724e-05,-9304404.09528,2.67611527415e-05,0.0,5516803.17133,684.232696386,653.224935182,66110686.544,1810.84500649,44614992.4216,67955960.6955,4732.89727585,4722.82223138,0.0
1.11253617161,0.867735324275,9.78412698772e-06,-17195861.4688,1.90639633499e-05,0.0,5637773.60417,682.634872499,651.563162266,66467795.9007,1774.27971153,40217118.0955,69101237.299,4618.13764835,4608.26373779,0.0
1.0363720261,0.970459883893,1.02044591155e-05,-53705828.6981,1.41041684604e-05,0.0,5837581.58304,678.090220513,646.616187611,67002668.984,1674.65488301,39182165.8381,71109871.2236,4301.98028034,4293.41605713,0.0
1.0105002847,0.855346264454,9.83584793194e-06,-84898173.6758,1.44899791029e-05,0.0,5960382.02753,677.908241138,645.013422216,67319384.4988,1642.60345256,61233158.6517,70931620.9724,4194.58668179,4187.52923938,0.0
1.21785415921,1.05523191497,1.03468811097e-05,12699228.4492,2.44133051247e-05,0.0,13928239.932,688.659870716,658.224910818,65201473.9149,1902.89754545,58152734.512,66410381.3863,5055.31261488,5043.58890063,0.0
1.04706026283,1.00646328816,1.00737804989e-05,-47768197.5044,1.41683308341e-05,0.0,5822134.27679,678.688715092,647.316790007,66975679.5289,1688.99944444,36709658.6404,70489957.6038,4346.34715101,4337.69916045,0.0
1.01132214886,0.885884181505,1.00365608096e-05,-83980511.7328,1.47403359817e-05,0.0,5871233.9729,677.862433065,645.042352304,67043435.2988,1640.0680534,60456369.5367,70656732.0892,4197.99823992,4189.50504258,0.0
1.09590473008,0.95249902107,1.00843960585e-05,-23829740.7973,1.73431829492e-05,0.0,5729605.4333,681.399664474,650.527319118,66738436.3229,1755.03465841,36805971.699,69013913.2399,4549.10053456,4540.36943421,0.0
0.948774552099,0.936621484821,1.04580585127e-05,-93044866.9533,1.43127752884e-05,0.0,6001171.0985,685.456792381,641.030714707,67360514.0954,1606.02782386,68191301.242,68407112.2559,3938.36316576,3930.9445887,0.0
1.12447879622,0.702675239381,9.94198662611e-06,-13463389.1511,2.33123141456e-05,0.0,5557740.49058,683.373882676,652.290349135,66227547.2316,1789.56535896,42102234.2363,67778895.9926,4667.71148311,4657.53381488,0.0
1.10723793358,0.839289081369,1.01211448474e-05,-20299253.9989,1.98147894397e-05,0.0,5685360.34752,682.111986083,651.262043109,66622990.1254,1769.88180402,38292954.3157,68758373.4183,4596.14466229,4587.23402839,0.0
0.982225140698,1.08969540722,9.92122857818e-06,-95127411.1959,1.2348205967e-05,0.0,6012803.54447,680.56908696,643.202600923,67423706.4173,1611.65653647,70024209.8668,70264631.5824,4077.21655904,4070.13750654,0.0
1.07054841584,0.956282098838,9.90025387995e-06,-34532676.8511,1.52720780789e-05,0.0,5799611.13322,679.964687353,648.821480611,66925360.3465,1721.31208992,34780332.8032,69939064.3826,4443.84647415,4435.32064841,0.0
0.926313354272,1.1137558167,9.97641111595e-06,-92325798.9171,1.25525475193e-05,0.0,6102923.03061,689.50876563,639.591674062,67619732.5591,1604.06976745,67558057.1332,67763681.6323,3845.12673358,3838.34129017,0.0
0.962338468726,0.852853258038,1.02948410927e-05,-93847240.7098,1.46965895897e-05,0.0,6029309.89994,683.646943318,641.920239132,67470623.3367,1611.16168762,68897343.9425,69122438.3278,3994.66698368,3987.97708979,0.0
1.15301807409,0.871844259859,1.01534062089e-05,-6007303.40444,2.41532771832e-05,0.0,5547144.04068,684.828625468,654.165919456,66241519.0929,1828.89615744,46571035.5036,68554654.3738,4786.17802555,4776.7303853,0.0
1.11814866104,0.657996014832,1.00793476197e-05,-14829933.2861,2.36892510249e-05,0.0,5570527.85101,682.891786245,651.861015501,66257941.8404,1781.44959143,41297437.4643,68611827.2217,4641.43509198,4631.36656592,0.0
1.04708930961,1.16683336933,1.02884046931e-05,-44432130.8207,1.24850827092e-05,0.0,5839331.32731,678.385735849,647.320481474,67023870.0872,1689.39288109,35702509.7997,70507669.6815,4346.46772419,4338.05522147,0.0
0.991966423641,0.947697886711,1.02358660374e-05,-95180748.3693,1.41128996354e-05,0.0,5917323.83616,678.945518308,643.811827883,67159714.9701,1614.44271721,70071680.7244,70312567.4749,4117.65262453,4109.55479015,0.0
1.11440008047,1.19455061053,9.76144925032e-06,-18608742.5828,1.54198117785e-05,0.0,5704562.76473,682.60167831,651.700642984,66696140.8478,1778.75335736,39427035.9257,69135906.5406,4625.87473403,4616.7491398,0.0
1.02685086919,0.876001593187,9.71659342149e-06,-66164449.613,1.46449362101e-05,0.0,5923869.95227,678.181305955,646.04650576,67258731.8407,1664.48671045,46757939.9465,71042112.4285,4262.45795801,4255.16831589,0.0
1.0396938365,1.04208027087,9.51977565675e-06,-55108149.5047,1.35341928642e-05,0.0,5846691.84397,678.815044341,646.855207597,67032388.7591,1678.02443547,39961551.3122,71209923.2985,4315.76911531,4306.89187629,0.0
1.06334954401,0.746694069571,1.01449170093e-05,-36752967.1944,1.72908799421e-05,0.0,5795187.91432,679.472156291,648.358401401,66901910.233,1712.0389241,34640408.5185,70036602.6026,4413.96395719,4405.54937153,0.0
0.941626916509,0.815518475706,9.76904294418e-06,-93086048.2028,1.50195130029e-05,0.0,6077584.49799,688.034224915,640.584303218,67570747.0667,1610.57125524,68227233.8253,68441331.008,3908.69333043,3901.98759571,0.0
1.09564521873,0.986444702889,9.90298333053e-06,-24574388.2114,1.68124044834e-05,0.0,5740631.75495,681.473521327,650.490472888,66782669.8272,1754.67490402,36732166.893,69126595.5282,4548.02330295,4539.29627866,0.0
1.10322541011,1.00053561571,1.0415637897e-05,-18511927.0588,1.71876936247e-05,0.0,5671936.41202,681.575781525,650.993738594,66562529.7516,1762.74903459,39380010.1994,68729055.7149,4579.48867737,4570.16060598,0.0
1.20497826938,1.07842282647,9.90104397063e-06,9764974.80173,2.23283577568e-05,0.0,11140523.2193,688.029977474,657.403311959,65522641.3792,1888.57173409,55933441.7754,67030063.2611,5001.8647962,4990.59205156,0.0
1.04697434746,0.787135490202,1.0328857844e-05,-46357270.8033,1.62494194181e-05,0.0,5796698.43699,678.554132346,647.30169073,66897656.8422,1688.88494563,36152400.2124,70224965.0432,4345.99051631,4337.25513571,0.0
1.05445599923,0.787038445662,9.80699110412e-06,-44787407.8996,1.65786319277e-05,0.0,5793278.41494,679.347595795,647.78035768,66891742.3023,1698.51199405,35744444.3139,70388444.9681,4377.0468528,4368.09824398,0.0
1.10819601147,0.737563217221,9.88091022982e-06,-20556261.3566,2.12961332453e-05,0.0,5699421.06278,682.386742994,651.337020186,66672900.8653,1772.07530435,38179479.4634,68784530.0819,4600.12164361,4591.39668375,0.0
1.0908320452,0.806894066321,9.87067672585e-06,-26155481.9967,1.85496586271e-05,0.0,5742703.42222,681.314683131,650.196574639,66781805.4827,1748.54632879,36234423.4024,69282540.7172,4528.04381963,4519.39225342,0.0
1.04117466434,0.845724743717,9.83111711258e-06,-51735770.6122,1.53245532012e-05,0.0,5829546.69239,678.678424601,646.941374248,66985231.5278,1680.80991963,38288071.539,70857104.9142,4321.91603168,4313.1877037,0.0
1.22094972987,0.798384248941,9.5083220847e-06,12543732.371,2.9011235153e-05,0.0,13884260.1508,689.582806882,658.415227639,65092724.0183,1906.94646603,58092121.4039,66287392.2697,5068.16232869,5055.95265994,0.0
1.04489441686,0.997712711843,1.02111938047e-05,-48009655.3839,1.41548439598e-05,0.0,5819326.5401,678.478184223,647.177852443,66961266.6108,1685.95350926,36768067.7348,70526189.0532,4337.35672439,4328.65529748,0.0
1.07777582956,0.701168567033,1.03768804727e-05,-29353731.0691,1.93909971551e-05,0.0,5756168.48907,680.269624726,649.388317597,66815726.5414,1731.83553346,35441616.9248,69144824.2456,4473.8474685,4465.49552173,0.0
1.05851319719,0.673386613231,9.9924907668e-06,-39612779.8096,1.77168709244e-05,0.0,5808495.98189,679.348046881,648.040013491,66942420.8688,1705.64088518,34773020.1191,69710090.543,4393.88828154,4385.54907473,0.0
1.11200881311,0.845154383353,9.89527001799e-06,-17198446.4119,1.96231823206e-05,0.0,5674680.64436,682.487918542,651.542422104,66591842.6642,1775.31041362,40195400.292,69109321.7562,4615.94858322,4606.77120923,0.0
1.16376370928,0.991262729425,1.0346379788e-05,174857.398841,2.14900535681e-05,0.0,5463611.2468,685.31224751,654.849377521,65926359.8068,1838.89360263,49870325.0038,67586180.4078,4830.78315722,4820.37790754,0.0
1.09027783158,0.672498642636,9.81874525801e-06,-26460611.5507,2.05460254126e-05,0.0,5735727.18059,681.396187888,650.171694728,66758156.074,1747.95120972,36159049.3959,69279761.2586,4525.74327889,4517.1003841,0.0
0.982521090484,1.14558993347,1.06409263586e-05,-94742966.0875,1.20569572219e-05,0.0,5937272.48083,679.116128961,643.20319599,67209335.1971,1605.54972669,69686069.9808,69925370.0047,4078.4450466,4070.50038438,0.0
1.02267138596,0.970941746096,1.0168396822e-05,-67782644.0823,1.39768376918e-05,0.0,5864251.85429,677.713607547,645.765353186,67064015.764,1656.22752773,47842766.605,70855598.5896,4245.10892312,4236.76591008,0.0
1.24351463809,0.986702912164,9.76232390967e-06,18120571.6443,2.72295766736e-05,0.0,19704448.6159,690.614223165,659.826738699,64961285.3482,1933.34127262,62595219.8514,67156973.7121,5161.82926271,5149.76175274,0.0
0.95992149861,1.16156264218,9.99259374143e-06,-93949617.0839,1.22713398851e-05,0.0,6076273.56546,684.607129203,641.771066997,67611698.2389,1613.7172891,68987408.6472,69211746.2944,3984.63414073,3978.2691306,0.0
1.20170681136,0.999673496854,1.06469133358e-05,10191575.3803,2.45950254719e-05,0.0,11433147.9784,687.42173114,657.153431198,65361611.5285,1883.60851156,55992484.2349,66871448.2727,4988.28497396,4976.98734517,0.0
1.13484201278,0.705289256478,1.05190768378e-05,-10284970.2138,2.57633616715e-05,0.0,5576719.44423,683.55319929,652.997966496,66315051.7757,1805.88917159,43960211.5546,67786654.5978,4710.72919505,4701.59672615,0.0
1.02907044232,0.942991903287,9.84269319997e-06,-62452373.2435,1.41932518415e-05,0.0,5918921.68992,678.109131213,646.19617874,67247020.3969,1667.56944015,44274078.9239,71035251.2459,4271.67140607,4264.38741719,0.0
1.13792456614,0.858995287405,1.04463197581e-05,-9195991.96435,2.25866025696e-05,0.0,5532231.58306,683.623647146,653.06018767,66167430.7102,1807.43359137,44540736.4449,68003101.6116,4723.52487405,4713.51395053,0.0
1.1405655544,0.806323839438,9.72146007098e-06,-8930363.1503,2.30506135084e-05,0.0,5578803.56557,684.360234976,653.35915375,66321366.3086,1811.88862179,45288646.1355,68126878.382,4734.48761631,4724.82278047,0.0
1.21620393659,1.06129221315,1.00259399193e-05,12010399.1184,2.36111867936e-05,0.0,13282946.3592,688.720283749,658.109721273,65253412.3855,1901.07868729,57627858.8581,66330461.9512,5048.46254079,5036.67873001,0.0
1.20125944648,0.973338942107,9.6560735834e-06,8996334.69969,2.35947235641e-05,0.0,10464236.1813,688.039267835,657.206629357,65583748.548,1884.33683494,55449332.6032,66921722.1746,4986.42796234,4975.23124206,0.0
1.2648376724,1.00610846732,1.01987685657e-05,22357253.2972,3.06630191892e-05,0.0,24350707.0963,691.838502542,661.162970931,64443430.9131,1956.1482134,65784704.5119,66744759.9401,5250.34117813,5237.54381669,0.0
1.14743051904,1.04068577723,1.03452951894e-05,-5722526.93794,2.05388863867e-05,0.0,5545563.5489,684.273133269,653.803443583,66205157.597,1820.01354743,46766077.1848,68672120.1569,4762.98408453,4753.20556823,0.0
1.12439050612,0.800788932158,1.01769232172e-05,-13196236.6344,2.16989607792e-05,0.0,5587267.20633,683.111224659,652.291661664,66309158.5778,1790.30859067,42410929.0611,67562826.0894,4667.3449909,4657.56425192,0.0
1.07832524455,1.29640672289,1.00346507548e-05,-30188797.8624,1.24360278602e-05,0.0,5801248.98593,680.301804038,649.407513784,66944866.5736,1731.80510916,35461428.4575,69380769.8127,4476.12809013,4467.67134177,0.0
1.05409627494,0.98562729109,1.0392835464e-05,-41293489.7875,1.45417088809e-05,0.0,5807057.4574,678.707602325,647.734980863,66931687.3703,1698.99937505,34961524.7101,69719957.2548,4375.55363728,4367.02977368,0.0
1.10740852017,0.678303307144,1.00908475155e-05,-18055413.5372,2.20862088769e-05,0.0,5616994.83416,682.27105294,651.246842462,66388685.1895,1767.74850499,39596724.9579,68786400.9329,4596.85276723,4587.067343,0.0
1.12074396859,0.962975745622,9.71377065644e-06,-15170562.6595,1.87517471404e-05,0.0,5663766.06441,683.029341858,652.051753683,66568642.8439,1786.48047076,41311122.2325,69248328.78,4652.20821362,4642.89008053,0.0
1.11247015382,0.929792945444,1.00733886301e-05,-16703418.0542,1.86479967816e-05,0.0,5627223.0734,682.386635515,651.534685774,66429451.0255,1773.96126013,40375707.7096,69164681.2572,4617.86360851,4607.99005145,0.0
1.26214121837,0.975649490261,9.891533438e-06,22058563.6348,3.02259270326e-05,0.0,23922773.0677,691.736956225,660.998161443,64726535.8903,1955.00276039,65730571.2198,66543407.9865,5239.14819745,5226.98965101,0.0
0.911725642062,0.963614533603,9.63304939509e-06,-91908424.3702,1.38109830607e-05,0.0,6190478.96265,692.117867523,638.667598504,67878861.7581,1604.62099618,67190737.0647,67878861.7581,3784.5731402,3778.87573532,0.0
1.07793995444,0.921358561839,9.91162666304e-06,-30750434.6708,1.61893656382e-05,0.0,5788890.95416,680.318734831,649.251314366,66916652.8651,1731.55857437,35347386.6484,69340842.723,4474.52875088,4466.07797525,0.0
1.06654971096,0.891093589621,9.75546255682e-06,-36870272.022,1.56919858292e-05,0.0,5811165.05186,679.883622986,648.566300113,66961111.8556,1716.1202399,34683883.0458,70230543.9903,4427.24785019,4418.78323454,0.0
1.09975988316,0.745506695178,1.03383408614e-05,-19940902.1144,2.04311730524e-05,0.0,5637912.93429,681.619844178,650.786083089,66452893.1922,1757.684605,38646631.8733,68385296.5337,4565.103275,4555.4472409,0.0
1.1660264554,0.590616839927,9.77113896309e-06,-378174.017233,2.93626885259e-05,0.0,5386483.0758,686.207093624,654.988654612,65706029.0212,1841.59802591,49764328.2672,67626323.5516,4840.17581637,4829.19461173,0.0
1.2504779202,0.793606351279,9.83128192895e-06,19999330.2913,3.29607908497e-05,0.0,21711280.5316,691.143599107,660.263455836,64838467.6092,1942.13276013,64078403.8981,65038225.6251,5190.73384675,5178.8392412,0.0
1.15633543235,0.973680047834,9.72738810735e-06,-4678980.29535,2.1688990243e-05,0.0,5530373.97091,685.269207826,654.369074782,66186025.8605,1831.49658998,47571717.8739,68590928.475,4799.94837968,4789.8986255,0.0
1.06446185368,0.820781815241,1.01595236386e-05,-36204888.2225,1.65368685325e-05,0.0,5796339.56862,679.494237884,648.431334246,66907858.1768,1713.44159333,34626225.7601,70071008.9556,4418.58115463,4410.14919337,0.0
1.13741940769,1.0569344529,1.03784278603e-05,-10030246.4213,1.99171608448e-05,0.0,5606958.16439,683.599626927,653.150430696,66410295.7661,1808.84940122,44206970.8737,67995971.0175,4721.42796132,4712.25463266,0.0
0.963970357133,0.721454801876,9.8285392431e-06,-94099180.807,1.57876195958e-05,0.0,6021203.35012,684.349359384,642.024035193,67425089.0797,1612.68952057,69119088.9466,69346226.7294,4001.44095246,3994.37988437,0.0
1.18031854215,0.95758234429,1.03206379658e-05,3807575.65581,2.33691475724e-05,0.0,5631896.89751,686.416831025,655.820620055,65535197.036,1857.4834822,51724200.9842,66837557.5121,4899.50226846,4888.05447521,0.0
1.18292205145,1.0174762757,9.88201397771e-06,4087693.30878,2.18331601881e-05,0.0,5981070.0369,686.721232415,656.019208999,65824169.0371,1862.7584254,52289723.8574,67102624.8091,4910.30943557,4899.57266884,0.0
1.15289931398,0.759414886985,1.01129572338e-05,-4128873.75176,2.4234375487e-05,0.0,5498142.72432,684.770938925,654.048079152,66056823.329,1826.2973153,47679784.8633,68006278.4523,4785.68505233,4775.46420277,0.0
1.09839095806,0.905684717927,9.78802976758e-06,-23700193.1028,1.77820589293e-05,0.0,5734807.17836,681.76974045,650.688122252,66764482.0201,1758.48498263,36996082.627,69171551.2627,4559.42086691,4550.65056522,0.0
1.17306009646,0.686832514826,1.05083335451e-05,2821060.8361,2.88071245038e-05,0.0,5315657.14091,686.098657284,655.381702242,65437519.3594,1848.86872311,51110998.8007,66754655.6464,4869.37246041,4858.07226824,0.0
1.03972206911,0.862952903745,1.03606937641e-05,-50054221.2325,1.51796573663e-05,0.0,5817709.93076,678.126753082,646.814565738,66947875.9403,1679.17701639,37562563.4858,70792787.4286,4315.88630888,4307.26771705,0.0
1.0297608801,0.731034949412,1.00763370403e-05,-60575037.5461,1.59689925235e-05,0.0,5843233.78403,678.073080044,646.22058221,67010445.2262,1666.02315747,43022101.1842,70855462.2139,4274.5374133,4266.08007578,0.0
1.03649295011,0.869917667815,9.78695190551e-06,-56950767.0322,1.49844834286e-05,0.0,5896350.62524,678.441396,646.670483479,67193218.2814,1677.38053928,40955817.2192,71033418.2011,4302.48223591,4295.05560367,0.0
1.09927890469,0.989809616089,1.01309992205e-05,-22672833.0627,1.72566738914e-05,0.0,5720387.11932,681.583628322,650.775211897,66716563.7928,1759.3953162,37251035.0479,68614228.1625,4563.10673337,4554.32256507,0.0
1.19917388443,1.09715331844,9.91421192013e-06,8409065.50737,2.15290532395e-05,0.0,9824145.29987,687.706208386,657.065792134,65545644.2732,1881.04461124,54913296.2186,66764936.1446,4977.77079427,4966.41385704,0.0
1.03968398443,0.921433628546,1.00851624136e-05,-52850485.4981,1.46881252406e-05,0.0,5833518.5852,678.378665723,646.847827149,66995686.7106,1679.27683983,38755772.1604,70947877.1972,4315.72821937,4307.19941727,0.0
1.05089899541,1.00654667783,9.93930442235e-06,-44996147.2325,1.41354041146e-05,0.0,5819633.4722,678.9373928,647.564888247,66966596.5938,1693.80713389,35880479.1385,70524589.1203,4362.28172995,4353.53958787,0.0
1.20780224672,0.991546482178,9.64168269834e-06,10216071.7107,2.39308108319e-05,0.0,11602390.7949,688.376896701,657.570827006,65546577.0464,1892.6280725,56349997.5035,67187945.6279,5013.58712613,5002.40227631,0.0
1.09724773535,0.872211410479,1.00965203077e-05,-23357720.4398,1.84199268796e-05,0.0,5719328.41536,681.522009898,650.628791372,66708506.6245,1756.85177472,36977626.9219,68987597.1292,4554.67534944,4545.92314246,0.0
1.1252674533,0.873886537839,9.7574977065e-06,-13524656.5352,2.03874634994e-05,0.0,5634823.98532,683.347315368,652.349064502,66480368.766,1792.19277761,42154428.4714,68483349.4745,4670.98519865,4661.49175908,0.0
1.08737281725,0.866591387011,1.00838358894e-05,-26689451.491,1.76483729401e-05,0.0,5748053.12345,680.95611764,649.99398324,66795885.8439,1743.95789143,36039479.9303,69240849.8686,4513.6845644,4505.08706426,0.0
1.07784275456,0.768565735576,1.01955108556e-05,-29671625.3755,1.82414409458e-05,0.0,5763460.26844,680.362820541,649.381908576,66830454.9768,1731.54057869,35451518.9916,69222065.3093,4474.12527418,4465.6752683,0.0
1.21163551905,1.10932732941,1.00297309839e-05,11045615.5398,2.25188701051e-05,0.0,12339403.9283,688.378351128,657.780880492,65280954.3222,1894.96206258,56820297.8441,66455294.9785,5029.49903958,5017.55949445,0.0
1.1158899243,0.848612269861,9.78806257009e-06,-16062562.1997,1.96865381004e-05,0.0,5623514.61757,682.80113579,651.737643556,66417759.4385,1778.51106379,40813713.1724,69348402.8765,4632.05907577,4622.12718642,0.0
1.24586095138,1.09232502035,9.9172029849e-06,18662011.5775,2.54812952443e-05,0.0,20240400.3132,690.61126535,659.951507884,64873251.5527,1934.97714757,62952807.7545,66097152.1496,5171.56880918,5159.23031893,0.0
1.23782451771,0.675572904235,9.87437585789e-06,17272290.8398,3.5128455457e-05,0.0,18763432.8941,690.402232331,659.445508309,64936060.4525,1927.99435403,61927820.2788,66835312.1318,5138.20957301,5126.53893302,0.0
1.09493775888,0.974257978358,1.02201986291e-05,-23769040.8759,1.71164883671e-05,0.0,5728177.88396,681.24167312,650.466480286,66734515.249,1753.74445613,36820810.1083,68943866.9127,4545.08663711,4536.37072075,0.0
1.11067639619,0.950824956495,1.02083300498e-05,-17086521.2517,1.84548400838e-05,0.0,5657129.59757,682.145354548,651.438446297,66531981.6537,1772.67367706,40156988.8482,69111596.2868,4610.41772058,4601.06363349,0.0
1.07759229082,0.809733833987,9.6649085107e-06,-31751967.1225,1.73416944996e-05,0.0,5792462.6686,680.516187651,649.227437396,66921283.1491,1731.18707512,35178286.3172,69720371.5382,4473.08559919,4464.63930972,0.0
1.05725093515,0.837541725447,9.74591447533e-06,-43665869.4224,1.61558671278e-05,0.0,5792302.44111,679.499184906,647.944933813,66892605.8986,1702.16976002,35493883.2377,70275759.9118,4388.64863181,4379.65367826,0.0
1.14993028118,1.29143571548,9.52940203487e-06,-6853122.84083,1.62790363452e-05,0.0,5566706.49985,684.798461867,653.921623156,66282662.6998,1822.01523415,46546774.946,68859884.2091,4773.36059718,4763.02990009,0.0
1.04327558408,1.0240511431,1.0587097725e-05,-46495835.3602,1.39063499478e-05,0.0,5819082.49386,678.037411008,647.071584809,66959240.7711,1684.1744064,36284703.2439,70076149.1383,4330.63694952,4322.19581806,0.0
1.07991940882,1.12009930061,9.99257266474e-06,-29674636.5399,1.4111797896e-05,0.0,5789437.07778,680.488884831,649.517357827,66910474.3184,1734.00100617,35549845.6917,69359940.3271,4482.74546601,4474.26398666,0.0
1.13775156361,0.896463927206,9.57278024766e-06,-10766920.861,2.11064797705e-05,0.0,5605123.73246,684.2673717,653.189056065,66394631.2134,1808.49802473,44033660.3813,67797752.0332,4722.80674055,4713.18517767,0.0
1.2454034417,1.21992512187,1.01969924441e-05,18793132.1713,2.38889937027e-05,0.0,20485584.5539,690.340421839,659.928796169,64945310.0453,1934.47833292,63179742.876,65664892.2492,5169.6696865,5157.57843428,0.0
0.994516295733,1.1326336483,9.86934203641e-06,-95659363.0757,1.20399582439e-05,0.0,5988045.47056,678.944681898,643.989458812,67367590.76,1619.58527337,70492679.8532,70732575.7317,4128.23714359,4120.97934192,0.0
1.20512508547,0.894862971332,1.01536969826e-05,9932498.73972,2.63253957e-05,0.0,11265948.3924,688.068990305,657.361504553,65226602.2047,1887.2026972,55889026.5872,66838841.1195,5002.47422979,4990.57486227,0.0
1.08074255749,0.975479781105,9.79774562379e-06,-29992799.0525,1.57228169918e-05,0.0,5789620.06644,680.545944114,649.4383003,66920838.5643,1735.19536193,35547108.2582,69391610.207,4486.16235614,4477.66809531,0.0
1.02943912921,0.881131766592,1.03903050498e-05,-59315731.0652,1.457946356e-05,0.0,5819057.59649,677.708429476,646.180979322,66942213.6951,1664.17790302,42216326.8386,70597749.8273,4273.20182535,4264.32444283,0.0
0.996614822407,1.01687895607,1.02404403264e-05,-95379180.0521,1.35740994149e-05,0.0,5909475.46696,678.395888576,644.108375521,67143068.557,1620.58685569,70246352.0706,70655306.4249,4136.94812781,4128.77560829,0.0
1.02738625349,0.796435839833,1.02806902601e-05,-61258812.8643,1.52744832858e-05,0.0,5844896.64988,677.771064508,646.065800968,67012948.1353,1662.83232663,43434172.6766,70832205.8871,4264.68033824,4256.26125989,0.0
1.11341777149,0.864230635501,1.01192078092e-05,-16202661.716,1.96044700013e-05,0.0,5641285.31191,682.387038649,651.584232137,66479236.9031,1776.15059722,40553895.676,69279602.3086,4621.79716945,4612.29894115,0.0
0.941714607579,1.09041822112,1.0390212757e-05,-92814796.9003,1.27806324997e-05,0.0,6030836.89675,686.413446715,640.576790312,67437770.8223,1604.08980679,67988718.8813,68201428.0497,3909.05733606,3901.74765212,0.0
1.10593311595,1.08012587708,9.97820195878e-06,-20892082.0508,1.63632682416e-05,0.0,5717344.65525,682.033810674,651.194540577,66715154.65,1768.14533035,38074801.2147,68758514.0981,4590.72836431,4581.83904254,0.0
1.00547385517,1.13703551618,9.76179856122e-06,-89477872.4406,1.17635914303e-05,0.0,5957934.76802,677.984078415,644.683946373,67282240.3891,1633.76950835,65118787.0955,71124373.0794,4173.72197281,4166.04839303,0.0
1.07204418566,0.970173240126,9.69115150581e-06,-34065646.9684,1.51654166944e-05,0.0,5815831.74594,680.177774525,648.91790815,66983635.8535,1723.78925162,34809742.5269,70087742.4788,4450.05541467,4441.69581828,0.0
1.08654792241,0.747487527174,9.98504665548e-06,-27257170.5868,1.91433547826e-05,0.0,5745819.27031,681.038930396,649.947586199,66786718.972,1742.99030157,35960077.3816,69265878.9945,4510.26042592,4501.67579799,0.0
1.13345655718,0.909442049859,1.00474684482e-05,-10564491.2453,2.13271839902e-05,0.0,5617845.14901,683.643228407,652.919307342,66441546.2406,1803.4654987,44171320.9328,67792500.8819,4704.97816885,4695.76560166,0.0
1.10902038084,1.08976561358,1.00658820796e-05,-19601850.2701,1.65562317151e-05,0.0,5698647.82507,682.133003195,651.367368309,66659082.5647,1771.70051731,38752479.6393,68894538.064,4603.54360087,4594.50438815,0.0
1.16469134708,0.861826594953,9.82024360479e-06,-812712.610019,2.30896171806e-05,0.0,5432826.11325,685.846970477,654.906233995,65848744.3709,1839.38137394,49566996.0482,67748383.7688,4834.63378173,4823.67670858,0.0
1.19018814648,0.813759149347,9.74907675386e-06,5526396.99607,2.60864987277e-05,0.0,7132747.62107,687.449710753,656.476912734,65602139.0528,1871.20099447,53177060.2301,66828403.7571,4940.47099604,4929.27565952,0.0
1.05509711438,0.896613346305,1.00876999843e-05,-40181648.5593,1.4941218665e-05,0.0,5791698.5759,679.14368408,647.876905925,66869840.7907,1699.10148501,34805911.8099,70088857.5165,4379.70812179,4370.71787177,0.0
1.17310951736,0.930885925201,9.81399868561e-06,1612137.60057,2.24835003775e-05,0.0,5408526.84591,686.290765096,655.423348659,65774707.6572,1849.54865536,50875967.3498,67318299.5804,4869.57760656,4858.4638909,0.0
1.02469363733,1.02017036702,1.00090434144e-05,-65919132.7039,1.33284860675e-05,0.0,5924734.60528,677.781531098,645.902454227,67260800.4809,1661.59124363,46577724.9266,70931900.3473,4253.50328856,4246.24446539,0.0
1.14646191605,0.925643865315,1.00249875374e-05,-8106171.06161,2.23967700568e-05,0.0,5582000.94389,684.382214456,653.685985775,66335799.9303,1820.59708952,45421677.8965,68450238.029,4758.96341352,4749.62093695,0.0
1.07191550564,0.794028770635,1.03313752592e-05,-31762534.0749,1.76667461879e-05,0.0,5768481.54965,679.891469977,648.969731435,66831964.3223,1723.38687683,35086484.5554,69357687.3563,4449.52126391,4441.06733077,0.0
1.14371378915,0.79605962698,9.91650648098e-06,-8648815.43106,2.36354437355e-05,0.0,5530259.73491,684.352239749,653.419910476,66156652.4584,1815.08111138,45049568.2262,68250438.9369,4747.55593876,4737.42200994,0.0
1.11641941966,0.799030524886,9.90432877819e-06,-15876545.9261,2.07530791371e-05,0.0,5655993.46497,682.719915341,651.774777468,66526217.1076,1781.06379867,40846418.9489,69391565.5586,4634.25701101,4625.00823369,0.0
0.989417778123,0.861111664312,1.04622955036e-05,-95013098.1588,1.45503540924e-05,0.0,5910851.12401,678.730688923,643.645908095,67139166.3364,1611.17201179,69923972.1312,70172522.462,4107.07319699,4099.01619333,0.0
1.12028323009,0.845424023381,9.95311349321e-06,-14590976.8679,2.04794159742e-05,0.0,5592030.16923,682.979494236,652.002262005,66325732.3825,1783.95068619,41476417.8838,68461859.289,4650.2956881,4640.19010602,0.0
1.07286126203,0.954048384912,9.76963788104e-06,-33442659.2767,1.54267268471e-05,0.0,5809690.83154,680.149653458,648.951808799,66967420.9893,1724.86536025,34874148.6721,69977514.4181,4453.44709869,4445.07489032,0.0
1.13609096642,0.831000230991,1.00819285687e-05,-10644102.1436,2.29137595223e-05,0.0,5601320.97087,683.850126678,653.086010158,66376808.3757,1807.2016081,43925199.1257,67820054.3496,4715.91360161,4706.65599884,0.0
1.13755987433,1.0133372099,9.84212582833e-06,-9474520.51142,1.96344577307e-05,0.0,5594554.94173,684.008548584,653.173403765,66362575.4964,1807.46529314,44912604.3441,68011771.5677,4722.01103834,4712.2924559,0.0
1.09169445008,0.925463190069,1.00629906354e-05,-25327104.1729,1.72769520624e-05,0.0,5740940.10358,681.144387213,650.223866028,66780349.9394,1749.56134332,36409799.3012,69167538.2062,4531.62366228,4522.95859551,0.0
1.08552436354,0.956258998308,9.86322033108e-06,-28046541.4461,1.63132264314e-05,0.0,5768628.52544,680.985075051,649.891276053,66853577.2765,1741.47683791,35871757.8328,69353166.6641,4506.01163305,4497.44296644,0.0
1.22101743189,0.727049987024,1.01319908788e-05,13354068.7536,3.20307477476e-05,0.0,14550200.8163,689.317510324,658.417169268,64938817.3566,1906.6155245,58613409.7157,66281296.8225,5068.44335978,5056.34943516,0.0
1.10418237111,1.06936602787,1.01442533534e-05,-21181596.3009,1.6589797385e-05,0.0,5711594.90123,681.825860123,651.082556717,66698675.4112,1765.68399596,37884370.8098,68679440.7595,4583.46102248,4574.59950031,0.0
1.06733686537,0.731072786649,9.96119040892e-06,-35641716.8068,1.77088810879e-05,0.0,5790748.23138,679.838174479,648.617665902,66903585.8578,1717.28032854,34662463.3233,70056610.6767,4430.51532815,4422.0383879,0.0
1.14263284082,0.733476552002,9.81576391947e-06,-7924575.05337,2.45788835505e-05,0.0,5531508.51637,684.358645944,653.356934883,66173959.1835,1813.46828475,45814548.0129,68292774.4184,4743.06892224,4732.95738735,0.0
1.17733218422,0.97269175057,1.01092003324e-05,1854968.361,2.39612129153e-05,0.0,5437880.99444,686.348369171,655.690836712,65878581.1884,1857.41358267,50883969.0499,66955891.2819,4887.1058967,4876.80814356,0.0
1.18023948057,0.96343190813,9.93329323583e-06,3247943.8759,2.25787048756e-05,0.0,5386608.761,686.621879149,655.849339453,65715888.6987,1858.52736966,51681103.4417,66978505.2521,4899.17408385,4888.04240009,0.0
1.19992524415,0.988914332838,1.00686753032e-05,9208355.20996,2.38097111428e-05,0.0,10632229.309,687.698191302,657.109137667,65515821.2747,1882.31493261,55476960.3408,66836325.1515,4980.88968847,4969.73736877,0.0
1.1765787188,0.690148746846,1.04541298903e-05,3322061.03562,2.88786140647e-05,0.0,5474221.34367,686.291548165,655.606852281,65541756.8063,1854.34750716,51474612.4658,66766765.2847,4883.97826174,4873.0177612,0.0
0.999489637786,0.867878906999,9.63762800768e-06,-95911966.5119,1.45598375828e-05,0.0,5990866.84654,679.042804319,644.31798994,67396519.7382,1627.5475112,70715215.4473,70962411.6098,4148.88148645,4141.97864206,0.0
1.2422477834,1.24836925453,1.01818286475e-05,18116394.2943,2.30618300522e-05,0.0,19771684.6132,690.129607187,659.73744006,65004644.4043,1930.83497938,62628808.1019,66936829.1036,5156.57054889,5144.53730167,0.0
1.13590949491,0.945061818415,9.95639620037e-06,-10821517.2729,2.06299357536e-05,0.0,5589651.7655,683.905327286,653.066209521,66346453.8861,1805.80503632,43943123.0947,67708693.9884,4715.16031337,4705.46423589,0.0
1.0350660929,0.877627062213,1.01391939183e-05,-55365689.0262,1.48693041448e-05,0.0,5837509.0662,678.154730045,646.556078852,67003072.8892,1672.97708145,40030641.2435,70959856.9999,4296.55935163,4288.01628507,0.0
1.2258076055,1.11810578961,1.04480007289e-05,14720818.5449,2.4252221506e-05,0.0,16152250.0847,688.896665955,658.651831146,65196015.2545,1912.43836257,59862790.7721,66715904.3921,5088.32737043,5076.80068245,0.0
1.14472384069,0.753185869882,1.04853767728e-05,-8235132.78674,2.57359487296e-05,0.0,5447013.64062,684.307668936,653.565862734,65891887.2953,1815.14439699,44811304.8087,68063225.0718,4751.7486627,4741.10209279,0.0
1.08800242171,0.782538251022,1.0231661804e-05,-26065846.5654,1.90558667239e-05,0.0,5738534.06887,680.909171857,650.017600098,66757574.302,1745.1493997,36170453.1406,69155571.0916,4516.29805252,4507.76396669,0.0
1.09583876707,0.999057273579,9.71317435621e-06,-24561251.1864,1.62035338627e-05,0.0,5725614.99779,681.625286169,650.483870312,66721228.6641,1753.77184223,36674845.7136,69306569.8191,4548.82672211,4539.60868049,0.0
1.11976362058,0.996320026126,1.05251960451e-05,-14250877.9929,1.92194605972e-05,0.0,5554875.87868,682.545424159,651.970754119,66209185.1206,1782.33527745,41589585.9505,68097206.5582,4648.13878903,4637.7526002,0.0
1.12186615437,0.797592391715,1.01129499534e-05,-13752422.2237,2.1412675904e-05,0.0,5597881.78291,682.973371792,652.1248659,66354491.878,1786.89919936,42098314.5768,68146657.8178,4656.86640679,4647.12863829,0.0
1.08556094957,0.750898935251,1.01653303095e-05,-27027239.4768,1.91398905215e-05,0.0,5741409.41957,680.848467631,649.880971246,66773941.6636,1741.67808927,35925017.4128,69198742.9049,4506.16350167,4497.59426474,0.0
1.21113186204,0.824276356379,1.01401273207e-05,11238823.4957,2.83307514241e-05,0.0,12554141.0027,688.513645971,657.756341167,65172258.8795,1895.04022057,56927809.8902,66166266.6307,5027.40835933,5015.58738149,0.0
1.14691178389,0.988437558654,9.84056222054e-06,-8411832.9629,2.12133458051e-05,0.0,5594831.628,684.518150512,653.719443696,66373632.1663,1821.21732649,45346714.755,68449283.2954,4760.83081493,4751.47946434,0.0
1.00436895717,1.08240131342,1.01646245182e-05,-89858437.7554,1.24572187506e-05,0.0,5950087.70019,677.585112654,644.613869225,67270722.1178,1632.94974836,65435309.0108,70910008.0245,4169.13554121,4161.73464839,0.0
1.06570593587,0.9132619927,1.01726481167e-05,-35589050.3343,1.56044584219e-05,0.0,5798515.33277,679.51673189,648.511481526,66917566.0108,1714.99787915,34645921.488,70006153.1693,4423.7453398,4415.29392712,0.0
1.1280018024,0.594180096424,1.01815642103e-05,-12142165.9982,2.64158995651e-05,0.0,5545599.74926,683.500241793,652.531002038,66186381.1774,1795.27285071,42946085.9595,67122631.1723,4682.33548176,4672.49374578,0.0
1.0683190721,0.759765619728,1.00924438539e-05,-33920743.9051,1.75620450036e-05,0.0,5785197.62963,679.766069979,648.67717793,66879604.0399,1718.35234695,34801323.8669,69823502.6159,4434.59246829,4426.10043269,0.0
1.13291368859,0.915708483919,9.92736590291e-06,-10901178.2189,2.10467004196e-05,0.0,5625925.41463,683.685992074,652.886427814,66463242.8251,1802.80344638,43951082.529,67722429.5966,4702.72472134,4693.52082127,0.0
1.07443737437,0.872119424342,1.03116715824e-05,-30678050.2655,1.69189918741e-05,0.0,5767517.41495,680.037040434,649.148788267,66833405.7441,1726.649871,35226894.6566,69218624.3954,4459.98954101,4451.49629426,0.0
1.00494690116,0.933857166177,1.05646615708e-05,-85578754.5462,1.42448264252e-05,0.0,5871551.89735,677.249533138,644.629812296,67044250.5605,1631.82392136,61784714.916,70504248.5205,4171.53458672,4163.22750378,0.0
1.13730600577,0.905857694881,9.86895988998e-06,-10589196.8345,2.12488344209e-05,0.0,5585785.26377,684.064066707,653.154651193,66334246.5539,1807.66097012,44028453.8193,67773202.638,4720.95722995,4711.2379376,0.0
1.04138349034,0.967795208033,9.97201357812e-06,-52266004.0848,1.43248882236e-05,0.0,5836412.62834,678.530984257,646.95607665,67005907.165,1681.47693135,38519864.3873,70883018.9805,4322.7828684,4314.22666441,0.0
1.10183681372,0.992966874017,1.00220561636e-05,-19904196.5978,1.69216899112e-05,0.0,5668188.56446,681.827088986,650.923428744,66547045.3946,1760.11940261,38718600.6281,68518835.4283,4573.72461375,4563.98650774,0.0
1.07968009398,1.04766919617,1.02938894445e-05,-28964779.8379,1.52193599859e-05,0.0,5777257.36342,680.30907478,649.518439793,66881773.3736,1734.08462548,35582600.7455,69241414.5613,4481.75207011,4473.37086631,0.0
1.10591613452,1.13729217746,1.01938927455e-05,-19989498.2545,1.56887158784e-05,0.0,5686805.33571,681.85604729,651.171011892,66620194.5471,1766.57608759,38745003.4828,68731429.6775,4590.65787439,4581.37229072,0.0
1.01856540297,1.0199068672,9.84783154443e-06,-75033483.6043,1.32360486805e-05,0.0,5946712.35077,677.870044416,645.524875644,67308984.4195,1653.39339309,53255425.0111,70899459.6357,4228.06498773,4220.89341088,0.0
1.09236813853,0.989210839095,1.04168757944e-05,-24253903.2164,1.69995016299e-05,0.0,5733244.59049,680.934100421,650.288393811,66755625.6239,1750.71453353,36669438.0059,68933832.8741,4534.42014304,4525.84292741,0.0
1.00630743523,1.00285485085,1.04747693636e-05,-85077221.0386,1.37521569039e-05,0.0,5875428.28387,677.330189219,644.718696642,67057109.3761,1633.58121971,61376681.2179,70535499.501,4177.18216364,4168.85367836,0.0
1.25266091671,1.00829477591,1.04838523016e-05,20764971.543,2.9898466998e-05,0.0,22663275.0406,690.785761345,660.379500736,64756283.3663,1943.06204828,64734006.0838,65537158.8627,5199.79546526,5187.81714859,0.0
1.0432166867,1.1235080154,1.00886026487e-05,-49772869.2895,1.29166515638e-05,0.0,5837966.69106,678.434451402,647.059621737,67017450.6913,1683.82190896,37384528.5905,70988781.551,4330.39246649,4321.80666521,0.0
1.19949539059,0.649701603034,9.58501160018e-06,7826657.17617,3.12325395974e-05,0.0,9314012.30475,688.344369913,657.10665916,65402081.6393,1882.79951688,54527857.7775,66572750.7772,4979.10536634,4967.71802094,0.0
1.19978323519,0.764197563613,1.04057788122e-05,9264376.60412,2.92310188174e-05,0.0,10600695.0308,687.671973286,657.081069517,65346290.9121,1882.41909788,55318377.4117,66667974.9873,4980.30020927,4969.15574439,0.0
1.10399229666,0.94374949349,1.01751403283e-05,-21146880.0168,1.82447551778e-05,0.0,5701151.01714,681.850489422,651.068940741,66667407.7382,1765.57133177,37890760.3831,68645470.7626,4582.67202344,4573.81350491,0.0
1.12664034047,0.907706687413,1.03781610391e-05,-12224351.1921,2.0587911529e-05,0.0,5579297.61045,683.075459319,652.444263005,66292929.611,1793.00275264,42854930.8086,67202409.7924,4676.68405329,4666.86533093,0.0
0.938888021619,0.810501729683,9.78366014807e-06,-92977086.8076,1.49360885474e-05,0.0,6084253.84336,688.328089994,640.4077485,67584114.237,1609.41202326,68131303.0899,68344043.2759,3897.32417774,3890.65526388,0.0
1.1135476887,1.09014975889,9.79131766508e-06,-18765586.6069,1.66095834485e-05,0.0,5699000.13776,682.577337869,651.648870096,66677305.856,1777.72598635,39324552.8806,69083380.0202,4622.33645579,4613.224553,0.0
1.06140572452,1.01839082578,9.98313608781e-06,-38351792.3401,1.41669304225e-05,0.0,5823147.0628,679.384118775,648.233602011,66992313.1812,1709.25569056,34691679.6205,69987352.3152,4405.89516248,4397.51090639,0.0
1.05226303942,1.00316078525,9.73876267245e-06,-43113856.9564,1.37233071135e-05,0.0,5846923.81984,679.114405822,647.657221972,67044510.7857,1696.55564345,35411814.3864,70711707.9014,4367.94387663,4359.51922768,0.0
1.14684268909,0.881510983844,9.94866781723e-06,-8169315.83271,2.30985263822e-05,0.0,5580485.81443,684.491832515,653.707482166,66332505.4005,1821.17851047,45413609.943,68446684.8039,4760.54400241,4751.19543115,0.0
1.09882244058,0.794378435938,1.01138965463e-05,-22787324.7213,1.9641669798e-05,0.0,5707670.36302,681.657791215,650.746155839,66676147.7368,1758.98899512,37180508.5031,68670852.0208,4561.21195085,4552.43420927,0.0
1.0458801445,0.966655253967,1.01512735569e-05,-48014753.8568,1.45176318529e-05,0.0,5819431.57996,678.587046696,647.242587897,66966388.7147,1687.47430057,36762050.6524,70589306.4588,4341.44847982,4332.81943625,0.0
1.07298564872,0.959551610542,1.01593869985e-05,-31590575.418,1.55989450904e-05,0.0,5783253.66669,679.832036014,648.914279682,66884826.0738,1724.34548229,35157440.7135,69477852.6337,4453.96342784,4445.3981193,0.0
1.10252930218,0.845750327571,1.03861323207e-05,-18755895.2427,1.90349890129e-05,0.0,5662707.25732,681.621194206,650.955107874,66532974.6651,1761.99789737,39244145.6698,72763313.6984,4576.59913335,4567.2825334,0.0
1.06250814477,0.878588629349,1.03271785428e-05,-36807644.2995,1.59486451009e-05,0.0,5801905.04131,679.240528656,648.305318085,66928577.7261,1711.13751792,34606213.8639,70013522.9713,4410.47130894,4402.16311704,0.0
1.12190911636,0.944433304401,1.02114633715e-05,-13801558.8003,1.94660809457e-05,0.0,5607194.036,682.845827435,652.12701785,66365860.5207,1786.95212581,41976102.2667,68119805.7089,4657.04474201,4647.30490924,0.0
1.08234019036,1.04851904092,1.00999414257e-05,-28434011.5328,1.51460192117e-05,0.0,5773827.68383,680.599402086,649.689629295,66868053.3681,1737.22054398,35706298.3412,69296031.2431,4492.79413018,4484.27503949,0.0
1.0967116355,1.06349425732,1.00163715886e-05,-23810662.05,1.59689081132e-05,0.0,5738871.70394,681.443412901,650.581990126,66780776.8263,1756.00355449,36881812.8718,69069548.5656,4552.44999896,4543.70546207,0.0
1.04913294903,1.11090405566,9.69231507888e-06,-48142283.1597,1.29725746506e-05,0.0,5833512.5641,679.041411138,647.449299442,67007134.1533,1691.14968941,36841992.2034,70504068.309,4354.95087142,4346.0916454,0.0
0.991751750228,1.05240011352,1.03347395717e-05,-95174521.184,1.31293361731e-05,0.0,5920798.15242,678.683087993,643.797547068,67170810.4641,1614.07523189,70066097.419,70313000.4489,4116.7615152,4108.66692264,0.0
1.19894373308,1.10432771004,9.90996435953e-06,8286985.03833,2.13873673779e-05,0.0,9708957.58986,687.695545258,657.056667912,65551602.9222,1880.77013865,54887693.6172,66759540.2372,4976.81543602,4965.46264684,0.0
1.06588378094,0.876834717352,9.94374435373e-06,-36413249.8593,1.59009031092e-05,0.0,5804719.20496,679.710741379,648.523579173,66943342.7411,1715.27372143,34655871.5802,70190789.0358,4424.48357468,4416.02937988,0.0
1.04135347499,0.631544070432,9.98236163953e-06,-52089892.4631,1.76429115343e-05,0.0,5814437.26083,678.656399839,646.950479368,66939171.355,1681.67786282,38445053.881,70843401.7831,4322.65827468,4314.10255495,0.0
1.24162864213,1.08906157203,9.88081153265e-06,17365024.8428,2.50506809847e-05,0.0,18978758.9356,690.413730932,659.703738504,64884166.4474,1929.90028474,61970242.6075,66998832.0473,5154.00049348,5141.51441648,0.0
1.09481830728,0.951426651336,9.40746279091e-06,-25821307.9305,1.65762786569e-05,0.0,5759415.36992,681.782921128,650.441190176,66836657.6408,1753.45039717,36463444.5149,69454725.0817,4544.59079352,4535.7783551,0.0
1.07815738801,1.15067862096,1.01202890191e-05,-31077518.2081,1.40297578069e-05,0.0,5796553.04988,680.290707523,649.403093782,66942848.9239,1732.27372696,35205897.577,69305297.3881,4475.43131763,4467.17041772,0.0
1.05596755974,1.28318570907,9.9864821795e-06,-41980466.5723,1.17444740684e-05,0.0,5832355.90016,679.017337208,647.862090761,67013463.8164,1700.99542485,35153478.783,70236219.9079,4383.32134048,4374.67535693,0.0
1.05826622223,0.913772689175,1.04453159279e-05,-38303535.6321,1.53739440054e-05,0.0,5809449.63733,678.903753116,648.027914817,66946588.5964,1705.46217001,34654512.896,69778015.4859,4392.86308848,4384.62183503,0.0
1.04139204412,0.941351149044,1.00607486775e-05,-51554384.3017,1.45675920517e-05,0.0,5831699.92772,678.447817256,646.940821903,66993429.3567,1681.52493003,38205158.2462,70834856.7108,4322.81837514,4314.26203314,0.0
1.27760410359,0.947820845701,9.51248130696e-06,23994439.3012,3.04268187797e-05,0.0,25809322.7316,692.987597288,661.95655726,64301806.9444,1970.94640856,66876476.8021,67847778.4298,5303.334634,5290.08731384,0.0
1.06361571753,0.724120251377,1.03714783277e-05,-36101079.5904,1.77388857303e-05,0.0,5788146.04571,679.327448102,648.378394862,66889504.5267,1712.71064216,34590085.1831,69935232.6005,4415.06884347,4406.74351833,0.0
1.11941944472,0.781544867898,1.00510939362e-05,-14590747.6961,2.14356082291e-05,0.0,5583691.50254,682.90118124,651.945399085,66301623.3202,1782.89589829,41424610.2209,68437303.3596,4646.71011503,4636.61953467,0.0
0.992563387027,1.103109449,9.75551145911e-06,-95407436.2155,1.28790204159e-05,0.0,5993062.88999,680.19505286,643.867406538,67393807.276,1619.71895029,70270853.5007,70515516.1156,4120.13061955,4112.97861615,0.0
1.18798762212,0.991988648047,9.62436783626e-06,5264613.73076,2.22225667712e-05,0.0,6916977.44218,687.222008593,656.331632561,65715773.984,1868.07750496,53212807.6839,66983936.8983,4931.33661942,4920.18042463,0.0
1.0110460313,0.933684488256,9.66020826567e-06,-85968030.8384,1.39029049884e-05,0.0,5969279.71318,678.121890828,645.051228714,67345063.219,1643.25358605,62134258.1569,71068857.3849,4196.85207593,4189.78693501,0.0
1.14520578664,1.03561645477,9.72863890437e-06,-7736570.12149,1.97591438648e-05,0.0,5583603.28258,684.449222057,653.601092686,66342933.0592,1817.53517982,45982502.4252,68520874.5553,4753.74922034,4744.00596723,0.0
1.09363206672,0.711538194146,1.02009037733e-05,-24173564.361,2.05367088651e-05,0.0,5712871.13896,681.283400009,650.365420085,66685362.8665,1752.27217926,36644141.2966,68909222.9751,4539.66670895,4530.97127826,0.0
1.00509505996,0.848832483981,9.86964720442e-06,-88723646.6315,1.40188133905e-05,0.0,5940061.79262,677.936644786,644.662991819,67228114.2932,1633.44368475,64469873.0961,71112329.4336,4172.14959389,4164.48175985,0.0
0.995199548719,0.934430637921,1.03293206969e-05,-95284795.7147,1.42040338721e-05,0.0,5904950.19974,678.373263439,644.016692651,67128316.022,1618.76094354,70163251.7373,70566138.761,4131.07332673,4122.92468522,0.0
1.04924125761,0.937176651144,1.0230860549e-05,-45698948.8475,1.49131785612e-05,0.0,5804420.69862,678.69198294,647.452208389,66924231.4794,1691.78713727,36089968.9595,70397800.2928,4355.40046034,4346.62801315,0.0
1.09229824989,0.876530260783,1.00865607892e-05,-25030938.5176,1.79269999596e-05,0.0,5734736.44208,681.184563866,650.261876259,66762438.5306,1750.39344092,36491364.726,69117154.1779,4534.13003529,4525.45551118,0.0
1.01727032985,0.807688825244,9.80246030397e-06,-76971528.4728,1.50088820765e-05,0.0,5942225.28982,677.964752309,645.447408613,67290953.2928,1651.75711721,54774691.8158,71294344.7409,4222.68913921,4215.53577514,0.0
1.05060757098,0.760100631061,9.6504597816e-06,-45552948.075,1.61906850399e-05,0.0,5820239.38461,679.224956555,647.536162413,66961507.0432,1693.67196284,36000577.0022,70660183.3269,4361.07202714,4352.33295185,0.0
1.22539995074,1.03759482625,1.03212155456e-05,14333230.5353,2.54145204465e-05,0.0,15764888.2639,689.174561351,658.705137064,65062121.167,1911.21358774,59534908.1586,66576085.7295,5086.63519552,5074.68477766,0.0
0.968240290892,0.966278458202,1.06234156837e-05,-94073312.4926,1.38157563451e-05,0.0,6003574.42306,681.853677298,642.296549655,67400106.5552,1608.91013463,69096346.3027,69322989.5056,4019.16544749,4012.36236717,0.0
1.24082841436,0.968762068467,1.00936563465e-05,17879755.6395,2.81209191272e-05,0.0,19492035.9353,690.298667925,659.656987847,64914834.3366,1929.72799188,62376562.3939,67054551.551,5150.67874801,5138.64272936,0.0
1.08981493178,1.21176587024,1.02410084957e-05,-25461275.3209,1.3947286051e-05,0.0,5758583.39771,680.799358178,650.108894069,66818110.0001,1746.86344866,36297866.2497,69161734.6053,4523.82178182,4515.186127,0.0
1.10231999242,1.10572538859,1.00568972474e-05,-21996349.6671,1.59059393853e-05,0.0,5723845.98102,681.766193857,650.974057461,66730395.1689,1763.25656356,37569600.2958,68588221.9778,4575.73028854,4566.8981786,0.0
1.18541790532,1.01352375758,9.85294351137e-06,4733115.01499,2.2054293853e-05,0.0,6385360.74095,686.953666549,656.149885463,65604351.3196,1863.76070588,52633955.6858,66938582.5635,4920.66972498,4909.14065097,0.0
1.05639641569,0.928054893234,1.05840045841e-05,-39815795.7795,1.54757192189e-05,0.0,5785559.77965,678.751510196,647.895272153,66875581.9204,1702.00957441,34674985.8219,69538179.8302,4385.10152153,4376.48249687,0.0
0.997687900058,1.04323048285,1.01222563046e-05,-95456472.5995,1.33666347096e-05,0.0,5913200.19573,678.53634041,644.177952111,67154305.3689,1621.96436438,70314403.9846,70720727.4632,4141.40247314,4133.21247071,0.0
1.02859296769,1.01927402888,9.99902671074e-06,-61187650.588,1.34291801484e-05,0.0,5915256.82678,677.922076717,646.165459092,67238690.0336,1666.78179573,43378551.0515,71030375.0354,4269.68940888,4262.37483799,0.0
1.22738264224,1.11044943493,9.56839338725e-06,13915005.3188,2.30520542942e-05,0.0,15361430.9613,689.669671708,658.834514887,65189696.8373,1914.20527623,59226818.9846,66658644.5832,5094.86534794,5082.75573555,0.0
1.04095284207,0.843880812739,9.84714456052e-06,-51779260.3272,1.53369804947e-05,0.0,5829382.71814,678.65822794,646.927867051,66984168.2117,1680.51658448,38287629.5548,70871708.6083,4320.99524743,4312.27055679,0.0
1.22322098908,0.986377143665,1.00809736019e-05,13521615.9686,2.59970325903e-05,0.0,14848830.8774,689.238221629,658.559469133,65059381.2126,1908.70981901,58857526.5365,66459162.479,5077.59032567,5065.45517077,0.0
1.02288631179,0.919395384962,9.87582747118e-06,-69471173.6341,1.41635661404e-05,0.0,5929900.42294,677.919603091,645.801118844,67270176.0138,1659.21177602,49083541.5076,70898978.5517,4246.00108024,4238.76803432,0.0
1.20926658437,0.985516429005,1.03662393649e-05,11432653.4497,2.50996138432e-05,0.0,12645773.7516,688.07515305,657.654620991,65342346.8419,1893.26994776,57028147.9858,66410025.6739,5019.66559172,5008.35012739,0.0
1.10218937048,0.984464010331,9.69401309613e-06,-22546962.836,1.70588357098e-05,0.0,5727819.59157,682.05840757,650.960511647,66744137.4671,1763.04009926,37397394.0235,68894409.7966,4575.18807686,4566.25856351,0.0
1.02161547438,1.05363288315,9.52358701403e-06,-74503184.7377,1.29827898454e-05,0.0,5954623.1915,678.225580397,645.728319377,67337639.6024,1657.38293892,52859171.4596,71089515.3794,4240.72583415,4233.51089033,0.0
1.09036249309,0.89263694864,9.70097111791e-06,-26451126.2898,1.71006323484e-05,0.0,5755324.29621,681.384374247,650.184142065,66822440.8135,1747.65986152,36196717.6968,69380546.9781,4526.09470882,4517.35273703,0.0
1.08465192629,0.880168142604,1.01229570859e-05,-27513037.7713,1.72984684569e-05,0.0,5754951.19927,680.775354977,649.82730858,66813723.7543,1740.38394428,35865342.0586,69253595.9173,4502.39014603,4493.83507454,0.0
1.16287357031,0.990369383892,1.00094954943e-05,-706060.755385,2.09645928416e-05,0.0,5444924.27142,685.522892857,654.78916448,65879244.6359,1836.70690814,49453002.849,67734010.1152,4827.08819036,4816.15949035,0.0
1.01993088898,0.988437781676,1.02396479683e-05,-69719272.5647,1.37631155005e-05,0.0,5868993.48627,677.574039866,645.587384965,67072557.6331,1652.57359776,49244483.5377,70903265.1826,4233.73312016,4225.43400929,0.0
1.1394631772,1.07646968325,9.95870348021e-06,-9178507.0867,1.92437814901e-05,0.0,5614450.82945,683.979408249,653.290566865,66436874.9553,1810.96566109,45109584.2585,68158555.7831,4729.91164856,4720.57667849,0.0
1.08000765956,0.872061083908,1.01246594475e-05,-29145240.8534,1.70565129553e-05,0.0,5767088.8457,680.510919756,649.529812912,66843997.8645,1734.29645463,35587905.2971,69259427.1629,4483.11179483,4474.62894554,0.0
0.951539342901,0.887143263726,9.87541734526e-06,-93591165.241,1.44786599079e-05,0.0,6088630.69706,686.131676096,641.232023199,67630883.4263,1612.6405795,68671818.3657,68892063.772,3949.83981238,3943.58736688,0.0
1.10218016186,1.10523129042,9.83059760396e-06,-22420869.3468,1.56442315769e-05,0.0,5736825.34111,681.910872435,650.965113493,66780039.5013,1763.24952656,37454993.7529,68694595.5688,4575.14985188,4566.3198359,0.0
1.13377831913,0.877117312798,9.80415605776e-06,-11237061.437,2.12960770855e-05,0.0,5598245.62245,683.893622139,652.929347846,66365871.3542,1803.03068523,43670732.2697,67592068.3755,4706.31380271,4696.65339609,0.0
0.973468855222,0.948395486242,9.7716976825e-06,-94720171.4145,1.40821301962e-05,0.0,6043108.80767,682.703768198,642.644737581,67513461.235,1614.6482609,69665618.1893,69900694.1021,4040.86921803,4034.24351002,0.0
1.03986969235,1.00775496722,1.00019968187e-05,-51759930.4987,1.3771678609e-05,0.0,5836125.23668,678.414003735,646.857448626,67005620.8432,1678.97192544,38285439.1724,70831251.6436,4316.49909294,4307.79215449,0.0
1.21303847184,1.16263868659,1.00688705685e-05,11705137.8068,2.16720263851e-05,0.0,12977377.6993,688.376866128,657.896136963,65390397.2492,1897.46090596,57371375.2293,66439842.6898,5035.32269661,5023.80033482,0.0
1.17195058115,1.15269588017,1.00773287694e-05,1714489.20596,1.89599508042e-05,0.0,5457690.68298,685.873378863,655.355062283,65923795.2201,1848.74046981,50808001.4427,67220655.8323,4864.76686235,4854.10636764,0.0
1.13428465262,0.873473043305,1.02753991032e-05,-10676824.3418,2.14060090959e-05,0.0,5560310.0758,683.532812119,652.872099641,66241591.3943,1802.92719361,43878457.9267,67730780.5204,4708.41559303,4698.48452485,0.0
1.05278012797,1.00074263799,1.00271386699e-05,-42341612.8019,1.41269203256e-05,0.0,5829993.71035,678.909898265,647.671420917,66999442.4531,1697.17268452,35218900.141,70593697.5411,4370.0903112,4361.6592014,0.0
1.03788209636,1.13578895041,1.01564880013e-05,-53578334.399,1.24664030823e-05,0.0,5855026.69384,678.126514699,646.713106091,67060394.6245,1677.09391437,39130275.0604,71042470.7843,4308.24858199,4299.83500077,0.0
1.09554069216,1.03580469439,9.91988474358e-06,-24503304.2864,1.61667806725e-05,0.0,5744109.2424,681.422083494,650.482674517,66793020.305,1754.49413027,36685705.572,69131192.342,4547.58941316,4538.86403042,0.0
1.03298408607,0.89458700321,1.013666497e-05,-57249025.518,1.46509080977e-05,0.0,5843418.64432,678.058122215,646.416742823,67015814.8879,1670.20115627,41053430.6404,70985780.463,4287.91694128,4279.40756036,0.0
1.00016922008,1.21369561902,9.68790321411e-06,-95973307.754,1.16809323267e-05,0.0,6004114.58265,678.761573936,644.361604333,67438325.0923,1628.30016907,70768827.971,70999997.7904,4151.70243255,4144.79014616,0.0
0.94870434018,0.910301225098,1.00941895958e-05,-93434294.3973,1.40644526775e-05,0.0,6087600.33823,685.847843431,641.048108587,67625965.859,1609.36229686,68533734.87,68752621.0546,3938.07171609,3931.85734485,0.0
1.19757570736,1.02424590395,1.00611811512e-05,8687778.33897,2.29163052923e-05,0.0,10101239.7298,687.542179586,656.969454015,65554651.3599,1879.39414944,55091585.1493,66771213.1879,4971.13676125,4960.01632805,0.0
1.04524459485,0.796605149311,9.95748248411e-06,-50491071.6534,1.6121117538e-05,0.0,5865404.81126,678.684488232,647.225233868,67112167.3459,1689.14550845,37796155.6476,70849624.9719,4338.81031322,4331.25710055,0.0
1.12209575794,0.946932228947,1.013237303e-05,-13682762.6236,1.93766683705e-05,0.0,5609621.30425,682.896007286,652.1399916,66390916.3893,1787.02961868,42146000.4155,68109787.9087,4657.81949121,4648.07785554,0.0
1.13041825073,1.07089711651,1.04119779669e-05,-11326736.5108,1.86005424425e-05,0.0,5581770.49885,683.106779226,652.624123658,66307208.1066,1797.63734709,43445209.4696,67542130.9277,4692.36615878,4682.48352342,0.0
1.10051607146,0.685285962393,1.02170792622e-05,-21990538.5077,2.17275498321e-05,0.0,5688344.53627,681.746586333,650.856076543,66621425.9982,1761.29693688,37467202.6199,68412892.5589,4568.24221263,4559.4385537,0.0
1.13612920818,0.812339801052,9.84167102015e-06,-10526423.2152,2.26330410028e-05,0.0,5582070.7884,684.052935007,653.080693968,66321113.0379,1806.1096848,44125065.0678,67742413.6,4716.07234316,4706.37289799,0.0
1.0970343088,0.83519928531,9.89646404858e-06,-23795519.4505,1.86512300489e-05,0.0,5728268.11493,681.643033791,650.594717832,66744596.1987,1756.76558223,36882131.8995,69100528.5573,4553.78941583,4545.04045344,0.0
1.13240257458,0.94552001276,9.90742736256e-06,-11389665.5781,2.02658016175e-05,0.0,5603900.10909,683.702230344,652.837226024,66384012.4972,1801.163362,43529599.3992,67547025.0137,4700.60308708,4690.96631265,0.0
1.21239739135,0.830735996215,1.01396809698e-05,11495132.954,2.8283415082e-05,0.0,12754618.3698,688.598519579,657.844614428,65158621.0149,1896.5328176,57125076.999,66164499.0866,5032.66157149,5020.81720541,0.0
1.08505702987,1.18325095657,1.03152784158e-05,-27015603.9274,1.4106908628e-05,0.0,5770546.85461,680.537204972,649.848775777,66856688.053,1741.03207183,35966893.8477,69245615.5432,4504.07173099,4495.60768891,0.0
1.15869297422,0.903959718227,9.84355295701e-06,-3371618.80563,2.18153113708e-05,0.0,5461259.02446,685.460280815,654.539656685,65947133.2397,1832.14207187,47972797.649,68129067.5248,4809.73453599,4798.8840952,0.0
1.11315513682,1.19069657214,1.00283407123e-05,-16655664.2453,1.54705536995e-05,0.0,5691659.57394,682.287876591,651.595512992,66633091.8757,1776.44771706,40491527.083,69283403.9353,4620.70697294,4611.51106264,0.0
1.12126837726,0.826324436754,9.70707738575e-06,-14699719.0493,2.0488496119e-05,0.0,5620876.86384,683.182011099,652.073515981,66424859.589,1786.16795975,41513395.0078,68973734.0485,4654.38503401,4644.55766219,0.0
1.10888069783,1.22298356494,9.83926207583e-06,-18315046.0811,1.45373222402e-05,0.0,5693737.07707,682.213661913,651.35521658,66635821.9444,1770.09280438,39613150.5313,68967003.2632,4602.96377669,4593.44328784,0.0
1.15917701992,0.64703501734,9.77319528748e-06,-2933099.67248,2.69060872846e-05,0.0,5462442.31105,685.673227182,654.580293514,65936667.7088,1834.26546052,48443602.1764,68114964.1683,4811.74380969,4801.29789171,0.0
1.11129651112,0.818469436766,1.01496027353e-05,-16904511.2737,2.00054672355e-05,0.0,5616973.99718,682.329778173,651.46702034,66395432.6669,1772.48060975,40235326.613,69065950.8421,4612.99181766,4603.13831449,0.0
1.08532905636,1.19021689453,9.65856866253e-06,-28409239.4524,1.34753220572e-05,0.0,5790546.7029,681.022819723,649.879465319,66922332.526,1740.83426853,35862812.4259,69473531.8625,4505.20091295,4496.53826498,0.0
1.18158259092,0.911213792801,1.02104407644e-05,4464100.56364,2.4099679275e-05,0.0,6237266.88597,686.503595104,655.919472147,65715492.4036,1860.8581972,52295212.2107,66979990.6761,4904.74933491,4894.01791922,0.0
0.956064502437,0.694529929127,9.81054556562e-06,-93752392.0456,1.61515756904e-05,0.0,6070910.76732,685.833024749,641.523856576,67583750.1792,1614.92818751,68813872.5571,69036185.7761,3968.62374962,3962.31056165,0.0
1.25980862009,0.998446599943,1.00870558278e-05,21365053.6117,2.9867104754e-05,0.0,23306799.9002,691.557378025,660.831289957,64547108.1219,1950.63842716,65149313.9889,65972422.9315,5229.46558199,5216.73439848,0.0
1.13687357563,1.05212190931,1.005767309e-05,-10557244.1424,1.94655917071e-05,0.0,5618707.85358,683.806899253,653.137705251,66430264.1181,1807.98600621,44017222.7878,67912537.6643,4719.16221244,4709.89208324,0.0
0.988271072803,1.03319765982,1.03013797738e-05,-95032271.8626,1.33003240958e-05,0.0,5928924.76461,679.226932598,643.574244335,67190251.1197,1610.22597598,69940801.1619,70182535.3036,4102.31322321,4094.27456309,0.0
0.930369372489,1.00317076941,9.7105279284e-06,-92494200.6303,1.39056019643e-05,0.0,6079592.74102,689.93129977,639.850205785,67549982.2015,1608.03398558,67706344.5602,67914057.7394,3861.9632652,3854.82704453,0.0
1.00852076115,0.715821368255,1.00110225709e-05,-87226462.8522,1.60962198499e-05,0.0,5869588.584,678.035010732,644.86486135,67033408.6499,1636.42886147,63195409.8714,70732144.2591,4186.36967953,4177.92241385,0.0
1.03539496686,1.04158381209,9.77482285514e-06,-57904544.3065,1.33626798176e-05,0.0,5908251.19928,678.350928839,646.595862827,67227594.7797,1675.80231871,41554174.4225,71157766.4538,4297.92450744,4290.51369189,0.0
1.1085874123,1.06753580776,9.71732358676e-06,-20559940.4781,1.65267672186e-05,0.0,5713687.04148,682.374789507,651.360702109,66712396.453,1771.26648158,38304627.5209,68850524.3716,4601.74634846,4592.71406442,0.0
1.1276148924,1.24022142343,1.04620145493e-05,-11936851.5484,1.62571618677e-05,0.0,5603416.59815,682.810580183,652.434850305,66370128.4937,1793.87351721,43046582.5845,67394530.1124,4680.72941835,4670.89422472,0.0
1.0835174946,0.801439943568,1.02950760146e-05,-27539599.9562,1.84570142168e-05,0.0,5750665.38034,680.621229995,649.755859068,66792632.51,1739.30705746,35842408.7986,69177885.6817,4497.68112008,4489.24083069,0.0
1.11999029349,1.10136735028,1.0392106465e-05,-14223162.7316,1.72937956135e-05,0.0,5624314.71288,682.517516902,652.003773877,66425510.6572,1784.5138365,41659525.2903,68266394.8589,4649.07970828,4639.47171359,0.0
1.0499881698,0.761926715738,9.82388013184e-06,-45759945.1852,1.62123896363e-05,0.0,5830649.44687,679.065064483,647.50475116,67000565.1253,1693.87566936,36096198.4627,70427080.1811,4358.50089284,4350.1326547,0.0
0.987116686923,0.974049331959,1.01836595541e-05,-94995863.5925,1.38910642756e-05,0.0,5933524.15385,679.745721574,643.50151884,67197153.6286,1610.90850181,69908736.6031,70150559.8361,4097.52136742,4089.50115657,0.0
0.999695650666,0.756137547788,9.85409551435e-06,-95842478.6113,1.5349040633e-05,0.0,5977215.73734,678.609032459,644.327514167,67357730.9655,1627.93920664,70652721.8153,70832183.8685,4149.73664591,4142.83092339,0.0
1.08183899742,1.12992469801,9.61584548364e-06,-29683408.0104,1.37293948289e-05,0.0,5786344.8436,680.670945667,649.505505322,66904149.4351,1735.25495041,35516163.1387,69486585.739,4490.71367829,4481.81946334,0.0
0.992517869605,0.949165144066,9.80377894354e-06,-95522384.0064,1.40045286143e-05,0.0,5985507.65745,679.593560876,643.867615077,67360332.9836,1617.4417226,70372119.0761,70615964.2364,4119.94167673,4112.79706511,0.0
1.11420446796,1.10447994657,9.84636321297e-06,-16524942.2005,1.63629480871e-05,0.0,5642140.60358,682.560323985,651.646029795,66482653.4992,1775.85885123,40527476.7548,69269684.378,4625.0627465,4615.06255044,0.0
1.11236166286,0.87492990357,1.01116942593e-05,-16643256.6474,1.93673340621e-05,0.0,5621114.74942,682.380360602,651.525717633,66411040.0764,1773.8771346,40396773.4725,69153598.3352,4617.41326253,4607.54245902,0.0
1.0923094633,0.987680590328,9.65765424709e-06,-25933953.9951,1.61772606555e-05,0.0,5758531.63939,681.463168274,650.289485662,66834089.8576,1750.1374545,36363531.4003,69382744.5691,4534.17658216,4525.40275508,0.0
1.04702640137,0.948157264642,9.6391534482e-06,-49450325.8303,1.45125418931e-05,0.0,5829540.83913,679.065413683,647.322682155,66993695.2044,1688.46885797,37364958.9952,71098297.0737,4346.20659209,4337.38209064,0.0
1.0689603568,1.12217322801,1.01821100415e-05,-33378314.0752,1.36248028517e-05,0.0,5803324.29581,679.574601013,648.702790383,66938151.2501,1718.92431191,34894292.1927,69763782.4152,4437.25444108,4428.7523515,0.0
1.0573965079,0.895099743569,1.01459280823e-05,-40320784.7173,1.56741581e-05,0.0,5805884.69135,679.112312939,647.961174761,66935389.0443,1703.48855066,34899443.8652,69705916.9897,4389.25290429,4380.76808706,0.0
0.981251889964,0.976193535635,1.02508812277e-05,-94741492.6233,1.37628254808e-05,0.0,5945733.50576,680.422680592,643.124787773,67224779.8087,1609.12746255,69684662.5297,69923292.3346,4073.17659524,4065.24965161,0.0
1.22603483125,0.729866613332,9.75788401688e-06,14182347.0218,3.15038749249e-05,0.0,15600144.6495,689.77506242,658.754554106,65060497.6146,1913.74880812,59386359.7285,66518565.5511,5089.27058452,5077.4701836,0.0
1.08088863288,0.874170564485,1.00006372314e-05,-29231841.9959,1.7008325867e-05,0.0,5770068.42555,680.648791114,649.586680021,66852436.1152,1735.46371335,35609300.5666,69298692.1376,4486.76871508,4478.27218523,0.0
1.14574454089,0.965605501028,9.39089215612e-06,-8850837.39717,2.04797068299e-05,0.0,5586599.49521,684.803981164,653.671068666,66357132.6522,1818.45613735,45311536.9954,68353101.2618,4755.98558923,4746.13874611,0.0
1.11380332686,0.792117825632,1.02042641412e-05,-15898126.5897,2.07481935751e-05,0.0,5621534.3059,682.387275417,651.595624862,66416420.593,1776.33892254,40759037.5465,69314795.4006,4623.3976098,4613.79537283,0.0
1.14860529614,0.986252064932,9.83870642136e-06,-7532741.47546,2.08587919833e-05,0.0,5533446.97865,684.709604239,653.831366913,66171673.2802,1821.0555284,45774579.4575,68614568.6447,4767.86058428,4757.64120285,0.0
1.09181489957,0.906941362213,9.35939480391e-06,-26779562.7905,1.66745294228e-05,0.0,5769319.04484,681.702981396,650.285609938,66860772.4297,1749.66172354,36257242.1633,69523514.9195,4532.12364812,4523.35862785,0.0
1.04828879676,0.763726093492,1.01841829168e-05,-45450056.9264,1.66003352898e-05,0.0,5798023.65696,678.733829771,647.389455772,66900731.032,1690.51064661,35908238.63,70422987.5443,4351.44679535,4342.68987744,0.0
0.965249711642,0.849283949213,9.85390983012e-06,-94167850.7902,1.48267746467e-05,0.0,6023421.82552,684.047281732,642.106277044,67434413.9368,1612.64125868,69179548.6701,69407402.6384,4006.75155303,3999.67171747,0.0
1.11382209829,0.909009533179,1.02802379298e-05,-15998221.1247,1.9182630154e-05,0.0,5637366.95113,682.279880762,651.597151107,66454246.1973,1776.88436679,40617872.8694,69276171.0291,4623.47553,4613.97019923,0.0
1.20570255329,1.26663874389,9.81165635718e-06,10044547.3572,1.94121812022e-05,0.0,11406547.6167,687.985655285,657.442947095,65621308.8473,1889.37164854,56196319.8615,67198643.8912,5004.87129871,4993.70336647,0.0
1.20418851866,0.737637251889,1.02766071756e-05,9401908.80244,3.01804590658e-05,0.0,10728030.0936,688.090057926,657.312021462,65177492.3869,1887.03578947,55348597.6356,66712676.362,4998.58654096,4986.90773452,0.0
1.15082403161,0.906040975258,9.86573754895e-06,-7291703.9272,2.29666964118e-05,0.0,5572670.91219,684.831360261,654.012232546,66312902.1582,1826.23246473,46013284.0053,68699285.2138,4777.07055521,4767.65647922,0.0
1.04376117828,0.767553676256,1.00308471436e-05,-49644435.7938,1.63317291228e-05,0.0,5816553.51812,678.652906919,647.096889125,66951298.8627,1684.77366825,37336589.5255,70957750.7078,4332.65265104,4324.05805088,0.0
1.24300454614,1.0652870852,1.00810713718e-05,18271349.4305,2.62378367126e-05,0.0,19918567.9009,690.35693614,659.783659947,64930062.232,1932.0855871,62711431.4664,66878000.3241,5159.71187103,5147.63581884,0.0
1.05346853648,0.8972302974,1.016220208e-05,-43224529.4894,1.56192601902e-05,0.0,5796904.83675,678.945317167,647.706769727,66902878.574,1697.50758453,35354578.0745,70368355.5358,4372.94789493,4364.19571367,0.0
1.02310590722,0.881178423742,9.76273970016e-06,-70306580.3884,1.45092092782e-05,0.0,5932135.3455,678.054594537,645.818326908,67276131.6824,1659.4962887,49697208.9631,70888828.9758,4246.91262087,4239.67644502,0.0
1.08073066782,1.04047544451,1.00634455012e-05,-29147058.9064,1.51126597895e-05,0.0,5779038.80598,680.532164618,649.579470185,66880773.6741,1735.1223887,35627343.8324,69315509.9809,4486.11300212,4477.61892596,0.0
1.1823796001,0.942656878857,1.06365624564e-05,5240748.38607,2.41758483261e-05,0.0,6752877.99071,686.387734526,655.972857065,65424176.9851,1859.44081975,52356432.7875,66620779.4618,4908.05772002,4896.57614167,0.0
1.06837117091,0.935480235658,1.00739438333e-05,-34001575.5137,1.55429592408e-05,0.0,5797242.98531,679.711142325,648.681113956,66916448.0316,1718.29552449,34806585.6849,69874425.6488,4434.80873045,4426.3166272,0.0
1.0646469187,0.988570921003,9.63547110609e-06,-37492462.9146,1.43037445708e-05,0.0,5791517.80472,679.979287586,648.511556693,66882925.5783,1711.67299084,34630756.5981,70092803.9427,4419.34935952,4410.19922523,0.0
1.006936782,1.04730594421,9.58854493317e-06,-92215184.896,1.28899402312e-05,0.0,5925175.83411,678.514367356,644.773514376,67186374.112,1634.48228017,67478121.3595,71039350.7848,4179.79458208,4171.59000599,0.0
1.12197179376,0.879587205378,1.00340602777e-05,-13902817.9267,2.01657892207e-05,0.0,5609279.09728,682.981134598,652.131409629,66387487.8947,1786.95572116,42016846.4333,68307899.451,4657.3049159,4647.56536821,0.0
1.09089049309,1.0924767317,1.04369823091e-05,-24614837.671,1.55849704344e-05,0.0,5743934.52094,680.772415082,650.17884623,66785631.6753,1748.69958659,36464883.3862,69007222.5109,4528.28643682,4519.73060397,0.0
1.1447848522,0.705979301708,9.8316423927e-06,-7961086.12375,2.614467424e-05,0.0,5575266.29961,684.525592613,653.582472284,66329708.3568,1818.56472902,45780851.9701,68363327.2864,4752.00192148,4742.68916255,0.0
1.0884484286,1.15240571863,9.98415200181e-06,-26708191.9971,1.42978044941e-05,0.0,5769268.59255,680.968363604,650.063406026,66861422.1149,1745.14234519,36105889.2949,69333205.1741,4518.14942712,4509.53513055,0.0
1.01271226599,0.697679253839,1.02479121321e-05,-79697997.5372,1.59272814596e-05,0.0,5926212.81794,677.48519305,645.142017569,67227364.9936,1645.56938669,56938933.4651,70603628.7401,4203.76861612,4196.68022367,0.0
1.09974931045,0.839939458093,1.04321256158e-05,-20230756.9716,1.90879699917e-05,0.0,5631287.38037,681.520245659,650.777233828,66417450.3743,1757.24539593,38460594.019,68356463.8,4565.05938768,4555.21550312,0.0
1.04403852618,1.11016784539,1.00772136005e-05,-49295368.6409,1.30572818442e-05,0.0,5835740.69158,678.501804776,647.125208291,67012209.7089,1684.91768547,37188937.2258,71058173.9317,4333.80392217,4325.20483873,0.0
0.961992011763,0.891895656858,1.04886149738e-05,-93839936.2333,1.42891796827e-05,0.0,6020568.72973,683.089102486,641.895592995,67440813.4345,1608.65120382,68890895.8764,69114327.808,3993.22884083,3986.51402719,0.0
1.09350777913,0.768706533994,1.00747824386e-05,-24628895.9755,1.95142748717e-05,0.0,5723311.12106,681.321810781,650.346047626,66729104.0812,1752.07016685,36577546.466,69036833.9359,4539.15079117,4530.45730946,0.0
1.10119885702,0.881259156862,1.00661990576e-05,-19970933.3521,1.81986858626e-05,0.0,5659188.93446,681.814512116,650.883214824,66518954.7348,1759.39110535,38667853.2014,68463518.3939,4571.07645549,4561.34924649,0.0
1.1796650041,1.22409762535,9.69744838622e-06,2662921.39648,1.81280075408e-05,0.0,5423945.60668,686.568657584,655.821257833,65839341.3652,1857.42753462,51477380.769,67092812.1178,4896.78943202,4885.57577382,0.0
1.06908991228,0.953177269783,9.94612907861e-06,-34152907.8309,1.53219612053e-05,0.0,5801672.54775,679.838786098,648.728663247,66929141.8822,1719.22003664,34790580.6614,69961172.2856,4437.79222587,4429.28810455,0.0
1.1540664263,1.03573557891,9.6654510912e-06,-5187310.45254,2.03068550369e-05,0.0,5550243.20666,685.119309183,654.23156797,66245641.0198,1828.50740181,47429169.7093,68764708.5252,4790.52973557,4780.54671311,0.0
1.16247561977,0.982249962947,9.84440098321e-06,-2450001.86345,2.0850401967e-05,0.0,5455252.02795,685.634857659,654.772303553,65932662.6394,1836.72515642,48475220.0342,67765157.4328,4825.43629767,4814.51825304,0.0
1.15924557734,1.14527771936,1.03576385634e-05,-3527523.20856,1.97309628015e-05,0.0,5482189.56052,685.055191516,654.573350102,65995356.0498,1833.88449837,47617049.445,67693320.589,4812.02839154,4801.62551855,0.0
1.11145405016,0.90336521426,1.01217044984e-05,-16919449.5639,1.89132748451e-05,0.0,5626243.62596,682.31643571,651.47876177,66424338.9509,1772.66626627,40300795.8156,69086565.763,4613.64576221,4603.78961977,0.0
1.23962970857,1.03032181042,9.92038943856e-06,17254493.9619,2.62029606493e-05,0.0,18809311.3254,690.091003594,659.432957468,64908899.5884,1927.53008799,61852828.8786,66916722.169,5145.70292027,5133.31064176,0.0
1.10035523056,0.740756253183,1.03796115416e-05,-19728492.002,2.07196074572e-05,0.0,5620065.3413,681.641249542,650.810613427,66383024.228,1757.9002282,38735647.6437,68436279.2165,4567.57456205,4557.72015328,0.0
1.14267470637,0.874755063488,9.73821803264e-06,-8154940.60956,2.19527628717e-05,0.0,5551146.424,684.324526925,653.36879222,66231951.0688,1813.3661994,45744409.6619,68318191.9088,4743.24270614,4733.13045483,0.0
1.00758575365,1.14090558388,1.01329836907e-05,-87230725.4472,1.22794354451e-05,0.0,5893476.37089,677.695366206,644.803881077,67107384.2102,1634.92040165,63200221.626,70753929.3851,4182.4884634,4174.05650586,0.0
0.987289976489,0.779365091436,9.79841327118e-06,-95081671.9646,1.53909247608e-05,0.0,5933306.63437,680.658731113,643.513612571,67195443.0245,1613.46864304,69984248.3512,70227489.7399,4098.24069241,4090.13806093,0.0
1.08148645336,1.05170065158,9.9162623381e-06,-29336996.9267,1.49371513604e-05,0.0,5784058.59036,680.666776686,649.624064826,66894817.7316,1736.11129953,35656815.9263,69363454.6659,4489.2502679,4480.74444939,0.0
0.962663291746,0.942415416721,9.66688207797e-06,-94129692.1567,1.4134868382e-05,0.0,6046771.17161,684.888398436,641.942178971,67498383.3919,1613.98946988,69145883.3991,69373051.7249,3996.01532404,3989.05441843,0.0
1.01852544014,0.89381237424,9.98442180936e-06,-73783523.6181,1.42714749575e-05,0.0,5935375.87553,677.76748438,645.525407566,67277591.0729,1653.42843291,52289665.0462,71223513.6632,4227.89910202,4220.72809264,0.0
1.07689151891,0.873088213128,1.0539532565e-05,-29075236.3797,1.71823867705e-05,0.0,5763145.18479,680.034026681,649.334720337,66823644.7992,1730.51819241,35475057.6136,69127415.1862,4470.176695,4461.8368119,0.0
1.0563440386,0.722611470379,1.02073423715e-05,-42154182.6606,1.73635106331e-05,0.0,5782959.99543,679.126360149,647.881867781,66863960.6955,1701.91403511,35099596.2581,69865711.5463,4384.88410423,4376.17500149,0.0
1.08635765563,0.96125929464,9.92731842333e-06,-27521780.3609,1.6364625555e-05,0.0,5763997.92777,680.980769027,649.938892821,66841093.0017,1742.55950677,35934479.8819,69338829.1486,4509.47062852,4500.88896852,0.0
1.09681704404,0.783727764433,9.66101137249e-06,-24349422.3509,1.90776112786e-05,0.0,5729379.1702,681.8006319,650.560105805,66738397.9876,1756.2144059,36751489.4424,69202686.5698,4552.88754981,4544.04342748,0.0
1.00451419014,0.711617499008,1.01158174175e-05,-90506198.1154,1.59709094136e-05,0.0,5875656.92167,678.015452641,644.609321118,67047527.6862,1631.10860313,66003616.925,70752402.6096,4169.73840327,4161.35665547,0.0
1.05887742417,0.719739031344,9.82413269113e-06,-39311396.057,1.72281253328e-05,0.0,5817276.65188,679.466977167,648.064963894,66965989.0159,1705.92366946,34765629.9127,69818516.3586,4395.40018773,4387.05561308,0.0
0.908308933259,0.939410869766,1.01021491018e-05,-91469110.6344,1.34358790815e-05,0.0,6117633.64891,691.301144261,638.428038483,67640523.5037,1595.90322941,66804131.4207,67640523.5037,3770.39038196,3763.61820517,0.0
1.06818526413,1.01987390973,9.75921938225e-06,-36158171.9442,1.43779520702e-05,0.0,5815365.49904,679.917572755,648.672676609,66977419.6972,1718.16134595,34701086.8142,70234044.3445,4434.0370314,4425.54826834,0.0
1.02733504553,0.941718972518,9.96410013412e-06,-61334146.9913,1.39778580948e-05,0.0,5913921.56235,677.918176387,646.081051477,67227515.8938,1664.9387623,43553024.1515,70986915.1926,4264.467774,4257.0807414,0.0
0.953883339398,1.19612687429,9.76005204792e-06,-93762803.0791,1.20237705979e-05,0.0,6101813.67809,686.033155568,641.383787485,67676189.2855,1614.3464351,68822937.2353,69044270.0604,3959.56974184,3953.28586401,0.0
1.12638613184,1.07376475141,9.93091466222e-06,-13459953.2852,1.82673294529e-05,0.0,5665212.57228,683.18585542,652.446117162,66581007.858,1794.69764725,42388804.5862,68406941.6031,4675.62883327,4666.63163815,0.0
1.06544466726,0.978158803833,9.88506395974e-06,-36871352.5898,1.47631010603e-05,0.0,5814462.00794,679.691991204,648.494519307,66971530.8127,1714.61191446,34668051.803,70190401.3161,4422.6608138,4414.21348762,0.0
1.20555295689,1.17254229426,9.94663018995e-06,10077220.1129,2.095167639e-05,0.0,11457854.9103,687.940050158,657.426197441,65578372.5156,1889.49844372,56176682.5569,67151297.3502,5004.25032405,4993.1679323,0.0
1.18532317155,0.935759062854,1.01048503112e-05,5033918.86911,2.37993155623e-05,0.0,6652664.33609,686.795853647,656.164007124,65710675.439,1865.50884757,52718811.905,66966481.8478,4920.2764851,4909.48432556,0.0
1.05744940667,1.18883858675,1.05410012954e-05,-39576740.8749,1.29116101333e-05,0.0,5801605.02278,678.738482712,647.964300936,66926051.1363,1703.22056785,34686373.5065,69639045.0703,4389.47248709,4380.83655733,0.0
1.14702695354,0.802557186147,9.76044226154e-06,-6795040.79757,2.37072812182e-05,0.0,5522900.51047,684.733034028,653.72080266,66152790.6349,1818.95662571,46432855.0235,68607189.3336,4761.30888414,4751.12043725,0.0
1.09763663668,0.933849958334,1.02176787447e-05,-22907776.8269,1.78089566986e-05,0.0,5717586.93247,681.447893037,650.667665657,66706478.652,1757.30419107,37125895.6475,68731468.7943,4556.28967886,4547.53059727,0.0
1.13040316058,0.912335390802,9.83351667456e-06,-11213469.4533,2.04385783385e-05,0.0,5611429.52614,683.612482833,652.705391773,66401051.6029,1798.41167406,43720681.9394,67506507.1382,4692.30351957,4682.70307236,0.0
1.15677132059,0.954940709364,9.9017221834e-06,-5263149.82201,2.25688010436e-05,0.0,5548647.45085,685.180363308,654.402751635,66239060.3913,1833.41684354,47084948.9285,68579668.1723,4801.75775177,4792.15328377,0.0
1.23346002595,0.895438637001,1.00578358346e-05,16076160.0753,2.88542991602e-05,0.0,17576831.8418,689.884550784,659.224345451,65074339.9386,1922.31167065,60979579.3411,66753580.926,5120.09256772,5108.42121502,0.0
1.16982708796,0.682389332024,9.99550008053e-06,1325060.64424,2.7744263921e-05,0.0,5410383.32364,686.136395085,655.233299898,65773651.3558,1846.8237919,50543078.9513,67465199.8486,4855.95224212,4845.32325039,0.0
0.97892481405,0.912061368746,9.9158370967e-06,-94905611.3544,1.4364637311e-05,0.0,6022474.37807,681.55091399,642.994283323,67461974.9733,1614.47662708,69828999.941,70067306.5666,4063.51690312,4056.81705669,0.0
1.18550458214,0.873666388196,1.01252530824e-05,5140515.16819,2.50670165071e-05,0.0,6745279.41759,686.838718178,656.176065459,65680888.0204,1865.80142319,52764797.4589,66925922.0378,4921.02952046,4910.23419522,0.0
1.19100819677,1.00307813157,1.01293397208e-05,5906034.65746,2.29859226205e-05,0.0,7434191.30041,687.207459632,656.5379536,65456905.1138,1870.5230207,53029276.8163,66633865.0517,4943.87502479,4932.24328114,0.0
1.16264753637,0.841371305648,9.53008889804e-06,-2828441.42379,2.46349996212e-05,0.0,5523820.14179,685.888135805,654.817890482,66169114.9206,1840.32430868,48697540.8948,68481364.8725,4826.14992347,4816.31704503,0.0
1.16321268756,0.9600560817,1.00242163091e-05,-838302.320617,2.15040052234e-05,0.0,5439805.4371,685.560786072,654.809957109,65853221.8261,1837.25027466,49420606.663,67699853.4933,4828.49586606,4817.56528057,0.0
1.08262343005,0.869804426257,1.01924229385e-05,-28011932.4298,1.73257117728e-05,0.0,5756929.93935,680.617974809,649.702854462,66817585.5171,1737.72790199,35748141.7497,69226754.1956,4493.96985814,4485.44636233,0.0
1.04182530771,1.27889212911,1.02945211592e-05,-49321114.0753,1.15586572537e-05,0.0,5839950.10673,678.147292384,646.97319572,67019245.5526,1681.68749457,37297470.2315,70978786.2587,4324.6168523,4315.96542958,0.0
0.999944278909,1.08850321736,1.03401374864e-05,-95713830.3576,1.28836146852e-05,0.0,5901800.69055,677.869063,644.318144216,67126309.1587,1625.00438064,70539628.5207,70539628.5207,4150.76870175,4142.543636,0.0
1.19284847269,0.76681254623,1.0108051535e-05,6443273.75626,2.81701809011e-05,0.0,7937709.65443,687.555763129,656.663733535,65321728.3484,1873.21082554,53317106.071,66452563.2066,4951.51401014,4939.84824064,0.0
1.13381987916,0.931625563994,1.01658361658e-05,-10894539.0751,2.07527325831e-05,0.0,5565592.62232,683.662870929,652.923130352,66257048.6634,1802.21968442,43734565.236,67655775.6104,4706.48631839,4696.54518775,0.0
1.2257417654,0.781839242471,1.00287346714e-05,14287051.2027,3.05604187338e-05,0.0,15658578.48,689.582109929,658.729058048,64996142.9378,1912.4851522,59424921.1014,66480338.7488,5088.05406818,5076.06931217,0.0
1.20419192364,1.16788369929,9.89954120707e-06,9405889.70764,2.0890871946e-05,0.0,10797420.1705,687.986806001,657.341201467,65397178.0603,1885.88246396,55612574.6282,66904563.8563,4998.60067503,4986.69191797,0.0
1.10484702881,0.848707011836,1.00890072329e-05,-21105115.1913,1.94236493065e-05,0.0,5694907.87242,682.006349421,651.124008562,66648345.5873,1766.77424106,37927005.5969,68654267.7254,4586.22001659,4577.34798795,0.0
1.1534430801,0.873972116566,9.9597097258e-06,-6299188.81521,2.39196917075e-05,0.0,5555577.90817,684.975449457,654.197490489,66263370.6547,1829.53828017,46477785.9439,68655031.7258,4787.9422255,4778.48606297,0.0
1.17956796233,0.9023477518,9.84718590009e-06,3115212.60872,2.32062114731e-05,0.0,5390364.63701,686.660435732,655.812738498,65723111.8134,1857.86349389,51639666.0087,66985071.5848,4896.38661163,4885.29030084,0.0
1.11648791387,0.980676062522,9.89676914686e-06,-15925906.4738,1.83560320158e-05,0.0,5670955.44783,682.640493561,651.780059182,66572245.0401,1780.97810389,40844961.4055,69438014.3676,4634.54133047,4625.29144254,0.0
1.22361664747,1.12031730698,1.03117519412e-05,13981662.6887,2.36196291621e-05,0.0,15300561.3757,689.002772882,658.589443657,65118539.8243,1908.96591474,59226518.5328,66587643.669,5079.23270365,5067.29422852,0.0
1.16039520976,0.79442094552,1.00523578509e-05,-2490451.08988,2.41350912424e-05,0.0,5431484.18906,685.50768789,654.638822885,65829491.2103,1834.32511138,48287908.1049,67601305.2166,4816.80051571,4805.94516253,0.0
1.06078027494,0.998429494037,9.57552333776e-06,-42685244.5077,1.45455531305e-05,0.0,5801020.11178,679.727796979,648.160331638,66923567.7738,1706.67372479,35291944.8211,69771965.089,4403.29892128,4394.24530881,0.0
1.10528933789,0.837546258164,1.03552406969e-05,-17975488.6731,1.93896705035e-05,0.0,5654356.58749,681.816730309,651.118244529,66512093.4816,1765.59493638,39582255.604,68785521.8551,4588.05604158,4578.69392459,0.0
1.14405694594,0.992108695693,1.02375935707e-05,-8272793.43837,2.13458626439e-05,0.0,5585730.26997,684.082860779,653.529407726,66348899.5413,1817.37225944,45195975.6261,68356966.439,4748.9803826,4739.67636281,0.0
1.07426692919,0.847102722518,1.0131827204e-05,-31188845.0617,1.69658837919e-05,0.0,5773317.75415,679.976664798,649.001079898,66856543.3945,1726.11290343,35235805.2109,69402641.1662,4459.28202307,4450.69803304,0.0
1.13005548841,1.0552785405,9.726310422e-06,-12296904.6502,1.82536013696e-05,0.0,5630690.28079,683.598478013,652.67682289,66474551.2109,1798.09621233,42894905.2272,67758304.0306,4690.86033239,4681.26243083,0.0
1.11052256439,0.883756352383,9.99718482003e-06,-17347342.8939,1.90786834808e-05,0.0,5677543.32409,682.318271022,651.458207131,66599096.1089,1773.21157139,40126260.6578,69069460.7323,4609.77916478,4600.62547614,0.0
1.01415648788,0.832249626307,9.96165312296e-06,-79199414.9138,1.46925193681e-05,0.0,5945351.29029,677.751622803,645.239877153,67282069.6022,1647.5855963,56543843.6827,70943234.6118,4209.76358119,4202.65449452,0.0
0.963439230777,1.20373629609,9.92653911307e-06,-94112386.7461,1.20289916181e-05,0.0,6072842.70657,684.327828856,641.998011404,67605062.2432,1615.4452643,69130755.406,69356940.6919,3999.23624696,3992.82367448,0.0
1.27786759559,0.776170797031,9.75705444195e-06,24327813.145,3.58626064955e-05,0.0,26054835.3955,693.062575547,661.955166185,64136085.5838,1971.18125452,67052124.0059,67992502.9754,5304.42838929,5291.18334614,0.0
0.999344443317,0.950385492638,1.05822888214e-05,-94552429.845,1.40157719174e-05,0.0,5885471.03492,677.477337668,644.275508854,67078632.6511,1624.34869968,69529531.9765,70445990.9162,4148.27878421,4140.06227903,0.0
1.10062208922,0.709530553958,9.92138753639e-06,-22507083.8978,2.09942901911e-05,0.0,5705777.00659,681.94830302,650.864736237,66683014.6778,1761.59887164,37335569.8835,68713247.6361,4568.68229235,4559.8762125,0.0
1.15281438796,0.727782908786,9.87475871127e-06,-7240213.79898,2.67128876226e-05,0.0,5432584.92847,685.285513199,654.120419456,65874842.1545,1825.39981703,45640617.8587,68293648.5545,4785.33252442,4774.41509156,0.0
0.89643796685,0.769875924425,9.61465112448e-06,-91120867.0208,1.47608007151e-05,0.0,6184977.44708,694.281144103,637.672741624,67827045.0174,1599.57009659,66497566.9779,67827045.0174,3721.11400039,3715.03961202,0.0
1.20970506527,0.97725904523,9.81246178618e-06,10566045.7038,2.45576520473e-05,0.0,11914587.5023,688.461715268,657.652075188,65303925.6927,1893.10092227,56491761.0718,66911130.5632,5021.48572594,5009.59905214,0.0
1.1090324573,1.12382199599,9.81747064922e-06,-18213671.3048,1.55743709967e-05,0.0,5669650.44192,682.291563996,651.357507793,66561198.9891,1769.48787141,39624395.5897,68986483.3808,4603.59373025,4593.77892735,0.0
1.04141277187,0.919517140249,1.01583391097e-05,-50567266.1792,1.45539069432e-05,0.0,5834153.21891,678.350057626,646.929911502,67000516.8296,1681.93356246,37761058.6803,70878296.2705,4322.90441603,4314.43579847,0.0
1.17232460267,0.867481094707,1.01503666622e-05,1754291.72482,2.40704522769e-05,0.0,5384802.18389,686.090346665,655.359771845,65698963.4779,1848.52420106,50684782.1777,66933723.7194,4866.31942568,4855.22502359,0.0
1.09075495746,0.835757715651,9.84344463799e-06,-26272042.4833,1.81275114934e-05,0.0,5746390.37966,681.316436181,650.194399118,66792528.1577,1748.4228817,36222311.4769,69305007.9153,4527.72382842,4519.07346856,0.0
0.999971425663,0.856067503061,9.71730425533e-06,-95694863.6363,1.47671717918e-05,0.0,5915688.40969,678.938469556,644.32743669,67156909.0726,1625.04583997,70524344.5207,70852256.478,4150.88138793,4142.65415925,0.0
1.12507389385,0.952398822274,1.02343395236e-05,-12945517.6414,1.96814364066e-05,0.0,5595845.36454,683.053490866,652.338603976,66338756.6528,1790.99885154,42537185.0589,67337474.0602,4670.18173337,4660.38946311,0.0
1.01988922706,0.709187391982,9.93632294042e-06,-72563520.7397,1.58468711555e-05,0.0,5925354.57267,677.877867631,645.613616582,67248980.0025,1655.34534941,51357262.7067,70914878.1825,4233.56018153,4226.36979578,0.0
1.11983141287,1.03250531572,1.01714181705e-05,-14284295.047,1.80162498491e-05,0.0,5623237.18185,682.677284385,651.992245702,66429170.9647,1784.01142636,41812677.7252,68494149.4417,4648.42019482,4638.71667033,0.0
1.16115490563,0.957237013055,1.00233570003e-05,-1985804.77213,2.12932395827e-05,0.0,5449983.50217,685.44582669,654.685382761,65887457.386,1834.89366646,48640451.3629,67685712.6567,4819.95401327,4809.08451848,0.0
1.2014298774,0.863496610386,1.03903804182e-05,8925418.47986,2.69989098562e-05,0.0,10276936.6186,687.769732449,657.152664935,65200656.1857,1882.83449962,55027886.9013,66591910.2315,4987.13542109,4975.31210122,0.0
1.01569449853,0.828136406697,1.00473990962e-05,-76647884.1898,1.48314958813e-05,0.0,5931103.46767,677.675629427,645.339579067,67250547.7196,1649.29471282,54509176.0011,70787432.0314,4216.1478634,4208.92852663,0.0
1.03901803934,0.906700231471,9.83641637124e-06,-55348104.4086,1.4785505722e-05,0.0,5843118.2129,678.574896856,646.807231872,67023921.6509,1678.35513517,40050122.5514,71168103.6274,4312.9638813,4304.44580682,0.0
1.16497776763,0.901246410169,9.9404862139e-06,-516392.756188,2.2550385188e-05,0.0,5430259.3417,685.758695022,654.920711826,65843589.6576,1839.58396541,49653067.0929,67697653.2365,4835.82271343,4824.86050666,0.0
0.966960874841,1.08560732436,9.91328783052e-06,-94190796.9661,1.30235787283e-05,0.0,6012331.04961,683.683924351,642.21156212,67408529.1939,1612.25573502,69199787.2219,69429046.7069,4013.85459146,4006.46377306,0.0
0.98304735632,1.1121378825,9.97032511325e-06,-95155029.8733,1.21319186888e-05,0.0,6009710.12638,680.30880857,643.255002629,67417770.9152,1611.34599263,70048582.5309,70289664.3554,4080.62957608,4073.53862499,0.0
1.14144422491,1.01233130568,1.02349617123e-05,-8664404.16266,2.01796799442e-05,0.0,5547054.4384,683.858802696,653.267366851,66213128.8445,1811.85144305,44957278.8166,68246298.3843,4738.1349776,4728.06393569,0.0
0.94676558707,1.08626163519,9.79486790894e-06,-93331692.8903,1.29521219918e-05,0.0,6078020.32484,687.175593591,640.915134673,67580620.3159,1611.64026959,68443462.0244,68659899.1192,3930.02395193,3923.24201435,0.0
1.20226111632,0.832202134301,9.7776235525e-06,9285021.4909,2.6816912529e-05,0.0,10700909.2709,688.140034006,657.257021675,65480338.771,1885.75489325,55573597.3293,66847428.0492,4990.58589384,4979.36776998,0.0
1.22058721023,0.917417720984,9.63882833665e-06,12625632.3097,2.63535712522e-05,0.0,13909863.0742,689.348155179,658.397750838,65188016.0531,1906.57395724,58170026.2188,66358249.1371,5066.65750966,5054.6753752,0.0
1.30297356715,1.06529940917,9.95715720913e-06,28365851.0572,3.21054468009e-05,0.0,29823421.064,694.311565718,663.568301099,63920222.6996,1998.7353825,68949319.8554,70153008.9361,5408.64327724,5395.14453769,0.0
1.14107802442,1.04112632975,9.95769363622e-06,-9372752.81001,1.94552275363e-05,0.0,5563674.52741,684.040251556,653.280189019,66255693.3667,1811.43760251,44726093.7569,68140522.9351,4736.61487937,4726.5245263,0.0
1.16688768347,0.867337853911,1.02871127457e-05,970380.770839,2.37350566796e-05,0.0,5434547.20118,685.624650305,655.048221403,65831954.6621,1842.71167202,50319985.8443,67431040.0561,4843.75077408,4833.19930028,0.0
1.0980588631,1.15827045894,1.02149397498e-05,-22895101.0451,1.50667746222e-05,0.0,5732797.30348,681.380872409,650.696853639,66753965.6038,1757.64924074,37208171.9618,68718734.5599,4558.04234073,4549.27737601,0.0
0.965541289556,0.916939292634,9.61635724049e-06,-94238145.9732,1.45103325903e-05,0.0,6034584.45389,684.663766577,642.126508063,67465935.5643,1615.17942582,69241416.0724,69469269.6875,4007.96189295,4000.88010623,0.0
1.19249767159,0.678435475923,9.75529347473e-06,6049355.35646,2.99265846004e-05,0.0,7635785.946,687.77340078,656.621208324,65427092.3017,1873.87486093,53352524.4742,66650386.1066,4950.05783477,4938.60460213,0.0
1.02009369227,0.961758681189,9.88102792186e-06,-72928713.3499,1.3767046533e-05,0.0,5938886.22311,677.866966378,645.633912072,67289141.0759,1655.47741019,51645043.9821,70988853.8702,4234.40891661,4227.21562396,0.0
1.114840917,0.914280874159,9.74282168134e-06,-18641485.0608,1.90702237977e-05,0.0,5681355.38259,682.760157644,651.725142157,66623477.7995,1779.45547747,39353331.097,69093480.3305,4627.70464647,4618.57208045,0.0
1.02216943389,1.00963792715,1.04220085467e-05,-66832382.0763,1.36425418287e-05,0.0,5860141.41425,677.448232302,645.737734253,67057223.3084,1655.74059554,47164029.9571,70757815.801,4243.02532008,4234.77581509,0.0
1.24111692899,0.975669158104,1.0181066646e-05,18060589.8734,2.81657273873e-05,0.0,19573115.6728,690.277373474,659.659750005,64839903.0571,1929.30899287,62446699.8103,67041153.7085,5151.87637224,5139.6347272,0.0
1.02280866265,0.875956974994,9.59057593172e-06,-72435135.3663,1.45724897872e-05,0.0,5939562.94067,678.233970633,645.802037798,67294495.8091,1659.09310413,51282020.0166,71097936.095,4245.67875866,4238.44681935,0.0
1.25724642681,0.963045438652,9.92024303046e-06,20734217.6703,2.99452899151e-05,0.0,22628321.4461,691.495091926,660.651591323,64571533.0375,1947.84461694,64646724.9318,65493872.8922,5218.82991769,5206.05344349,0.0
1.14203045296,0.964487214049,9.75657793052e-06,-8610784.39642,2.06425063921e-05,0.0,5587317.08404,684.318616328,653.43308848,66351954.7956,1813.59912797,45527691.7572,68285827.4072,4740.56841024,4730.8923911,0.0
1.16235265128,0.798436629652,9.91408165406e-06,-917167.782506,2.41691021698e-05,0.0,5428774.34587,685.684627686,654.758347363,65835180.1261,1836.37873247,49464140.0012,67780261.5646,4824.92585546,4814.01222144,0.0
1.05615101624,0.722520228161,1.00123940033e-05,-40693092.824,1.70020582357e-05,0.0,5816618.95981,679.174630364,647.874604143,66962965.3735,1702.45935379,34936051.6916,70025822.4588,4384.08286841,4375.78037728,0.0
1.10656287471,0.716471151429,9.99675239013e-06,-20535991.6584,2.15325734837e-05,0.0,5684528.05221,682.235389231,651.228773866,66615259.8266,1769.32516278,38173497.0011,68693821.9742,4593.34249292,4584.4425604,0.0
1.11493415751,1.15976693783,9.83109965778e-06,-16713442.2238,1.57852525181e-05,0.0,5699651.15876,682.527556766,651.710547661,66662072.3838,1779.16385003,40476925.9827,69335977.0378,4628.09168782,4618.96848577,0.0
1.01664318264,1.17351879981,9.84417262705e-06,-77423415.7114,1.19008732275e-05,0.0,5959583.84443,677.791436394,645.403855484,67340934.223,1650.73609015,55134262.5106,70950154.5941,4220.08585114,4212.94154777,0.0
1.14148924202,0.818857655809,9.70399418154e-06,-8749636.13309,2.29104758444e-05,0.0,5577403.13437,684.412063358,653.410282418,66318365.0408,1813.06450834,45415088.1255,68193629.4057,4738.32184362,4728.64174307,0.0
1.15374535395,1.20371281073,9.88716765782e-06,-5970004.35654,1.81308351549e-05,0.0,5547131.42844,684.902849198,654.202283384,66232671.0855,1827.66529096,46531481.9989,68692002.0016,4789.19696425,4779.0973624,0.0
1.04954028844,0.959263079693,1.01360865743e-05,-46291584.8242,1.47370043916e-05,0.0,5807763.64887,678.888074119,647.549174202,66937924.1824,1692.32191046,36289257.5055,70437346.5585,4356.64173731,4347.95352366,0.0
0.938987152026,1.09765635993,9.96111378178e-06,-93108213.5439,1.23956038142e-05,0.0,6124390.60697,687.380931912,640.422967269,67719606.9804,1607.44546523,68246582.6941,68460666.8274,3897.73566806,3891.65037795,0.0
1.30690815924,0.932014642299,9.5507239217e-06,28545803.765,3.45527496439e-05,0.0,29972498.885,694.916565317,663.828543566,63784911.6858,2003.72325995,69101100.1459,70274996.8324,5424.97576901,5411.13939536,0.0
1.10282746702,1.06131728139,9.90189805652e-06,-21987925.7972,1.62933850485e-05,0.0,5728636.90662,681.918281613,651.006849468,66756940.9681,1764.12428632,37590430.714,68576835.0425,4577.8368156,4568.99658217,0.0
1.17833155498,1.00315534824,1.03617707209e-05,3396146.9466,2.22745000014e-05,0.0,5473644.25176,686.201375672,655.716846486,65675721.572,1856.02887156,51598737.0104,66928148.6644,4891.25428472,4880.26260511,0.0
1.2614250664,0.814085704816,9.88947991404e-06,22033150.7529,3.4250856374e-05,0.0,23908512.9825,691.848578386,660.966729484,64655434.5405,1954.50938795,65775794.1343,66552186.0652,5236.17545063,5224.02999468,0.0
1.10043837041,0.944073597941,9.98061853994e-06,-22488921.3084,1.7663590748e-05,0.0,5723212.68483,681.777067222,650.852379286,66722401.465,1761.10686273,37370390.8241,68728297.5538,4567.91967557,4559.11712912,0.0
0.992658632468,0.971980102012,1.01559160605e-05,-95230618.9171,1.39770384064e-05,0.0,5919776.17766,679.050033688,643.856976825,67167410.7277,1615.3307348,70115583.7318,70356676.4404,4120.52598337,4112.41704497,0.0
0.956109785264,0.779056933529,1.02395722591e-05,-93596000.8531,1.51238378958e-05,0.0,6042804.78917,684.699999316,641.519417372,67500246.6271,1610.21248293,68676215.3265,68898362.3379,3968.81171863,3962.20909724,0.0
1.01302559932,0.959914903069,9.5998564889e-06,-83278772.2832,1.37773204989e-05,0.0,5958218.301,678.151702932,645.176893412,67307648.6785,1645.32220945,59892212.1139,71001610.1639,4205.06926278,4197.80001743,0.0
1.04074432966,0.944007912667,9.98999533785e-06,-51336103.8743,1.44051278244e-05,0.0,5830511.18494,678.478749123,646.905489734,66989898.0963,1680.18504429,38122790.2637,70848972.2191,4320.12971242,4311.4084403,0.0
1.28693749282,0.9453086445,9.8652275923e-06,25997545.2021,3.23717066141e-05,0.0,27614640.3962,693.246119745,662.445341079,64172415.2398,1981.31818298,67975808.1651,68860280.6526,5342.0775327,5328.96440278,0.0
0.98729399847,0.913120975262,9.70629319394e-06,-95161877.9335,1.45536808769e-05,0.0,5997244.71534,681.177456158,643.52961644,67397322.1866,1619.25097229,70054679.552,70296168.582,4098.25738765,4091.18146934,0.0
1.14369920051,0.965180872276,9.93211106392e-06,-8711949.96839,2.08439673171e-05,0.0,5547361.0555,684.227996696,653.417291699,66209167.578,1814.83839655,45091712.1898,68305174.2554,4747.49538132,4737.36170235,0.0
1.04269175628,1.09299869812,9.89556006313e-06,-52534107.6593,1.31203195786e-05,0.0,5888869.51565,678.497037525,647.03607758,67177742.3755,1685.54557199,38734933.9003,70947926.2556,4328.21348032,4320.69728462,0.0
1.00638860169,0.901659629467,1.04696994973e-05,-85055622.7101,1.45616873694e-05,0.0,5869723.16783,677.378509096,644.723869446,67039651.6973,1633.74060502,61358020.9801,70520444.0919,4177.51908562,4169.1899128,0.0
1.09146802268,0.753218642664,1.01982440893e-05,-24948881.3786,1.96677114288e-05,0.0,5722845.02859,681.115814442,650.207730278,66712416.9599,1749.40367457,36466571.4402,69015077.4592,4530.68376214,4522.02224083,0.0
0.873916060681,0.988441996351,9.37626975222e-06,-90276102.7029,1.27078358719e-05,0.0,6245555.85632,697.043058309,636.220608696,67969351.912,1590.95707951,65754103.9546,67969351.912,3627.62556789,3621.62101143,0.0
1.00554228335,0.895330359502,9.76725863476e-06,-92526572.4894,1.42684649039e-05,0.0,5924356.15296,678.405950654,644.686071656,67192652.5772,1633.65224846,67748231.1923,70901980.7553,4174.00601819,4166.01879845,0.0
1.07549948589,0.825973441106,1.02561444899e-05,-31571171.0215,1.7638845613e-05,0.0,5777646.04386,680.153523107,649.224059245,66882718.2979,1729.02361729,35017613.9246,69220876.3174,4464.39836593,4456.17785417,0.0
1.09651737933,0.897419525149,1.01401259219e-05,-23488996.8663,1.80774917178e-05,0.0,5721445.52598,681.432533467,650.577849119,66714485.9649,1755.87126004,36932077.0426,68961089.0241,4551.6436416,4542.90291545,0.0
1.10335000632,0.914058970792,1.01067260079e-05,-21511094.269,1.84796875593e-05,0.0,5703921.11465,681.876789125,651.035003255,66673210.1259,1764.76599279,37724313.8823,68606957.9207,4580.00587623,4571.15750439,0.0
1.19661587966,1.07761051597,9.68454132214e-06,7746200.13613,2.1352790666e-05,0.0,9247857.20668,687.701759241,656.92276305,65624984.1567,1878.11946077,54568026.5009,66801069.865,4967.15251647,4955.8441676,0.0
1.05366741361,0.860165845483,1.0071300602e-05,-43947406.2731,1.60735378408e-05,0.0,5778211.9436,679.034320986,647.708443668,66851888.9326,1696.6830183,35515682.4179,70209359.709,4373.7734339,4364.66247361,0.0
1.22560864602,0.953815734746,9.72237888902e-06,13704625.3228,2.62355883974e-05,0.0,15060068.0653,689.614420623,658.714164293,65066067.6569,1911.83038233,59027297.631,66491818.5069,5087.50148963,5075.25933275,0.0
1.13646353278,0.833477957347,1.03026126598e-05,-10379565.7875,2.33396258342e-05,0.0,5595178.46738,683.716187396,653.106449836,66370834.5624,1807.87728429,44015497.0161,67879378.4376,4717.46012457,4708.30195819,0.0
1.12125108785,0.797933852357,1.02370348073e-05,-14169971.8004,2.14146080633e-05,0.0,5600148.97021,682.850304522,652.086988093,66351045.0357,1786.43294977,41704528.3656,68208950.5777,4654.31326567,4644.68509251,0.0
1.00019273839,0.999131612226,9.93739952577e-06,-95655112.3294,1.36778149205e-05,0.0,5909095.19404,678.587628783,644.337671023,67140992.0442,1625.11980413,70489275.2014,70755140.3936,4151.80005706,4143.48854366,0.0
1.18170222437,0.832432518249,1.01174542066e-05,4605371.13939,2.55800587858e-05,0.0,6290311.69334,686.616110287,655.927853589,65707654.2912,1861.13105919,52392176.6038,66985936.8381,4905.24593336,4894.51931057,0.0
1.11446850174,0.874373711601,9.44804572479e-06,-17213208.1114,1.8878010843e-05,0.0,5661058.94587,682.962033927,651.696435865,66544258.859,1777.4911347,40143017.859,69219032.7988,4626.15875072,4616.44652271,0.0
1.14084100076,0.957913992238,1.03632667723e-05,-8621626.83695,2.12397220424e-05,0.0,5532410.06039,683.883980516,653.305336129,66170934.1746,1811.04403306,44874714.6095,68210014.9053,4735.63099415,4725.57036438,0.0
0.993508190772,0.735944724203,9.56780907738e-06,-95399691.8667,1.58149588706e-05,0.0,5922576.07421,680.212985413,643.913153384,67163899.3721,1616.48411949,70264241.1255,70509962.6863,4124.05249989,4115.77215082,0.0
1.14086011381,0.924541509977,9.96958965705e-06,-8711661.54614,2.17887480623e-05,0.0,5595903.41714,684.116605319,653.361164359,66382680.5361,1812.88526787,45335382.0554,68208943.7109,4735.71033243,4726.35289841,0.0
1.23272094022,0.986724128702,1.01118912879e-05,15940187.7101,2.69883313996e-05,0.0,17440351.4716,689.743733837,659.179353021,65114293.3144,1921.2126489,60870738.7691,66656880.1335,5117.02462285,5105.36658038,0.0
1.14721729187,1.04854968018,9.99815238488e-06,-7591894.5754,1.98791305376e-05,0.0,5537272.15046,684.481900185,653.738033657,66185927.0119,1819.14505492,45691722.2298,68578177.0197,4762.09897855,4751.90504857,0.0
0.987890352567,1.06851281384,9.95095384019e-06,-95349933.2454,1.25671408068e-05,0.0,5996098.15123,679.654403182,643.565977719,67384878.35,1612.41500918,70220268.2032,70464204.5502,4100.73285351,4093.57185422,0.0
1.1014117422,0.966229195435,9.78239501422e-06,-19630808.3041,1.65243156189e-05,0.0,5712156.38645,681.910514367,650.909078261,66672131.7737,1760.75597351,38943065.4447,68593644.8705,4571.96014187,4562.68073738,0.0
1.20715342435,1.05912074373,9.72764823584e-06,9202094.41755,2.25626684172e-05,0.0,10593377.3221,688.300303261,657.540635521,65513434.2673,1891.4790175,55511918.4421,67011699.7793,5010.89386448,4999.49620252,0.0
1.06485099554,0.969734650365,1.03630380089e-05,-34828632.4218,1.52600855418e-05,0.0,5800268.5107,679.301354446,648.460150928,66928458.8987,1713.97376048,34666907.1555,69896632.8784,4420.19648249,4411.85227998,0.0
1.24080310446,0.969162921703,9.54689331862e-06,17484851.3601,2.7191300063e-05,0.0,18987139.3164,690.490574017,659.639206215,65099576.5126,1931.17368964,62168882.4688,67098827.226,5150.57368661,5138.79150738,0.0
1.20876981272,1.33182166941,1.01605755186e-05,10584425.8901,1.9093930276e-05,0.0,11919463.7592,687.946718293,657.597393417,65457998.5227,1892.00237527,56541279.8685,66829032.7919,5017.6034926,5006.07290166,0.0
1.08081031229,1.07740851753,1.02895663572e-05,-28961634.5564,1.50059111225e-05,0.0,5780840.18136,680.369037419,649.596318461,66886115.9668,1735.88255906,35592358.006,69242882.8232,4486.44360632,4478.14146094,0.0
1.12506768075,0.997225861444,9.78955685772e-06,-13588636.8702,1.87185367631e-05,0.0,5643574.73244,683.251153531,652.334161076,66508981.0982,1791.80042372,42145082.1474,68490007.3987,4670.15594279,4660.6648554,0.0
1.00352534962,0.957131166094,9.79520069564e-06,-95673277.7905,1.37416567563e-05,0.0,5931713.72729,678.480363319,644.556359482,67212643.1707,1630.90522764,70511846.4156,70836135.075,4165.63372627,4157.67812534,0.0
1.02198670863,0.924769906466,1.0100656312e-05,-68940384.8776,1.43477335028e-05,0.0,5865927.54135,677.786612201,645.722368246,67066359.8363,1655.32364128,48677943.4931,70729100.4361,4242.26682752,4233.93479167,0.0
1.10647749541,1.09022172015,9.8515251052e-06,-17825045.3874,1.55544933418e-05,0.0,5696597.79685,682.095467845,651.209673653,66631289.7514,1766.95036364,39879141.5306,68906178.2549,4592.98808345,4583.52717678,0.0
0.982818216165,0.894865271257,9.89860678802e-06,-94965705.0716,1.4316801957e-05,0.0,5999005.44389,681.094385668,643.240023605,67393252.4107,1614.91228272,69881963.8072,70122256.262,4079.6784153,4072.58428047,0.0
1.09736178594,0.924610396756,1.05167452146e-05,-22264702.496,1.79448235471e-05,0.0,5688469.20486,681.256649728,650.643092927,66604202.349,1756.25273023,37339093.0939,68276530.9017,4555.14877344,4546.0999464,0.0
1.02626691157,1.02197861039,1.02173178617e-05,-64132384.4594,1.35854726234e-05,0.0,5857513.95341,677.729789237,645.98509167,67049254.0595,1661.02190587,45315999.6024,70839792.3298,4260.03394993,4251.63319497,0.0
1.16775970407,1.09510672031,9.95397129521e-06,-474753.483096,2.11095639773e-05,0.0,5516669.18655,685.760766245,655.124163858,66139971.5259,1846.24817868,49770322.0573,67885350.3511,4847.37053159,4837.55824492,0.0
1.19508527743,0.894311233652,9.51861741009e-06,6029704.71724,2.46234108319e-05,0.0,7662799.69372,687.886553025,656.783010574,65497441.3484,1876.29656062,53474114.8313,66829154.5238,4960.79898661,4949.05855303,0.0
1.14565647282,1.08632049422,9.5490600311e-06,-8086230.5886,1.90092785234e-05,0.0,5608875.13584,684.573020754,653.651607374,66430135.559,1818.70785108,45911610.6422,68509873.8539,4755.62001868,4746.07933233,0.0
1.15735441339,0.991372387255,1.06803340204e-05,-4687685.98801,2.27654365335e-05,0.0,5428599.68203,684.901909767,654.446564403,65818514.5437,1831.05299997,46359801.9453,67425884.6326,4804.17816998,4793.48509775,0.0
1.07339264368,0.998950359177,9.8738743166e-06,-32861709.2765,1.50415186634e-05,0.0,5807121.97495,680.067885591,648.968236002,66961927.4846,1725.52291173,34953829.7286,69845640.6294,4455.65286392,4447.27244922,0.0
1.19582446921,1.04617706854,9.87322171719e-06,6580175.838,2.22490216961e-05,0.0,8085626.29072,687.638873473,656.857707595,65477552.9154,1876.52218024,53574972.3648,66626556.2791,4963.86737169,4952.13983426,0.0
1.08977702467,0.89524334814,9.63849382134e-06,-26838851.9739,1.6974670688e-05,0.0,5759840.14939,681.398706241,650.152814171,66834487.6091,1746.88967239,36129609.1508,69411732.3441,4523.66442941,4514.93169939,0.0
1.06531952401,0.942182147644,1.00275505514e-05,-36364489.8546,1.52052523076e-05,0.0,5807003.01575,679.591092594,648.486962871,66950336.5726,1714.48464711,34664973.9659,70166972.9185,4422.14134417,4413.69597506,0.0
1.0423183989,1.18277928974,1.01846659289e-05,-49492947.332,1.22943773109e-05,0.0,5838249.54973,678.286714681,647.00007925,67013399.0988,1682.39583126,37347873.436,71001193.6532,4326.66367383,4318.00422513,0.0
1.20995891547,0.996372208142,1.00805842232e-05,10909152.3515,2.4545402013e-05,0.0,12176107.1163,688.302848384,657.664373581,65268724.3375,1893.33769604,56683967.8269,66455599.2055,5022.53945812,5010.73564339,0.0
1.20433310281,0.77328688339,1.00375204336e-05,9701967.80242,2.90377105081e-05,0.0,11057447.2949,688.226770226,657.330065969,65187113.8657,1886.67384273,55712688.2714,66746969.0426,4999.18670976,4987.3021092,0.0
1.12061970636,0.891230835705,1.05397467884e-05,-13712724.5914,2.03591000924e-05,0.0,5597078.56523,682.567793517,652.044394343,66346159.1218,1785.48748862,41954919.8368,67772838.1838,4651.6924011,4642.07482695,0.0
1.02768718219,1.15823720432,9.90117410992e-06,-65111320.2722,1.22455274161e-05,0.0,5931813.35786,677.945374214,646.099668524,67290762.2966,1665.72531088,46051500.4605,70921226.1583,4265.92949327,4258.71869855,0.0
1.18411669286,1.00048351939,1.04002138669e-05,5495787.33949,2.27194895281e-05,0.0,7010918.25436,686.541902637,656.08212378,65550921.3081,1862.37009202,52718694.3755,66701155.8446,4915.26839206,4904.07097884,0.0
1.15579508394,0.957886650161,9.59824705947e-06,-5066782.77371,2.20890377825e-05,0.0,5565434.14865,685.289951036,654.350678159,66300793.0602,1832.0265706,47518981.1343,68800559.8399,4797.70539343,4788.09264379,0.0
1.16988995814,0.842873889841,1.00802608142e-05,1084782.91235,2.426502919e-05,0.0,5428775.13619,685.96724671,655.236217973,65832269.6935,1846.70857282,50412129.5388,67470811.1154,4856.21321624,4845.58166691,0.0
1.02254509733,1.0837048354,1.01923584783e-05,-67723929.6097,1.29378864763e-05,0.0,5870591.63467,677.639968777,645.757155304,67083732.8441,1655.9926454,47804602.4332,70883134.3046,4244.58469902,4236.24371116,0.0
1.04189165915,1.19763785911,1.0022456578e-05,-51516325.2549,1.22628636813e-05,0.0,5847393.96437,678.40124058,646.969968246,67041922.5441,1682.00462576,38214902.6135,70939837.3302,4324.89227713,4316.3278728,0.0
1.12705528251,1.09634888855,9.95121667811e-06,-13282980.7475,1.80224811216e-05,0.0,5663741.78421,683.206236442,652.490204819,66578538.2581,1795.53618588,42500263.8111,68306165.9136,4678.4064777,4669.39874638,0.0
1.07130357852,0.897837830923,1.01535003064e-05,-32359560.9121,1.61865011654e-05,0.0,5783851.21142,679.781889384,648.820080543,66882760.7779,1722.1791904,35050082.8851,69584391.568,4446.98115444,4438.44228681,0.0
0.992262179757,0.722516594683,1.03793144878e-05,-95122300.8273,1.5704882118e-05,0.0,5899523.28519,678.637253674,643.829285976,67107885.638,1614.95913408,70020147.8504,70267169.9595,4118.88030817,4110.77752944,0.0
1.08772501849,1.03501484612,1.01530124245e-05,-26376709.6878,1.57292047092e-05,0.0,5756036.2204,680.843054753,650.006038797,66822490.4671,1744.28478497,36099914.7465,69238515.6801,4515.14655175,4506.54280549,0.0
1.21689134721,0.760247639957,9.89687820808e-06,12163972.6334,3.00790589122e-05,0.0,13426338.598,689.097052912,658.152003808,65140718.3981,1902.66228804,57713315.4912,66202580.1807,5051.31598227,5039.51960433,0.0
1.10979595692,0.949552869777,1.01270877557e-05,-17339859.5872,1.82714001016e-05,0.0,5627618.98446,682.205255691,651.381672805,66423293.9879,1770.12199513,39953706.3803,68997116.6961,4606.76301717,4596.83986338,0.0
1.11770289846,0.699316978946,1.00218594371e-05,-15085993.8509,2.26962294282e-05,0.0,5581075.31449,682.868076884,651.833399951,66289083.1386,1780.81322037,41215179.8637,68855801.8434,4639.58473151,4629.5239371,0.0
0.984419435863,1.11721084887,9.596724776e-06,-95107929.9243,1.27494684361e-05,0.0,6019259.18206,681.808939204,643.346138289,67460023.8049,1619.61903854,70007285.2687,70247429.7934,4086.32507827,4079.29052071,0.0
1.12179488729,0.824900731644,9.80917972748e-06,-14459027.0622,2.06516224988e-05,0.0,5599808.47842,683.169547088,652.106563852,66354182.6151,1786.26068505,41643171.9335,68532581.8956,4656.57057714,4646.53742771,0.0
1.02365566656,0.936231096869,9.88210360001e-06,-68489932.2426,1.40407654325e-05,0.0,5928498.45645,677.929907269,645.853671232,67267742.2247,1660.22968603,48373852.6144,70971200.3598,4249.19467189,4241.95065771,0.0
1.04255130332,1.04917763207,9.56861561933e-06,-52496812.024,1.32874507053e-05,0.0,5886547.20984,678.756495638,647.028593172,67156442.4979,1684.25971656,38714238.6366,71153967.7577,4327.63046008,4319.74850854,0.0
1.24041400809,0.953722069742,9.8170775969e-06,17547469.7403,2.77413794954e-05,0.0,19167366.2399,690.332559813,659.594332602,65016140.4128,1930.01553145,62170140.6351,67037823.9576,5148.95854758,5137.06345806,0.0
1.2509971264,1.07416235596,1.00370776232e-05,19782428.2841,2.68739461991e-05,0.0,21496327.1037,690.917223224,660.256920822,64708468.7634,1940.0168375,63868418.472,64774687.2156,5192.88907169,5180.23580299,0.0
0.990846478078,0.928663867788,9.93372199876e-06,-95450205.3178,1.38328590117e-05,0.0,5982658.3748,679.333864815,643.757557816,67346426.8275,1615.01195831,70308541.3869,70550803.829,4113.0037305,4105.79949568,0.0
1.09517844009,1.03465328273,1.05862875886e-05,-22758550.72,1.64823493689e-05,0.0,5700543.98412,681.023200613,650.501461928,66638324.8012,1753.32335378,37103646.6622,68514574.8287,4546.08570481,4537.07211938,0.0
1.09314790777,1.05256871575,1.02146815016e-05,-24403379.7715,1.59602254854e-05,0.0,5739526.84162,681.082892447,650.329934092,66766867.6929,1751.33955923,36620979.8214,69000779.9238,4537.65696515,4528.96912567,0.0
1.11765033996,0.88309059066,9.65325081128e-06,-18082085.5567,1.98016969446e-05,0.0,5688530.84814,682.981776737,651.897160981,66645278.748,1783.90882426,39588665.7036,69229736.5701,4639.36656117,4630.39224404,0.0
1.07673650405,1.11488708564,1.02396295782e-05,-31182597.2164,1.43614679784e-05,0.0,5793413.71515,680.129682935,649.308955276,66932704.878,1730.43015,35122121.2543,69260261.9654,4469.53322831,4461.29392963,0.0
1.08736474946,1.19269924837,9.85945740233e-06,-27441539.5845,1.37459403106e-05,0.0,5779822.31047,680.988951783,650.002951377,66890166.207,1743.7079334,36003721.3392,69406787.648,4513.65107501,4505.05295347,0.0
1.02637394187,0.946784187127,1.03475569216e-05,-64656840.8161,1.42438918475e-05,0.0,5826983.27717,677.639360889,645.980857363,66962308.9369,1659.95870946,45657427.2309,70526292.8776,4260.4782327,4251.65251454,0.0
1.18494752038,0.79038690281,9.84830416105e-06,4671299.52452,2.63704204356e-05,0.0,6383993.13324,687.040690787,656.141246421,65684197.7162,1865.27992375,52618499.6978,66987056.8816,4918.7171571,4907.83688391,0.0
1.12824783894,1.01783169946,9.73228983534e-06,-12788815.9629,1.86709344328e-05,0.0,5633092.75054,683.4992644,652.5549727,66478848.5949,1795.81559053,42658178.4488,68050910.4418,4683.35677944,4673.78877353,0.0
1.05378105374,1.09281452291,1.0204220958e-05,-43514289.4496,1.35251577348e-05,0.0,5804841.47328,678.853582761,647.724723893,66934685.2635,1697.70040287,35347043.1293,70283455.1427,4374.24515407,4365.39828646,0.0
1.09517122972,1.05566100337,9.88457878204e-06,-24502695.3831,1.57384601114e-05,0.0,5751104.72157,681.416191403,650.453149803,66811922.4521,1754.1377317,36695419.1934,69207338.8014,4546.05577457,4537.33608273,0.0
0.994513380999,0.867409753687,1.0193807456e-05,-95280571.1756,1.47555786812e-05,0.0,5908567.00831,678.76702921,643.9741506,67136173.9121,1617.84073972,70159457.2417,70396072.6801,4128.22504453,4120.08612146,0.0
1.18399076228,0.968773620304,9.64710652983e-06,4039212.28166,2.24040782455e-05,0.0,5984102.37955,686.975588356,656.094140199,65810970.9405,1863.98843482,52388116.7732,67092074.2974,4914.74565422,4903.86196634,0.0
1.08228346087,0.994843087363,1.03334112952e-05,-27884888.2888,1.60816361808e-05,0.0,5764903.82896,680.448913535,649.679578778,66835204.3089,1737.54140567,35788195.9967,69206908.0321,4492.55864607,4484.1373761,0.0
1.07549267236,1.01805200451,1.05869364295e-05,-30243030.8808,1.55534983838e-05,0.0,5776443.56362,679.858903291,649.240927614,66870394.2394,1728.83271695,35155290.09,69138332.0764,4464.37008297,4456.14816217,0.0
1.07979933362,0.95811118938,9.78111949154e-06,-30440961.4012,1.58320123213e-05,0.0,5793169.19015,680.506138339,649.37443936,66925539.8933,1733.96872085,35455600.7033,69385831.2336,4482.24703386,4473.76741832,0.0
1.10457674331,0.930622182374,1.0111533435e-05,-21133561.467,1.84022503092e-05,0.0,5701190.58597,681.932448399,651.106344511,66667030.7213,1766.34669127,37911376.3663,68664453.0867,4585.09806148,4576.23030595,0.0
0.981282761805,0.975200689725,9.69577200287e-06,-94926522.216,1.39925939286e-05,0.0,6015724.96363,682.056660994,643.14371529,67442804.5463,1618.0919422,69847414.2224,70085757.2744,4073.30474425,4066.31540848,0.0
1.08622029637,1.1124932127,1.00955500042e-05,-27110075.1298,1.46572335033e-05,0.0,5767944.00426,680.780992638,649.92430509,66855611.1706,1742.25085803,35968961.8112,69306752.4795,4508.90045023,4500.32093261,0.0
1.16290076505,1.06271182275,1.00076847794e-05,-1001075.95348,1.97239032528e-05,0.0,5454294.55971,685.481874413,654.791470561,65917193.6153,1836.72833164,49358007.9049,67751423.1425,4827.20107572,4816.2760746,0.0
1.15153942276,0.852132763847,9.57221219484e-06,-6045787.19632,2.30875694675e-05,0.0,5545167.20556,685.106078896,654.054097495,66225246.6677,1825.58324363,46968147.5725,68838967.5779,4780.04014388,4770.09954398,0.0
1.19529727748,0.76166846849,9.80591060781e-06,6525652.64242,2.81045249963e-05,0.0,8059054.53279,687.889681351,656.819006102,65357703.5866,1876.50465845,53545315.8892,66554476.7837,4961.67899882,4949.96123515,0.0
1.23832420806,0.990942570166,9.94277860269e-06,17161204.6918,2.69275239782e-05,0.0,18754705.0187,690.129725197,659.461677029,64985248.932,1926.87744326,61832967.8267,66967567.8162,5140.28378766,5128.25781624,0.0
1.13513311945,0.843096503374,9.96972230315e-06,-9946710.28738,2.20814672009e-05,0.0,5591276.39571,683.849802068,653.019357674,66358164.5578,1804.8423345,44541681.1481,67816551.7272,4711.93757884,4702.38652776,0.0
1.22836391553,1.26434904784,9.84084683208e-06,14554872.7679,2.08800519479e-05,0.0,15980602.3521,689.449741346,658.90402123,65254851.1497,1915.32870775,59767620.1101,66814191.2593,5098.93861336,5087.09592736,0.0
1.20170129639,0.744665543435,9.92625886921e-06,9533020.41403,2.92623381637e-05,0.0,10953666.7072,688.090539224,657.217906034,65414891.3779,1885.04790825,55718201.5736,66806516.3782,4988.26208131,4977.08216434,0.0
1.07723871188,0.816224662693,1.02215648107e-05,-30978313.1193,1.78777873686e-05,0.0,5773750.48048,680.291432537,649.343502335,66872925.5569,1731.30739066,35141397.164,69208064.8028,4471.61789301,4463.37096211,0.0
1.21267609887,1.20062108823,9.86190037234e-06,11009650.1179,2.08864138064e-05,0.0,12300422.7292,688.470230191,657.844422202,65334835.6902,1896.35193946,56870087.6853,66549073.1661,5033.81848641,5021.88004548,0.0
1.21979823938,0.986100916281,9.73610133756e-06,12583543.6543,2.50885913069e-05,0.0,13832556.3061,689.182060496,658.349335784,65231001.0978,1905.64964783,58101554.5724,66379817.4519,5063.38249167,5051.50511235,0.0
1.15346325045,1.04119190353,9.55865854373e-06,-5515283.91226,2.00688393201e-05,0.0,5556696.52189,685.13640596,654.186897584,66260212.0215,1827.73916135,47298300.0587,68868031.2992,4788.02595262,4778.02672651,0.0
1.06146293708,0.629774544252,1.02067947548e-05,-37336259.9362,1.85355869052e-05,0.0,5789394.90792,679.368810159,648.233618056,66881949.5811,1709.6329508,34589872.4638,69915768.3434,4406.13265182,4397.74750368,0.0
1.0817743733,0.743003864389,1.019832653e-05,-28240991.2866,1.89324509212e-05,0.0,5750354.06162,680.620745544,649.651066069,66796184.4019,1736.71458351,35692302.6948,69196901.6359,4490.44542357,4481.93513001,0.0
1.1541497772,0.849395650534,1.01275742095e-05,-5700487.77099,2.46679518218e-05,0.0,5545120.60638,684.797122651,654.145876261,66235779.147,1830.3681241,46737156.8514,68528307.7238,4790.87572516,4781.40819339,0.0
1.14325034956,0.906120967987,1.03816073309e-05,-7173886.52322,2.2742508762e-05,0.0,5567147.75492,683.980568072,653.493010609,66268045.8259,1815.78655088,45985590.8167,68460913.9468,4745.63220102,4736.2627019,0.0
1.00950133497,0.913748860715,1.0233874143e-05,-83777726.2311,1.41122137566e-05,0.0,5945395.47573,677.434372516,644.949115363,67281894.8783,1641.13410833,60290823.1309,70709456.044,4190.44004146,4183.39695335,0.0
1.17831547776,0.918918653664,1.00374808763e-05,3554584.45544,2.35159087782e-05,0.0,5663470.82444,686.405942863,655.736957791,65805960.3345,1857.12156527,51912848.3909,67098668.3427,4891.18754818,4880.56547945,0.0
1.20878628499,0.8704574347,1.01601943281e-05,10753046.0967,2.70050424459e-05,0.0,12112846.8385,688.252429047,657.59438117,65283940.7299,1892.69179079,56637450.6965,66607007.9728,5017.67186899,5006.14097939,0.0
1.01633974132,0.981525690491,1.02420562509e-05,-76689857.0169,1.39412673917e-05,0.0,5857078.21051,677.568736607,645.359328849,67025084.4717,1646.76622734,54527540.3048,70502497.3883,4218.82626622,4210.2505507,0.0
1.17900510941,0.932032270475,1.02320501746e-05,3820115.56119,2.352664452e-05,0.0,5810213.95486,686.325893365,655.766798806,65759274.5786,1857.7231959,51910182.9522,67014561.8549,4894.05020916,4883.36807479,0.0
1.0450271246,1.05749864494,9.90978243221e-06,-48843700.2498,1.33574162738e-05,0.0,5869539.11487,678.596759786,647.20248298,67111727.8019,1687.61781488,37133379.6749,70844385.3666,4337.90759421,4329.98830921,0.0
1.18449262196,1.03089923454,1.01298114917e-05,4857438.28697,2.19883414312e-05,0.0,6478815.36559,686.661499953,656.109804181,65751786.1556,1864.33733425,52597951.3121,67009641.3805,4916.82887376,4906.05120303,0.0
1.19724433747,0.951174194076,9.96559667563e-06,7428997.24611,2.42229727859e-05,0.0,8929717.99332,687.730973012,656.941009343,65394399.4554,1878.07871966,54082047.6071,66534694.0271,4969.76124484,4958.0046063,0.0
0.987599735726,1.16169476464,9.59447844105e-06,-95247995.5986,1.24035367006e-05,0.0,6014828.46579,681.336469597,643.550308652,67448938.0625,1620.27231409,70130361.973,70372323.1392,4099.526503,4092.44617954,0.0
1.10677548897,0.773175969008,1.06400449815e-05,-17563955.5571,2.09044100133e-05,0.0,5641581.09914,681.735765089,651.201008794,66474648.3847,1768.34614697,39798711.82,68800023.4624,4594.22505471,4585.03468523,0.0
1.14645819103,1.08788680782,1.01717147928e-05,-7801598.62064,1.99014846898e-05,0.0,5589209.90961,684.243786961,653.704957462,66362656.2009,1820.34432141,45525302.8712,68531902.9177,4758.94795097,4749.60386185,0.0
1.1539630327,0.861661206471,1.00096839122e-05,-4123699.11112,2.23456527255e-05,0.0,5510749.5868,684.832340641,654.116290304,66093640.1454,1827.55166529,47816316.7209,68075547.5957,4790.10054874,4779.86153697,0.0
1.13155819632,0.81178020587,9.87796666729e-06,-11631926.9241,2.21704789615e-05,0.0,5596614.00703,683.734419873,652.779070788,66358753.6553,1800.22956318,43344481.4283,67459952.0585,4697.09807292,4687.4752905,0.0
1.0209463734,1.06128670099,1.04022045196e-05,-68090765.9671,1.31194081998e-05,0.0,5867106.67022,677.415861831,645.654954109,67074572.7142,1654.06537846,48064072.7233,70697163.3754,4237.94839598,4229.71832448,0.0
1.13280608291,0.59011825152,1.01328217534e-05,-11058922.2063,2.70850876151e-05,0.0,5531386.30806,683.762527264,652.778323719,66149262.5174,1801.4442324,43599787.7089,67461877.3618,4702.27805016,4692.35412749,0.0
1.13518794747,1.13508568918,1.00980401398e-05,-12039320.8025,1.80674578869e-05,0.0,5547874.58646,683.748392104,653.000942249,66217546.4614,1802.82296196,43187713.8778,67554479.1083,4712.16516995,4701.6881573,0.0
1.07920361217,0.890722717478,1.03581111152e-05,-28846892.3919,1.70334902208e-05,0.0,5765525.92285,680.29811014,649.488179203,66846204.9593,1733.56774791,35558677.7588,69185619.7633,4479.77419412,4471.40031492,0.0
1.22994437818,1.15479518627,9.77779050679e-06,14857450.1352,2.26762993477e-05,0.0,16330414.6195,689.640968873,659.013106088,65249235.7862,1917.94361573,60042302.5127,66844675.6277,5105.49911383,5093.79789814,0.0
1.23692724184,1.21060158959,9.98912764349e-06,16771726.6328,2.27811716024e-05,0.0,18318099.0964,689.875777631,659.382573041,65079426.7705,1924.72512295,61550768.1447,66996636.4393,5134.48498088,5122.42767418,0.0
1.15404276143,0.728582468989,1.01848876597e-05,-5534074.14981,2.72855154126e-05,0.0,5525211.6968,685.029016285,654.278339592,66175260.0641,1830.35118976,46752350.117,68436621.1094,4790.4315027,4780.96569294,0.0
1.00976127742,0.950638474629,1.02439151599e-05,-83349489.8279,1.38332546749e-05,0.0,5945939.27362,677.409073096,644.965266088,67283641.9736,1641.47046366,59931457.7771,70944059.6154,4191.51906257,4184.47231145,0.0
1.06550147121,1.06792301505,9.84973950217e-06,-37011666.9754,1.37797306772e-05,0.0,5821594.59334,679.684588238,648.498648495,66992977.0805,1714.62035165,34682454.4085,70211349.3963,4422.89660699,4414.44839241,0.0
0.993034421603,0.98341202288,1.05727152355e-05,-95155649.3037,1.36762058315e-05,0.0,5903589.31582,678.014102866,643.87608919,67124395.4527,1615.89203765,70049530.8472,70414760.0376,4122.08588407,4113.9707139,0.0
1.02567426777,0.841850188324,1.02931441695e-05,-64027803.4829,1.50926224696e-05,0.0,5845914.85621,677.702825469,645.94575094,67013350.7978,1660.36010039,45235038.3933,70774398.4382,4257.57388551,4249.18265916,0.0
1.17936249494,1.08813361783,1.02158369542e-05,3827870.56903,2.07227032126e-05,0.0,5790161.02173,686.25298868,655.789283258,65814235.96,1857.95650749,51918709.9393,67075105.0418,4895.5337165,4884.84537032,0.0
0.97253904611,0.87216763249,9.86172881786e-06,-94387823.2213,1.4907237107e-05,0.0,6020087.72028,683.36633885,642.578495234,67449266.2821,1617.25523832,69373172.5122,69605453.3262,4037.0095804,4030.09663191,0.0
1.07446652065,0.849307050244,9.76940321191e-06,-32736763.8834,1.67065219469e-05,0.0,5799448.21041,680.256487946,649.03213366,66937725.8026,1727.04406163,34975277.3848,69834782.1463,4460.11052722,4451.71351814,0.0
1.04459862288,0.971339445709,1.00434233803e-05,-49111955.6625,1.44104069696e-05,0.0,5826767.51662,678.614161339,647.163668264,66984417.4611,1685.74387859,37161139.7071,71062617.9339,4336.12888357,4327.52074337,0.0
1.03915427633,1.06777071657,1.00486451711e-05,-51949632.1557,1.31384710053e-05,0.0,5840157.35955,678.31440592,646.810182225,67017153.8187,1677.97904289,38345083.9253,70882565.6525,4313.52940105,4304.83417988,0.0
1.10408034713,0.981085863037,1.01367603497e-05,-21227407.2475,1.7788577803e-05,0.0,5705165.24464,681.865649861,651.076457575,66679089.6583,1765.65527195,37874812.5415,68655283.7779,4583.03752094,4574.17761105,0.0
1.05939504603,0.826850012787,9.65384690911e-06,-41264007.9766,1.60794722902e-05,0.0,5808072.87276,679.620558976,648.075127072,66936944.6793,1705.72754571,35045400.9013,69711093.5682,4397.54883607,4388.80207482,0.0
1.18221601724,0.869362829412,9.95924467326e-06,4150942.64288,2.46548116516e-05,0.0,6044622.02961,686.734870521,655.972157242,65761472.3132,1862.00320694,52247665.3475,67000387.0934,4907.37868756,4896.64069261,0.0
1.1789773649,1.11871671758,1.03152374969e-05,3383030.50187,2.04028160807e-05,0.0,5365090.22346,686.223806992,655.742066036,65616493.6965,1855.60229412,51522092.4041,66853203.9621,4893.9350417,4882.51188153,0.0
0.98139229061,0.869945634481,1.03966159058e-05,-94867488.6903,1.47060936878e-05,0.0,5996305.56549,680.0687983,643.150405674,67400708.3643,1611.5996925,69795807.5293,70032631.2884,4073.75939832,4067.11026029,0.0
1.10967563826,0.979786813923,9.59218226849e-06,-18914038.0481,1.7335138347e-05,0.0,5687951.84525,682.543772463,651.416290847,66620282.1888,1771.53761302,39413364.6782,68897871.5616,4606.26357442,4596.82694795,0.0
0.969631015937,1.0867235573,9.96892641292e-06,-94364871.2639,1.28550211891e-05,0.0,6020889.33938,683.017615794,642.38739672,67435657.8631,1612.36177481,69352967.0216,69583251.9118,4024.93834715,4017.79408178,0.0
1.08438381047,1.00308106206,9.71561887569e-06,-28957167.3512,1.56161205345e-05,0.0,5781121.5767,681.001218103,649.818175336,66899058.5818,1739.94833553,35777921.0327,69407206.9952,4501.27719726,4492.72630202,0.0
1.01850104211,0.949081896418,9.86501840018e-06,-74936006.6763,1.38406128872e-05,0.0,5942797.54786,677.873917234,645.521597991,67298186.7897,1653.34616419,53182633.0417,70877557.3822,4227.7978258,4220.62716285,0.0
1.03793174023,0.925134198336,1.01533390145e-05,-53548821.9996,1.43859796029e-05,0.0,5842468.47415,678.213419478,646.716623056,67021664.8222,1677.30052208,39103366.5963,70993445.867,4308.45465369,4300.0402802,0.0
1.21555602862,0.80799159519,1.00331529688e-05,12031484.0781,2.88358521293e-05,0.0,13308516.4061,688.881914476,658.065703046,65142643.8611,1900.76676325,57577880.2741,66213459.2332,5045.7730748,5034.00115958,0.0
0.954735489819,1.15801994672,9.60743962491e-06,-93791492.0396,1.22575371212e-05,0.0,6064035.04003,686.144901324,641.427860822,67540184.0808,1612.25254522,68848121.9497,69071168.9477,3963.10701824,3955.97738159,0.0
1.17082308546,1.06293622504,1.00816240853e-05,1261417.82749,2.03966360479e-05,0.0,5451106.00056,685.874803302,655.2934355,65902616.8875,1847.55816284,50470035.1586,67547705.4833,4860.08662774,4849.43881742,0.0
1.1780014073,1.06587639563,9.84572324933e-06,2525182.90144,2.05825655425e-05,0.0,5444825.67537,686.429821118,655.727784123,65894278.8078,1856.85434622,51404142.478,67174535.6337,4889.8838417,4879.21770608,0.0
1.08723189384,0.926138874721,1.03623662273e-05,-26093124.1689,1.72416876981e-05,0.0,5745446.35678,680.707316831,649.966001597,66783864.1384,1744.06641692,36148935.5984,69137468.0823,4513.09959133,4504.60194764,0.0
1.09258712339,0.996335727016,1.00253613112e-05,-25157476.0468,1.65349964927e-05,0.0,5744736.30536,681.191363881,650.280730255,66793103.8771,1750.67173082,36468466.9399,69175294.4994,4535.32914919,4526.65009895,0.0
1.06784665323,1.12999745394,1.01584364824e-05,-33980469.0536,1.34853704292e-05,0.0,5807534.51639,679.544425059,648.647931543,66948628.1912,1717.45674222,34826077.6264,69873945.9275,4432.63145756,4424.14682537,0.0
1.05372065318,0.943619387958,1.03404649064e-05,-41725378.4371,1.49060563006e-05,0.0,5807594.17814,678.750213493,647.714865949,66931944.3163,1698.52348849,35107157.1088,69996549.7725,4373.99443135,4365.47654736,0.0
1.10383826087,0.964795273011,9.88000108443e-06,-21708078.8279,1.76424512291e-05,0.0,5719077.74304,682.041403106,651.074501662,66729150.9174,1765.53757534,37706215.6599,68612759.5575,4582.03262087,4573.17642285,0.0
1.01010828227,0.936001619782,9.9208724835e-06,-84594511.9074,1.38099233125e-05,0.0,5961342.8078,677.774955188,644.986284657,67324501.9823,1642.05509405,60977822.5493,70842359.3598,4192.9594797,4185.90756482,0.0
1.18533950218,0.992300804148,1.04653067418e-05,5652548.43298,2.31184624336e-05,0.0,7145257.43254,686.629645014,656.169618972,65472952.1715,1863.3657381,52727648.8163,66628432.1811,4920.34427355,4908.91333277,0.0
1.0111547058,0.866532612321,1.03701614186e-05,-80361258.7621,1.4439603874e-05,0.0,5934143.16998,677.256791851,645.037287806,67251422.9216,1643.40075081,57474855.8029,70541395.4015,4197.30318378,4190.23678308,0.0
1.01953478687,1.0454177945,1.01163233985e-05,-71122198.9928,1.32406681917e-05,0.0,5878060.82599,677.686742449,645.569676202,67097086.9026,1651.97137977,50282321.4337,70947939.6439,4232.0889003,4223.79612712,0.0
1.04913579236,0.932267395879,1.00245581888e-05,-45414456.8002,1.47684563396e-05,0.0,5849413.29158,678.74482663,647.463979578,67060203.833,1693.14463191,36042535.9266,70519925.7752,4354.96267409,4346.98127122,0.0
1.04137686912,1.01843476283,9.42650677294e-06,-54115477.787,1.35926756829e-05,0.0,5852577.18647,679.060408921,647.026226641,67052009.8075,1680.87892616,39484411.6618,71470946.8629,4322.75538372,4314.02373956,0.0
1.13788725398,1.14413700344,1.01026252688e-05,-9982273.44503,1.78720737811e-05,0.0,5568656.75899,683.838413922,653.181538256,66265518.9763,1806.92596819,44340339.5099,67970991.7442,4723.36999127,4713.25807309,0.0
1.08838908788,0.723847921664,9.85680707716e-06,-27007853.9637,1.95640002715e-05,0.0,5743973.95086,681.248188134,650.064001277,66781354.5113,1745.42619939,36036442.3943,69294780.4993,4517.90310379,4509.28973422,0.0
1.15102204949,1.14991899436,1.0414923937e-05,-6858162.5548,1.95453742789e-05,0.0,5470174.59934,684.592559304,654.054440492,65967020.6707,1822.47635796,45551263.8719,68054996.2892,4777.89252743,4767.10832538,0.0
1.19079206471,1.15626242357,9.85197324157e-06,5378222.38599,2.00426379332e-05,0.0,6985476.40901,687.225645896,656.506915264,65587543.6803,1870.31775436,52933675.7534,66885175.101,4942.97786061,4931.33026379,0.0
1.0728900981,0.999319693235,9.88843154771e-06,-33027092.3069,1.50148943252e-05,0.0,5807726.37929,680.035174543,648.941348701,66963264.402,1724.8660182,34929812.589,69865725.1635,4453.56679721,4445.19414361,0.0
1.07156379492,0.930218099193,9.93188184176e-06,-33105336.2959,1.57081513965e-05,0.0,5794236.2166,679.970176813,648.861878217,66911114.847,1722.48635204,34953707.321,69776163.8671,4448.06131271,4439.51983254,0.0
1.04314049517,0.928430620847,9.94604743106e-06,-50858526.4442,1.47319612635e-05,0.0,5831112.05307,678.614632045,647.041182046,66993432.2811,1683.83020477,37891702.1131,70950856.14,4330.07619545,4321.49162511,0.0
1.00047573453,1.08523037819,1.03055282672e-05,-95758842.7881,1.29310057525e-05,0.0,5901679.52711,677.892969575,644.350393665,67125940.5319,1625.70737704,70579560.2686,70579560.2686,4152.97477403,4144.74001103,0.0
1.16220305898,0.944835077673,9.79424384394e-06,-2596762.59501,2.13770249984e-05,0.0,5454654.39265,685.675871511,654.756852492,65929772.7593,1836.46990907,48418040.1692,67782432.4863,4824.30489783,4813.3917299,0.0
1.10345083646,0.983920689903,1.01372560462e-05,-21407705.4859,1.76992351417e-05,0.0,5707288.96769,681.829139111,651.038868075,66684376.3336,1764.83595552,37784624.2397,68629643.4253,4580.42442215,4571.57445774,0.0
1.17014873318,1.06458980915,1.05185624005e-05,1973388.5346,2.06973853053e-05,0.0,5416027.84869,685.562742731,655.223716217,65747873.7626,1845.68853266,50759628.2962,67025682.4489,4857.28739143,4846.45560383,0.0
1.10603569612,0.838156804565,1.03680215421e-05,-17752590.5592,1.94655639135e-05,0.0,5651383.08423,681.844702388,651.159871651,66502763.3253,1766.56457255,39732828.6837,68839803.4454,4591.15417459,4581.77973376,0.0
1.0218524176,1.05767758552,9.60397040308e-06,-72833912.2583,1.32150859528e-05,0.0,5889194.83655,678.247288043,645.723539854,67129136.9902,1654.72041353,51583524.7515,71150860.0941,4241.70938546,4233.29456924,0.0
1.02922561004,0.938297032692,9.81922724285e-06,-62307642.1082,1.42217898852e-05,0.0,5919359.78136,678.134556777,646.206451481,67246659.711,1667.76342276,44170059.2398,71050426.5243,4272.31550728,4265.02328235,0.0
1.07708111043,0.864052858339,9.47966559612e-06,-31620855.706,1.63303895397e-05,0.0,5786249.0673,680.590534457,649.182233262,66890603.5067,1729.194647,35195020.8617,69775578.1795,4470.96368939,4462.14582976,0.0
1.02894383892,0.669050274652,1.01118431231e-05,-61075759.4372,1.65219193789e-05,0.0,5839641.78691,678.037299603,646.167570653,66997914.0348,1664.99013519,43327297.3154,70849993.3734,4271.14587536,4262.70170965,0.0
1.10152572016,1.03785469959,1.00918979065e-05,-22084744.0968,1.67607519843e-05,0.0,5719441.7085,681.722714674,650.92229251,66716721.2963,1762.28906803,37468198.3451,68531017.8521,4572.43326438,4563.61292303,0.0
1.04883262697,0.870507275898,1.02485362392e-05,-45782823.2253,1.55349086644e-05,0.0,5800487.55219,678.68374849,647.42588959,66911867.298,1691.29234874,36003045.9544,70382834.0851,4353.70423455,4344.93847361,0.0
1.06389466904,1.20361814101,9.62513735361e-06,-38023848.9373,1.2304268897e-05,0.0,5807163.03173,679.725092146,648.380166323,66933175.3241,1710.15667685,34861453.2966,69998926.9224,4416.22677118,4407.0716308,0.0
1.04245197977,0.693243456637,1.00970343259e-05,-50249938.1439,1.70141214218e-05,0.0,5812520.11635,678.554187103,647.000230474,66937480.5388,1683.11444579,37582555.1021,70867488.0527,4327.21816803,4318.6447181,0.0
1.07960625166,0.940501031845,1.00894371146e-05,-29429480.8442,1.62064369319e-05,0.0,5774145.05834,680.480307979,649.500705061,66864120.9341,1733.72425738,35549239.5054,69289845.0457,4481.44555064,4472.96893178,0.0
1.06086872007,0.925812099875,9.59802428849e-06,-40174961.6475,1.49512299744e-05,0.0,5833105.93579,679.673972105,648.187599136,67015397.6267,1708.51247394,34936022.0887,69854597.217,4403.66605701,4395.29017194,0.0
1.15262099208,0.880793014708,9.76327844341e-06,-5414770.71752,2.29278861169e-05,0.0,5534484.67385,685.059366331,654.138199718,66197179.785,1826.82043854,47280161.4945,68719036.7457,4784.52973812,4774.57099001,0.0
1.08373999985,0.876387840241,1.01045694509e-05,-27879344.6862,1.72629181108e-05,0.0,5757999.64338,680.741053015,649.773549041,66821656.136,1739.19281411,35790847.8476,69258112.0164,4498.60473938,4490.0638689,0.0
1.11693037325,1.03054014479,1.02045435209e-05,-15145684.4374,1.77566344511e-05,0.0,5638915.20696,682.44419455,651.79386954,66478664.9537,1780.40752232,41214622.4487,69010797.2807,4636.37797936,4626.82129335,0.0
1.02169216054,1.13873273029,9.84109108295e-06,-71333343.9211,1.22375543196e-05,0.0,5945482.68811,677.861551049,645.724769004,67311274.9653,1657.5110073,50442772.7507,70974760.913,4241.0441584,4233.82812279,0.0
1.08773893419,0.981775415601,1.01641015434e-05,-26353373.7357,1.64056519995e-05,0.0,5751405.14894,680.862357789,650.007388653,66808788.4602,1744.33925029,36107723.8204,69224935.7953,4515.20431582,4506.60110002,0.0
0.997385931082,0.899413790767,9.7568561179e-06,-95788184.8889,1.42400477072e-05,0.0,5992668.43412,678.999423606,644.177799808,67400856.2353,1624.73909513,70606035.0955,70901315.838,4140.14899992,4133.2782139,0.0
1.06343886358,1.03830351392,9.91601294386e-06,-37692201.1836,1.40153711223e-05,0.0,5822208.22091,679.534344215,648.363706332,66991928.8369,1711.92112516,34689351.9379,70097147.7075,4414.33472272,4405.91874233,0.0
1.15453477991,0.960114874054,9.5074747004e-06,-5273684.10733,2.14776643082e-05,0.0,5546797.97039,685.290716511,654.260261746,66229001.3599,1829.22930715,47417407.6893,68809230.2907,4792.47387141,4782.45660372,0.0
1.01012690863,0.845654776834,9.60223920716e-06,-89901064.4164,1.50348894692e-05,0.0,5885092.33762,678.516244591,644.975286052,67078202.6057,1638.16671156,65483232.9505,70855684.6866,4193.03679772,4184.48127102,0.0
1.00701943127,0.942944983512,9.73848129513e-06,-90325445.0351,1.38992784579e-05,0.0,5924269.91406,678.344939571,644.782507404,67194305.9604,1635.59500244,65840273.0101,70990493.276,4180.1376592,4172.12725015,0.0
1.14103098397,1.10712079771,1.00805516436e-05,-9141884.17447,1.8581684211e-05,0.0,5564217.75506,683.903031264,653.263476305,66259930.8663,1811.23473855,44790029.4558,68194024.1307,4736.41961446,4726.33166247,0.0
1.10067906034,0.986226890698,9.89264228794e-06,-22676180.8442,1.71227203447e-05,0.0,5729409.07582,681.828345662,650.864922224,66755088.3402,1761.39593225,37316523.7587,68866891.8963,4568.91877947,4560.11243921,0.0
1.01536782531,0.964249285306,1.02349620549e-05,-77802487.1923,1.40781710224e-05,0.0,5858722.3984,677.572096929,645.298456845,67025159.0934,1645.47664576,55411340.2046,70662993.7329,4214.79184286,4206.23213622,0.0
1.12223961079,1.04725165641,9.87413434777e-06,-14383756.9087,1.78868621737e-05,0.0,5658818.32671,682.983213558,652.150814184,66544104.4154,1788.34654422,41659934.2027,68876730.7775,4658.41662439,4649.07421818,0.0
1.15052955945,0.848825166908,9.67373894669e-06,-6123473.95009,2.31793747832e-05,0.0,5543399.25842,684.9753478,653.98474456,66219647.5402,1824.25327883,46886189.0649,68794165.7005,4775.84820128,4765.92433759,0.0
1.21472466237,0.931056906249,1.03917761548e-05,12537683.8548,2.66918962623e-05,0.0,13761774.7666,688.486836544,658.029897544,65238759.5982,1899.83339749,57988680.7652,66388396.8135,5042.3220735,5030.90903052,0.0
1.14290945993,1.04989356623,1.00499754309e-05,-8733359.69134,1.95668292056e-05,0.0,5553182.74161,684.055581807,653.364587411,66228615.4497,1813.68421365,45067711.7222,68310400.8433,4744.21716817,4734.0954813,0.0
1.01085833308,0.864350514791,9.99585202525e-06,-80771981.0873,1.46577510981e-05,0.0,5891474.31018,677.862202726,645.016567904,67095571.4833,1640.14852532,57826394.2638,70863408.3486,4196.07294062,4187.88876937,0.0
1.17676592951,0.805337953355,9.79540482852e-06,2305680.76062,2.5184687377e-05,0.0,5386678.38043,686.617684225,655.644439351,65707825.7938,1854.66912236,51209870.8971,66953782.7086,4884.7553734,4873.68600456,0.0
1.15062188,0.748930530283,1.02702087156e-05,-6339193.8242,2.65139046082e-05,0.0,5537762.8875,684.676402541,654.01378312,66211906.0031,1825.94357732,46312081.5409,68534892.2035,4776.23142388,4766.82227507,0.0
1.12379484534,1.02042001474,9.80231368017e-06,-13865370.6483,1.82608335737e-05,0.0,5649466.19502,683.148074027,652.250971448,66525803.0215,1790.14906608,41924054.6033,68687876.1539,4664.87240301,4655.40318734,0.0
1.06713682787,1.15565057788,9.91348165762e-06,-36023408.2451,1.3060134335e-05,0.0,5820214.25477,679.692774575,648.604792861,66992859.5859,1716.70670227,34688106.5937,70193012.8355,4429.68497249,4421.21116495,0.0
1.05010933284,1.24488561626,9.82314234585e-06,-45762037.9795,1.16636783861e-05,0.0,5858656.1515,678.891017237,647.512914782,67086867.9983,1693.71556826,36087517.4104,70524534.9462,4359.00384062,4350.63369601,0.0
1.22750627068,0.923721917093,9.67410686428e-06,14166091.7978,2.69890712624e-05,0.0,15604706.6073,689.791488234,658.835385721,65024984.409,1913.90042514,59385530.5344,66547001.3942,5095.37852959,5083.04655089,0.0
1.08809060767,1.21468694217,1.00617719922e-05,-26600283.6502,1.37008956473e-05,0.0,5770492.74629,680.865954287,650.036752595,66865719.8076,1744.62867529,36102093.1082,69323929.8621,4516.66411244,4508.05540499,0.0
1.1604577062,1.16787729371,9.5539297766e-06,-3829029.80486,1.8661285136e-05,0.0,5547261.03641,685.382260911,654.537167059,66238700.6062,1836.52903537,48069512.7494,68520320.5871,4817.05993844,4806.94056154,0.0
1.03193799613,0.81825574023,1.03011355195e-05,-58328345.4356,1.55002601713e-05,0.0,5830361.05697,677.909897027,646.342153788,66978134.1806,1668.69829015,41659016.6719,70825040.6851,4283.57462194,4275.08246537,0.0
1.18632199134,0.757385487126,1.01214301971e-05,5385822.03183,2.78108938648e-05,0.0,6973015.66424,686.99401546,656.2305661,65619981.0655,1867.00200247,52876579.7564,66851555.1926,4924.42258605,4913.61299213,0.0
1.06894990124,0.988965564022,1.0042257843e-05,-33877111.9177,1.49784054322e-05,0.0,5800426.15766,679.744189757,648.71688535,66926679.6982,1719.01059578,34837321.4923,69873749.1469,4437.21104005,4428.70911443,0.0
1.26235070973,0.792420174223,1.00341915305e-05,21989854.3459,3.53083147465e-05,0.0,23883527.6451,691.952376904,660.995416654,64404725.9226,1954.10179856,65544800.2838,66405943.1168,5240.01779609,5227.26773352,0.0
1.12964074571,0.925390807901,1.03569115418e-05,-10664241.3891,1.9874680372e-05,0.0,5583680.34715,683.116190834,652.572164444,66301819.6362,1796.73073231,43807312.4194,67621494.1416,4689.13873544,4679.3085196,0.0
1.15668335683,0.745925290996,1.04457220456e-05,-2686889.89056,2.53299058937e-05,0.0,5415924.71031,685.075600484,654.39773126,65784980.1249,1829.45513757,47940053.1434,67626938.1488,4801.3926142,4790.59251244,0.0
1.17942328009,0.959988286989,1.00864412177e-05,3317734.57659,2.27685741651e-05,0.0,5400391.6707,686.483075984,655.795714608,65679622.443,1857.38789769,51622194.1682,66938241.8969,4895.78603565,4884.66900664,0.0
1.20318936958,0.968708894369,9.70569720364e-06,9351238.68525,2.40402833667e-05,0.0,10767874.1753,688.117386793,657.317554435,65574159.486,1886.9878735,55686498.9158,66962046.4676,4994.43907313,4983.31492978,0.0
1.24896729823,0.951509527827,9.87464983941e-06,19276578.5027,2.88322108336e-05,0.0,20916303.4261,690.966124153,660.139965603,64746513.8312,1938.5935811,63431812.8178,64974788.6463,5184.46325495,5171.95176567,0.0
1.00976259658,0.79405929255,1.02287636731e-05,-83496557.6249,1.50325389161e-05,0.0,5940096.07078,677.472195987,644.965836113,67265660.8557,1641.53852453,60055549.6377,70996212.4938,4191.5245384,4184.47776869,0.0
1.19298403574,1.06191284757,9.88064770357e-06,5961282.53877,2.17680020321e-05,0.0,7507481.20671,687.4255794,656.65770428,65522733.6518,1873.06086896,53227035.9791,66756565.2016,4952.07673236,4940.38855131,0.0
1.08620128745,1.00326956042,9.92134351515e-06,-27649693.7479,1.58770417042e-05,0.0,5767584.45894,680.959542064,649.929980384,66851871.4269,1742.32071133,35939890.0705,69348021.3078,4508.8215442,4500.24232304,0.0
1.09619575368,0.94432845706,9.97677808236e-06,-23863050.495,1.7282856684e-05,0.0,5735674.47834,681.484599905,650.537736466,66768022.5458,1755.5667654,36857134.2156,69095341.3267,4550.30857353,4541.57279051,0.0
1.12093560217,1.07882330182,1.04532682641e-05,-13855547.4136,1.77221807837e-05,0.0,5616386.03783,682.549487118,652.065813753,66404563.3826,1785.72948498,41899546.0277,67952985.7425,4653.00368461,4643.38083891,0.0
1.18228849482,0.771732267173,1.0045861943e-05,4351313.94874,2.69473658061e-05,0.0,6151401.74039,686.755419945,655.968666932,65689035.5725,1862.19877517,52323906.5296,66952770.2543,4907.679542,4896.95528751,0.0
1.17994307474,1.07211952609,1.01554784576e-05,3833696.18915,2.09631168106e-05,0.0,5815829.05294,686.338383028,655.827446457,65811805.82,1858.74466077,51993413.9277,67078049.5631,4897.94370325,4887.24526282,0.0
1.12309180867,1.036656307,1.01815984697e-05,-13334206.263,1.82550742481e-05,0.0,5611719.34352,682.882643849,652.205681015,66400172.4747,1788.19978904,42322178.7144,67825228.2041,4661.95409779,4652.19475909,0.0
1.11226181592,1.12787446638,1.0353299075e-05,-16680309.902,1.65289052833e-05,0.0,5606488.14573,682.101552499,651.490046715,66352982.3868,1772.67234015,40290568.6745,69040033.6845,4616.99879788,4606.74703478,0.0
1.23879846881,1.08776003378,1.02903445343e-05,17693974.1366,2.5911384953e-05,0.0,19303836.1586,689.940894724,659.534259937,65026053.0438,1927.47318273,62299517.6297,67100326.441,5142.25244403,5130.51397936,0.0
1.05077745691,0.891033198075,9.84753475502e-06,-46153453.5216,1.51186586578e-05,0.0,5818757.25212,679.074568716,647.54802949,66968794.8489,1694.08937696,36139743.0175,70501159.0176,4361.77722363,4353.06863038,0.0
1.03200564048,0.949863492739,1.00264558996e-05,-59909646.412,1.42141072782e-05,0.0,5854329.67529,678.125226747,646.362082347,67049141.7845,1669.07510782,42626714.614,71055458.86,4283.85541363,4275.44860899,0.0
1.08399775627,0.830037730449,1.02083470229e-05,-27468275.9826,1.7950941825e-05,0.0,5749606.58784,680.697142962,649.784882981,66798264.083,1739.56004095,35855932.4835,69210919.8161,4499.67468628,4491.12980286,0.0
0.996291914566,0.9527951607,9.85293775518e-06,-95442688.9741,1.4301827504e-05,0.0,5921023.14841,679.349297286,644.091423657,67172185.9907,1620.04118054,70302157.0035,70532125.1287,4135.60773736,4127.44021287,0.0
1.17044815686,1.00456112703,9.75291417202e-06,1055570.28561,2.08988542815e-05,0.0,5472591.89862,686.056420163,655.275886117,65984808.1374,1847.48023637,50729782.4957,67824155.9376,4858.53029913,4847.99870303,0.0
1.07626966146,1.17868912824,9.59204239274e-06,-32668333.8131,1.30974262985e-05,0.0,5822664.11101,680.347606258,649.143262488,67010469.6793,1729.15569536,35043625.7369,69958763.603,4467.59536472,4459.17046177,0.0
1.15340251537,0.90699117345,1.0098526946e-05,-5951528.20255,2.3485218501e-05,0.0,5551586.24059,684.863961698,654.18956353,66254518.351,1829.37152024,46561437.1428,68583170.7748,4787.7738413,4778.31833121,0.0
1.20913623118,1.09486044972,9.90338426072e-06,10375294.3829,2.2409608936e-05,0.0,11713138.6202,688.289201771,657.615898484,65335160.6933,1892.20575431,56342410.8619,66969506.3323,5019.12449563,5007.24504308,0.0
1.12489092878,1.00300936182,1.03110486213e-05,-12852478.8452,1.90458034145e-05,0.0,5597007.77591,682.949420047,652.324586168,66342602.5746,1790.68862779,42582772.563,67214982.8415,4669.42224537,4659.63306293,0.0
1.02230674859,1.05653058999,9.8277191988e-06,-70694018.2787,1.29524151035e-05,0.0,5940264.43392,677.915069387,645.765694751,67299611.6849,1658.34923938,49982660.696,70860555.2709,4243.5953134,4236.37052531,0.0
1.17761202273,0.957965355238,9.60916652376e-06,2113323.96381,2.20345217708e-05,0.0,5407130.68522,686.669807515,655.701305436,65781571.4228,1855.3654259,51199078.2822,67002512.2752,4888.26750635,4877.09093186,0.0
1.01830249668,0.81541008491,1.00822064725e-05,-73068812.138,1.49822019659e-05,0.0,5922193.99798,677.688387317,645.508501535,67232609.353,1652.80348893,51743943.4969,70835043.1175,4226.97366372,4219.71696397,0.0
1.11109706655,1.10374431998,1.00699304682e-05,-17136686.4333,1.62720044839e-05,0.0,5647372.94987,682.233495924,651.465905904,66489163.4422,1772.0157088,40134953.2385,69099136.9767,4612.16392325,4602.31478812,0.0
1.01559513234,1.25202328052,9.92535568099e-06,-77873695.1315,1.13170509895e-05,0.0,5962380.96648,677.671037606,645.340016235,67347086.1296,1649.28497617,55491274.325,70947123.1562,4215.73539434,4208.60594258,0.0
1.19756526986,0.992306871261,9.8503354425e-06,7366108.72374,2.31982348783e-05,0.0,8842187.80857,687.750183299,656.980422855,65549548.2322,1879.65614888,54107784.4356,66647859.384,4971.09343519,4959.76558761,0.0
0.942248969959,1.17316510718,1.01898928752e-05,-93200705.0692,1.17038100333e-05,0.0,6111075.49931,686.258759089,640.631970188,67688344.7288,1605.94091024,68328054.0237,68543948.1202,3911.2754743,3905.14708382,0.0
1.00476775455,0.920102884052,9.91470883953e-06,-92735132.0469,1.41021295642e-05,0.0,5969767.20602,678.048446263,644.648304991,67344685.815,1634.66633974,67923201.0686,70917677.7821,4170.79094914,4163.81442233,0.0
0.953994807101,0.974168773563,9.8003645436e-06,-93716826.0289,1.39614568696e-05,0.0,6088648.88266,686.009309829,641.390711541,67635438.305,1614.16293101,68782498.3362,69003919.4436,3960.03244428,3953.74706999,0.0
1.13839119309,0.700754745807,1.01611068105e-05,-9525063.93022,2.51428525612e-05,0.0,5516825.5519,684.089210815,653.197604735,66107923.2032,1808.09205352,44511560.1271,67897912.2269,4725.46184252,4715.34127208,0.0
1.15386028608,0.945042532987,1.002552281e-05,-4522750.13628,2.23557099192e-05,0.0,5528813.60248,684.924406917,654.209485861,66173719.5693,1828.41542217,47526494.5838,68537811.527,4789.67404752,4779.78691876,0.0
1.09086656129,0.842590372262,1.01961174815e-05,-24712735.7281,1.84587338371e-05,0.0,5727072.30419,681.034478238,650.168563113,66725294.9045,1748.13493104,36515701.6775,69020577.6266,4528.18709591,4519.48038775,0.0
1.10696038734,0.876630671881,9.93126874658e-06,-18409090.9679,1.86707216726e-05,0.0,5642871.38777,682.230979792,651.225014243,66473537.9128,1766.71648073,39360103.9112,68817816.0555,4594.99256785,4585.1173917,0.0
1.24728180643,0.777153564359,1.00649199323e-05,19287341.4438,3.35042135128e-05,0.0,20922498.7458,690.920119686,660.036910348,64669760.5863,1937.03274636,63440810.2657,64699560.4216,5177.46677849,5165.10955563,0.0
1.0678246297,1.06646071371,1.03026334496e-05,-33768762.9327,1.43047750646e-05,0.0,5801772.5125,679.453557262,648.635976596,66938069.3193,1717.80191691,34803464.1725,69780227.6248,4432.54003788,4424.14971862,0.0
1.13499533338,0.769402214316,1.0031341726e-05,-9790621.22696,2.33835131041e-05,0.0,5573212.74179,683.855587856,653.007276028,66298149.8699,1804.42072599,44661023.3638,67816062.9833,4711.36562886,4701.71386561,0.0
0.984422881596,0.902028871015,9.82838585013e-06,-95015713.0375,1.45343398963e-05,0.0,5999619.82107,681.262045648,643.344315159,67400615.3872,1617.4621919,69925912.3239,70165449.5352,4086.3393815,4079.30498245,0.0
0.985923583091,0.85914361062,1.01363283846e-05,-95164513.3487,1.4392238231e-05,0.0,5984402.99545,679.698776154,643.439035699,67353471.262,1611.66504711,70057062.286,70298477.7769,4092.56879341,4085.51943523,0.0
1.05401837721,0.872199801589,9.79064633331e-06,-45111786.2167,1.56249730631e-05,0.0,5801432.94925,679.303265416,647.756870946,66915034.5205,1697.85373277,35861873.4254,70470978.7413,4375.2302838,4366.28892282,0.0
0.970008666393,0.930424431374,1.02559579812e-05,-94258984.9804,1.43132018723e-05,0.0,6029467.95805,682.619230086,642.418196204,67489848.7871,1613.92594552,69259908.0716,69489958.1257,4026.5059742,4020.00416859,0.0
1.17291501913,0.931138645128,9.9833119077e-06,1864040.92144,2.26210244471e-05,0.0,5409051.119,686.161673307,655.406355173,65775894.6778,1849.41997039,50942144.0344,67031570.5761,4868.77024441,4857.7713463,0.0
0.98107214291,1.05364078886,1.04010387012e-05,-94651338.5031,1.32712950683e-05,0.0,5956586.94073,680.41987874,643.115084033,67269241.2448,1610.89242628,69605369.0223,69842223.7025,4072.43046522,4064.82647631,0.0
1.01236219929,0.887221941252,9.31721404433e-06,-87612023.7227,1.4382426545e-05,0.0,5977249.42903,678.597596871,645.142379281,67367716.3706,1644.93262683,63522680.0827,71136767.8438,4202.31548925,4195.23176721,0.0
1.02176034865,1.07489451893,1.01281466309e-05,-68957897.299,1.3009300863e-05,0.0,5874417.31802,677.693295642,645.707635054,67092367.853,1654.92978796,48692996.7866,70744514.7351,4241.32720725,4232.99879925,0.0
1.10147521678,0.72898950502,1.01575881827e-05,-21853829.959,2.09870515393e-05,0.0,5691978.28313,681.821473236,650.919154316,66633083.1237,1762.50413241,37545310.5339,68470714.3005,4572.22362485,4563.40484318,0.0
1.21201135455,1.04236510043,9.92704494352e-06,11361629.9231,2.34752903146e-05,0.0,12668380.6887,688.450930202,657.817958164,65390059.1547,1896.67091902,57111978.6464,66585384.7939,5031.05913274,5019.57611832,0.0
1.18396887802,0.935824920722,1.0371819494e-05,4869812.77429,2.3914737847e-05,0.0,6353913.8473,686.588880192,656.075432162,65619269.4604,1863.24385575,52358171.4725,66803273.3153,4914.65481266,4903.6695612,0.0
1.05402963044,0.948575424579,1.01212585584e-05,-40688592.6773,1.47354041586e-05,0.0,5817434.0905,679.001829132,647.818245692,66963613.6257,1698.70418563,34945407.0992,70039515.5623,4375.27699596,4366.82656578,0.0
1.20819420314,0.988472478057,1.06116821813e-05,11339876.7853,2.52629895623e-05,0.0,12593619.3314,687.90295604,657.589507155,65241996.365,1891.10306103,57020337.8811,66263658.6211,5015.21413723,5003.70341929,0.0
1.15072777052,0.738245597993,1.00632300508e-05,-6802711.76177,2.64875686506e-05,0.0,5546690.77958,684.819399182,654.024143691,66235415.9276,1826.2001898,46136514.012,68651921.8179,4776.67097543,4767.26012699,0.0
1.09988543502,0.746232018086,9.96188928474e-06,-22651507.9754,2.03234206932e-05,0.0,5709649.86964,681.847526682,650.811594439,66693575.0285,1760.58277745,37268077.909,68793285.9498,4565.62444077,4556.82984604,0.0
1.16626167808,0.843574757035,1.08183207714e-05,1912982.69735,2.47722903522e-05,0.0,5386646.1982,685.278726738,654.969589018,65633052.0441,1840.85544738,50496286.2299,66762752.3905,4841.15222571,4830.39164449,0.0
1.05399206617,0.873928204002,9.89506727546e-06,-44628786.9468,1.56403434846e-05,0.0,5797585.29719,679.212201372,647.748735263,66905335.8285,1697.84550504,35685989.8224,70351132.3387,4375.12106667,4366.18014138,0.0
1.07530739229,1.03709523816,1.02472671872e-05,-31737102.3599,1.51169974405e-05,0.0,5791999.20346,680.066931844,649.210705732,66926373.4842,1728.61973008,35018336.5421,69414814.389,4463.6009854,4455.38338942,0.0
1.25054356067,0.836903222255,9.95965210672e-06,20005180.1356,3.22395386561e-05,0.0,21766420.0319,691.039563975,660.246284409,64817430.5766,1941.82505557,64143020.6349,65054162.9944,5191.00632034,5179.05908016,0.0
1.13620958535,1.19566435717,9.75128926371e-06,-10889824.5424,1.68406242255e-05,0.0,5627386.74873,683.909248455,653.093245099,66465717.4407,1806.14699812,43882602.0568,67814728.4372,4716.40598879,4706.80815523,0.0
1.1877980776,0.920007144572,1.04484900301e-05,6223902.8675,2.46599269572e-05,0.0,7687104.51865,686.864132898,656.337176308,65415518.2535,1866.47133953,53042131.0885,66512782.5793,4930.54982012,4919.07387591,0.0
1.08235768004,0.808826637708,9.7117766252e-06,-29627630.5056,1.77363210598e-05,0.0,5777555.47593,680.774639162,649.546977651,66885096.8643,1737.44416845,35639746.8986,69379221.4042,4492.86672985,4484.34736717,0.0
1.10417271159,0.97456050825,9.72890410985e-06,-20363655.6669,1.71823277696e-05,0.0,5651809.58977,682.200352484,651.065421899,66493565.9864,1762.54437372,38657843.6843,68561564.7745,4583.42092581,4573.31015753,0.0
1.07961360112,0.750702485706,1.04295822465e-05,-28466263.6014,1.89059948516e-05,0.0,5752304.71209,680.327021291,649.513926809,66793560.062,1734.20318481,35629363.7863,69125819.6894,4481.47605825,4473.09587675,0.0
1.05322539209,1.1454930564,9.96934352001e-06,-43444439.9753,1.27051324342e-05,0.0,5832503.42519,678.95989855,647.70499625,67009393.2771,1697.41867187,35516184.3728,70571856.4275,4371.93860257,4363.3380911,0.0
1.17523103104,0.681784821235,1.01673246207e-05,2785138.43748,2.85374536055e-05,0.0,5360586.34456,686.39124573,655.540267392,65620210.6525,1852.8263703,51406896.3444,66804186.3179,4878.38400985,4867.44898148,0.0
1.12291673078,0.94366161671,9.97376969976e-06,-13902091.4049,1.94482047101e-05,0.0,5590504.61972,683.087178197,652.174685409,66326662.3028,1787.22878323,41879724.379,68022213.8605,4661.22734947,4651.07597622,0.0
1.00537503557,0.998544545585,9.68065172869e-06,-89457427.6743,1.27664607342e-05,0.0,5990169.78319,677.926118,644.691854526,67378339.7787,1635.1830387,65132708.3781,71255598.6675,4173.31177265,4166.32167795,0.0
1.13499151673,1.16560750618,1.01413605625e-05,-10745652.0584,1.74291152009e-05,0.0,5584689.58577,683.621040739,652.998828787,66317464.2665,1803.4581694,43846710.967,67790050.2111,4711.34978595,4701.38875344,0.0
1.01672557796,0.842323696987,9.72457734392e-06,-78363423.7315,1.47292270545e-05,0.0,5948150.80598,678.034916481,645.416500445,67306889.0064,1650.99037328,55880324.0166,70993006.3661,4220.42787411,4213.28240258,0.0
1.10443284491,0.68359598201,1.00584727485e-05,-21022617.5609,2.1997522967e-05,0.0,5685202.79561,682.094600386,651.100817446,66614363.2808,1766.56903771,37938825.4591,68594810.6281,4584.50073922,4575.63514478,0.0
1.11321262929,0.801604512458,9.90806204218e-06,-16794334.8762,2.03755028691e-05,0.0,5666570.80834,682.561474489,651.607463891,66568375.1524,1776.9173616,40400078.1952,69176324.9021,4620.94562418,4611.7497081,0.0
1.16785916643,0.979590599117,9.98688861808e-06,-676914.752694,2.32547823336e-05,0.0,5502833.62626,685.828621679,655.131174259,66086615.6926,1846.64578762,49591848.1186,67812701.3657,4847.78339985,4837.97353112,0.0
0.968503903147,1.22357196316,1.00781410269e-05,-94209962.1445,1.19139594915e-05,0.0,6041276.82464,683.326687976,642.318358558,67515042.3676,1615.04201413,69216610.4969,69445617.451,4020.25970196,4013.48294016,0.0
1.10567792248,1.21610099598,1.020598237e-05,-18611830.4012,1.46852954702e-05,0.0,5694393.73925,681.756252215,651.151193186,66637634.1154,1765.96350324,39456304.5915,68870860.7132,4589.66905621,4580.39689598,0.0
0.973364100472,1.12124132717,9.89876054822e-06,-94544322.0394,1.26272405696e-05,0.0,6045128.08663,682.909555507,642.635820542,67531673.9899,1617.00116235,69510856.6392,69744100.2318,4040.43438106,4033.80653853,0.0
1.09499602825,0.89491640327,1.02736361009e-05,-23566707.1879,1.80804492644e-05,0.0,5719980.5446,681.248279111,650.476590325,66710072.0974,1753.88778086,36849176.2707,68892397.9473,4545.32851327,4536.61092641,0.0
0.932953838961,0.805202848953,9.59961125216e-06,-92871259.0754,1.4792527971e-05,0.0,6123175.76387,689.429447793,640.031449452,67683996.5805,1609.19836474,68038022.214,68247821.1515,3872.69138553,3866.38015407,0.0
1.04358513037,0.904600157274,1.01164171315e-05,-49280894.9246,1.49839605706e-05,0.0,5822607.57029,678.524980399,647.092650195,66970962.4199,1684.45937345,37190588.5794,70993673.3558,4331.92187617,4323.3301213,0.0
1.1041979381,1.01725734078,1.01427118446e-05,-21197228.3239,1.73146996515e-05,0.0,5707511.6451,681.850083109,651.082747832,66686547.6016,1765.77659381,37904797.7293,68670544.6975,4583.52564105,4574.66387287,0.0
1.05044065484,0.83921761215,9.76974520897e-06,-45196196.6786,1.54066549075e-05,0.0,5821093.6767,679.095658732,647.530366979,66966393.43,1693.4042328,35934858.7146,70602748.9697,4360.37915824,4351.64419614,0.0
1.11661847465,0.924825480186,9.71340364229e-06,-16338950.1612,1.88468715818e-05,0.0,5674589.81104,682.804241911,651.803450628,66595186.1126,1781.1839231,40706338.7518,69397494.4557,4635.08328827,4625.83214976,0.0
0.997722724176,0.834678055223,1.00932493398e-05,-95467560.8632,1.49070776275e-05,0.0,5900440.84701,678.548433811,644.178404483,67112608.7569,1621.97301894,70324204.8181,70715635.2145,4141.54702805,4133.27566749,0.0
1.02771919385,1.03465079209,1.02627728453e-05,-61173835.1262,1.32598788524e-05,0.0,5858246.08244,677.713838808,646.08741558,67054275.9582,1663.11298137,43391475.9037,70859224.385,4266.06237367,4257.63793534,0.0
1.16771516176,0.885646694342,9.65309949588e-06,-1593635.03074,2.46417834744e-05,0.0,5519162.46096,686.076934802,655.133444347,66158289.5106,1847.21724206,49397078.4362,68231453.6968,4847.18563647,4837.48770438,0.0
1.00370472083,0.770748922395,1.02460887809e-05,-91386300.1666,1.56187510011e-05,0.0,5877654.10388,677.905711598,644.558161553,67056474.8611,1630.19209401,66750672.3688,70658424.9392,4166.37829617,4158.09260896,0.0
1.2184408968,1.10113540231,1.0228628825e-05,12713525.1221,2.34192975584e-05,0.0,13893729.4407,688.73681002,658.257765053,65196822.7622,1903.33425799,58142566.7106,66438202.7592,5057.74816262,5045.90247396,0.0
1.15193008445,0.968685731388,9.75484287672e-06,-5593659.39248,2.13747362514e-05,0.0,5546314.69242,684.963795536,654.090205539,66231940.1725,1825.84260054,47177118.8142,68797553.2438,4781.66178055,4771.71462707,0.0
1.00990753586,0.889686614635,1.02893691496e-05,-82659899.9037,1.42771286235e-05,0.0,5941331.82313,677.358377864,644.9688451,67270257.1003,1641.70748706,59356260.0872,70679596.6389,4192.12618135,4185.07736885,0.0
1.04584799142,1.16730132671,1.02022811602e-05,-47606022.8523,1.25380110318e-05,0.0,5828535.62887,678.458200336,647.236596763,66991774.7496,1687.09436972,36647686.3974,70388434.9073,4341.31501238,4332.59802552,0.0
1.13649918811,0.93912067343,9.75766216842e-06,-10627908.2319,2.05881118806e-05,0.0,5595864.92589,684.063847502,653.104747667,66366387.0419,1806.47542098,44117692.4286,67775946.4774,4717.60812984,4707.9025351,0.0
1.11152871643,1.12308555475,1.00567438151e-05,-17026993.3077,1.6148313881e-05,0.0,5691006.60655,682.215608135,651.507882858,66628202.3912,1774.40148925,40280504.4587,69171221.1962,4613.9557019,4604.78700872,0.0
1.17072342516,0.850835629142,1.01266702011e-05,1407833.1668,2.42424693474e-05,0.0,5424026.43674,685.978849046,655.281945343,65819994.8127,1847.69749504,50546457.4064,67461836.3738,4859.67293784,4849.02686469,0.0
1.13791052175,0.946916677548,1.00047791444e-05,-10398251.7436,2.12329351075e-05,0.0,5614305.73469,683.949186861,653.205142757,66422395.7294,1809.74723664,44104062.8743,67944410.1958,4723.46657578,4714.258895,0.0
1.02554133828,0.812494897911,1.00610190305e-05,-65982810.6516,1.54068743952e-05,0.0,5852643.23056,677.940716286,645.93897649,67033217.5394,1660.14538915,46582066.3759,70948979.8007,4257.0220952,4248.6330055,0.0
1.12861207207,0.70933911975,9.9506933553e-06,-12249168.5606,2.35511820648e-05,0.0,5573925.53987,683.481413627,652.496487692,66288242.1494,1795.73244007,43007506.5,67225394.212,4684.86871116,4675.01706794,0.0
1.02270642703,1.08548492984,1.00880306642e-05,-68413420.9823,1.29389854767e-05,0.0,5874318.69027,677.75406892,645.770749397,67093852.2769,1656.18042916,48300744.4336,70812191.26,4245.2543786,4236.9108036,0.0
1.10506648895,0.829124851192,1.01446677327e-05,-20866669.9607,1.97637046291e-05,0.0,5690388.71536,681.982151685,651.133013217,66634659.2855,1767.08811019,38022412.092,68662553.3863,4587.13099563,4578.25472974,0.0
1.00450701171,0.858268155783,1.03843301262e-05,-87591649.954,1.48913239485e-05,0.0,5875192.30425,677.588911777,644.606111263,67052238.629,1631.2384362,63458714.371,70614759.3249,4169.70860561,4161.4099289,0.0
1.18275401629,0.862884007739,1.00626980558e-05,4618965.25647,2.48084164723e-05,0.0,6230214.72402,686.742691138,655.985254695,65606237.5784,1861.32324349,52415287.567,66930825.3846,4909.61192162,4898.43908005,0.0
1.12055213144,0.998048884744,9.68311948794e-06,-15028858.9125,1.81076278479e-05,0.0,5639283.14416,683.064545916,652.027107198,66479916.1268,1785.08181377,41385631.3491,69179925.3911,4651.41189761,4641.59667951,0.0
1.03816015411,0.989875425766,1.00416043489e-05,-52602013.4151,1.39095880906e-05,0.0,5837303.15524,678.29558094,646.731153591,67006040.1864,1676.72401307,38610059.2481,71025362.4304,4309.40279971,4300.72385003,0.0
1.09806834027,0.901646391025,1.01140026957e-05,-23070294.2701,1.8143840116e-05,0.0,5718201.75106,681.555994464,650.691358705,66707209.9683,1757.8943327,37087966.8262,68877295.3405,4558.08168046,4549.31656664,0.0
1.13390631213,1.07863239912,1.04584496129e-05,-10442875.0777,1.87574864771e-05,0.0,5573182.71714,683.388526176,652.931495026,66291596.9483,1802.35646123,43955134.9727,67773114.7805,4706.84510165,4697.00381162,0.0
1.18162974888,0.972088014694,1.02388481379e-05,4671833.86672,2.29883581048e-05,0.0,6312412.9334,686.445340304,655.923627283,65723003.19,1860.70678953,52418490.6218,67006103.3994,4904.9450876,4894.2197263,0.0
1.15127049178,1.06340192298,1.01510488394e-05,-6222565.29304,1.97906934803e-05,0.0,5523415.63189,684.540762371,653.949242109,66148474.1178,1824.25704777,46317283.8726,68562405.8691,4778.92381138,4768.67894218,0.0
0.959470409581,1.10161590674,9.89663560519e-06,-93940630.0502,1.28294147273e-05,0.0,6078223.51867,684.971498119,641.742608264,67615276.5285,1614.67752841,68979518.4494,69203638.2658,3982.76167017,3976.40274801,0.0
1.11639919254,0.811942141237,1.01102919571e-05,-15311355.8187,2.06989204332e-05,0.0,5594932.80258,682.646150745,651.749622112,66331560.2036,1778.94627738,41077455.248,69016443.9687,4634.17304823,4624.13485292,0.0
1.09503028502,0.782316099823,9.96815640561e-06,-24241919.3364,1.9302933667e-05,0.0,5726856.28435,681.485243185,650.448954465,66738369.1544,1754.18594412,36719926.685,69074518.2604,4545.47071312,4536.75323401,0.0
1.12927454162,1.22035086092,9.90890529572e-06,-12322738.4106,1.6116644399e-05,0.0,5621873.05605,683.262306182,652.540830059,66436626.6352,1796.01792568,43070219.9066,67395328.9789,4687.61862226,4677.75576782,0.0
1.02124712352,1.07455384732,1.03996415834e-05,-67846249.964,1.30043777864e-05,0.0,5867432.61107,677.416075649,645.670667893,67076348.7394,1654.4619312,47890546.4228,70712191.4564,4239.19680973,4230.96196127,0.0
1.18177412526,0.624672474718,1.00599202581e-05,4353222.05533,3.09496807327e-05,0.0,6204993.94693,686.860000215,655.936261764,65610836.5173,1861.82265315,52286031.2113,66874608.8454,4905.54439395,4894.81409345,0.0
1.02031333654,1.02374646256,1.05171167382e-05,-67670691.7402,1.34412689622e-05,0.0,5861730.09429,677.293726032,645.610027263,67058774.4161,1653.27735108,47746798.9495,70664270.2858,4235.32065998,4227.10063961,0.0
1.08570278451,0.976682210681,9.76814545538e-06,-28274032.7416,1.60446839165e-05,0.0,5773755.89919,681.055320711,649.905759705,66867241.1497,1741.70968805,35856036.8112,69384064.8921,4506.7522585,4498.1801867,0.0
1.03703977577,0.857835883597,9.86669683847e-06,-56770379.9363,1.51859784603e-05,0.0,5843504.32815,678.491523321,646.683840775,67021412.7083,1675.76278843,40821899.5024,71029570.2126,4304.75210922,4296.2658701,0.0
1.15453235047,0.971727843865,9.77708382475e-06,-4560839.3158,2.17345255142e-05,0.0,5548905.12579,685.087046691,654.260891934,66240031.9024,1829.54008745,47757835.7742,68695624.3919,4792.4637868,4782.68042607,0.0
0.964172016157,0.975985404618,1.01133535951e-05,-93976427.693,1.40055085497e-05,0.0,6035871.3377,683.94894095,642.039183091,67492911.5565,1613.80818159,69011015.2032,69237650.8461,4002.27803907,3995.56236138,0.0
1.06649580488,1.09686764889,1.00103950575e-05,-35923870.5515,1.36143851194e-05,0.0,5814561.96404,679.605565564,648.56216762,66976433.8639,1715.90039397,34672729.9249,70138446.4874,4427.02408606,4418.56031415,0.0
1.01705071446,1.04087756691,9.93853650645e-06,-76006184.1585,1.300552473e-05,0.0,5948041.93365,677.750669649,645.43722511,67311439.8025,1651.36165254,54012982.3244,70836437.6076,4221.77751572,4214.62743378,0.0
1.12869808951,0.827788247613,1.01257038002e-05,-12171353.0762,2.17208153592e-05,0.0,5577018.74792,683.415324363,652.580325862,66283823.4095,1795.8102919,42950087.1893,67241508.467,4685.22576956,4675.37225554,0.0
1.20236019958,0.733328835993,9.93472417588e-06,9685857.84773,2.96627963757e-05,0.0,11101144.3214,688.13754581,657.258776616,65399953.7521,1885.86216343,55841920.3439,66821407.0797,4990.99718846,4979.80556399,0.0
1.20133255166,0.879163420469,9.79181828609e-06,9063443.99045,2.56850308192e-05,0.0,10504989.192,688.040459579,657.204988224,65511046.4574,1884.53904937,55434934.0037,66836542.5967,4986.73142194,4975.52962151,0.0
0.977624809181,1.02926343742,1.03224764836e-05,-94754866.0123,1.34307837187e-05,0.0,6015554.70927,680.752554072,642.908859372,67451850.7549,1611.41325117,69696549.5874,69931950.7179,4058.12058291,4051.52313395,0.0
1.05125139488,0.711083077454,9.70883572311e-06,-44982371.4104,1.67448346188e-05,0.0,5813335.7823,679.239247085,647.584149133,66942685.4246,1694.57849134,35857466.0038,70590510.6736,4363.74454015,4354.99497426,0.0
1.23284916307,0.990258644949,1.01709232575e-05,15999960.9267,2.70524211131e-05,0.0,17539510.2982,689.577212564,659.089411182,65113347.1497,1921.26842876,60922443.3072,66767422.0751,5117.5568759,5105.89652468,0.0
1.03311149573,0.891375693287,1.01079398296e-05,-57345359.1315,1.46837695868e-05,0.0,5843985.37643,678.089150025,646.423640221,67017843.6348,1670.37128562,41111208.2983,71006420.9984,4288.44581878,4279.93437799,0.0
1.08172154194,0.764807084334,1.00387991266e-05,-28800720.8031,1.85183117936e-05,0.0,5758710.53235,680.725181192,649.648285521,66819378.785,1736.64370007,35671453.4672,69257463.5231,4490.22612059,4481.71664825,0.0
1.1119301198,0.808327329109,1.04853093289e-05,-16086688.1693,2.059364516e-05,0.0,5624413.98791,682.08740458,651.475632838,66415201.5798,1774.50440762,40574768.0351,69154704.418,4615.62192729,4606.14954074,0.0
1.16977765394,0.848907179401,9.71399178969e-06,444350.878794,2.35743469011e-05,0.0,5442002.26462,686.189275066,655.231894197,65878034.6291,1846.57503001,50287880.354,67717552.9943,4855.7470415,4845.01191727,0.0
1.05396989448,1.00183826689,9.88041105314e-06,-44732099.2387,1.43235815235e-05,0.0,5807165.45146,679.1668509,647.748549472,66933959.0687,1697.71162402,35730209.1942,70413270.1787,4375.02903199,4366.08847383,0.0
1.11348472601,0.902671127216,1.01784997291e-05,-16133448.0889,1.90555853215e-05,0.0,5641537.26108,682.316677617,651.581305076,66482433.7226,1776.11416457,40637533.8747,69306925.8405,4622.07509767,4612.5766088,0.0
1.13728553517,0.839441331351,9.62200129384e-06,-10753261.9214,2.20176169169e-05,0.0,5599161.63471,684.236979467,653.158573708,66376585.6634,1807.92949761,43969320.447,67764158.9716,4720.87225649,4711.25830689,0.0
1.09100339887,0.847197482223,1.00329466233e-05,-25610939.7031,1.81494094101e-05,0.0,5738464.81518,681.1705406,650.189591344,66770835.8237,1748.72797922,36315791.9806,69194434.0635,4528.75510871,4520.10086072,0.0
1.06325863368,0.832243707974,9.66473841638e-06,-38745343.7115,1.61170193385e-05,0.0,5818770.71702,679.803275151,648.35512412,66977111.8377,1711.78001008,34770954.9001,70038636.2243,4413.58658841,4405.17342223,0.0
1.0656987357,0.977600053678,9.98571779238e-06,-36365221.5561,1.48313325152e-05,0.0,5809860.18523,679.629892307,648.511729372,66959432.0848,1714.95653783,34674849.1971,70198676.0711,4423.71545189,4415.26415185,0.0
1.12423258893,0.905124652487,9.52598604488e-06,-14698941.0089,1.99584888743e-05,0.0,5675540.87779,683.387021582,652.287046811,66606916.1879,1792.05189426,41643661.741,69127951.3414,4666.68947665,4657.59584556,0.0
1.03417616517,1.0798656325,1.01683078399e-05,-56035703.9234,1.29805458449e-05,0.0,5851024.71686,678.009288613,646.496369789,67042425.8688,1671.65423558,40401904.043,70887672.1635,4292.86526162,4284.33660015,0.0
1.14997015167,0.812213492725,9.83063616714e-06,-7552258.45533,2.45667354754e-05,0.0,5568795.55454,684.839154675,653.947395078,66298029.9034,1825.27219412,45821150.9028,68610756.0092,4773.52609958,4764.12572845,0.0
1.11963092393,0.838363798153,1.01253028002e-05,-14320090.6882,2.05782118378e-05,0.0,5612013.68366,682.784617429,651.969877735,66393925.4755,1783.96162233,41764937.3271,68555567.6189,4647.58796523,4637.88689709,0.0
1.18961917825,1.101584251,9.6657181844e-06,5300549.81698,2.02654564006e-05,0.0,6895048.40454,687.230363589,656.438140719,65742511.1969,1870.07755947,53093268.3554,67075473.2774,4938.10920892,4926.9284532,0.0
1.02696883743,1.051260482,9.58230205632e-06,-67421953.5634,1.30819745065e-05,0.0,5937665.50792,678.269030218,646.063508464,67299217.3908,1664.51510884,47647077.931,71156426.9232,4262.94764417,4255.65631512,0.0
1.13880595787,1.0107306126,9.7497924387e-06,-9393312.08597,1.96264996513e-05,0.0,5602293.42407,684.13115895,653.25525396,66392050.9304,1809.38931765,44998202.4158,68058797.1272,4727.18353112,4717.54767584,0.0
1.1061778469,1.02866739058,9.9588385137e-06,-20819391.8107,1.70561975439e-05,0.0,5713552.30219,682.085169704,651.210135692,66703703.3995,1768.51433479,38074379.5633,68756234.7867,4591.74424248,4582.85104775,0.0
1.25962567577,1.08301055074,9.95063836511e-06,21261988.0763,2.74870847748e-05,0.0,23169416.1028,691.509997743,660.820774725,64667987.2101,1950.77392585,65063267.2437,65901274.809,5228.70618012,5216.11720405,0.0
1.02266577247,0.908049163779,1.00530978883e-05,-67846401.8678,1.43368069523e-05,0.0,5916453.39722,677.746844425,645.786715723,67227619.2147,1658.55037618,47914597.218,70889420.0982,4245.08562152,4237.76622898,0.0
1.0372651602,1.03101969882,1.01953852708e-05,-53841486.7773,1.34027374753e-05,0.0,5848512.67953,678.10675077,646.672880806,67039843.4777,1676.34577835,39254243.4667,71031075.6643,4305.68767999,4297.28531897,0.0
1.18117408305,1.00603692526,9.56411630159e-06,3235791.4212,2.14352125367e-05,0.0,5486319.01732,686.83125106,655.927575148,65866761.8183,1860.60301352,51949329.2279,67144546.0997,4903.05361874,4892.21942347,0.0
1.07478569024,1.01319049639,9.5888129998e-06,-33269989.1923,1.47911099508e-05,0.0,5815971.19187,680.356898543,649.068633904,66987260.5928,1727.33900281,34928591.8153,70022884.6079,4461.43540019,4453.03345645,0.0
1.08225662556,1.03051990957,9.9920787621e-06,-28821089.8221,1.52934437141e-05,0.0,5777287.22467,680.682570852,649.684182887,66876769.7087,1737.13739764,35700805.2274,69330004.8844,4492.4472527,4483.92946148,0.0
1.00054960452,1.07454436086,1.03822404572e-05,-95389417.1987,1.30020148135e-05,0.0,5897832.12079,677.738343992,644.354114709,67115376.6112,1625.82995822,70259281.796,70553653.1839,4153.28140836,4145.04545261,0.0
1.07687979307,0.944852005656,1.0075566002e-05,-30456183.0387,1.59578589216e-05,0.0,5771186.61119,680.319248373,649.307256637,66853332.9211,1729.4710847,35374770.1887,69301998.6647,4470.12802103,4461.50285894,0.0
1.17439503466,1.06240116249,1.01931468089e-05,2690233.30025,2.0670187337e-05,0.0,5415835.01652,686.015415161,655.490317078,65791867.4054,1851.02654021,51379042.295,67044478.612,4874.91378887,4863.99605406,0.0
1.02776717813,0.719309714937,1.02935732561e-05,-60804297.0285,1.59302634245e-05,0.0,5839320.41895,677.799174918,646.089911872,66996853.7247,1663.38461055,43143330.0061,70722671.9099,4266.26155642,4257.83634547,0.0
0.986177332898,1.21367321501,1.03078917477e-05,-94982757.5872,1.17280289752e-05,0.0,5945457.53199,679.44150754,643.440585188,67234452.9094,1609.38135418,69897133.688,70138178.6513,4093.62210886,4085.61669919,0.0
1.15614300682,1.02355467775,1.02242542341e-05,-4982354.33625,2.18462221583e-05,0.0,5545018.05936,684.963102117,654.407434423,66239070.2495,1832.63694813,47054146.6256,68424366.4257,4799.14962131,4789.6499929,0.0
1.2424566095,1.00490470127,1.01184561502e-05,18227102.4237,2.75937193064e-05,0.0,19868657.9126,690.352732736,659.749300739,64902362.8024,1931.50071666,62672540.7405,66910794.6918,5157.43738603,5145.3714189,0.0
1.03763694307,0.846878333241,9.94753644693e-06,-55655557.5363,1.53103856103e-05,0.0,5838572.74676,678.451620964,646.724993192,67009395.6877,1676.59060164,40187625.8201,71076381.8834,4307.23095068,4298.73510669,0.0
1.0983795143,0.996057828314,9.96110757184e-06,-23203476.8918,1.68638263339e-05,0.0,5733894.75691,681.624531375,650.702163022,66765849.0706,1758.37725406,37084355.3599,69123224.1385,4559.37336386,4550.60324226,0.0
1.06229986682,0.987874836046,9.94697365234e-06,-38089843.4761,1.45353033226e-05,0.0,5820310.12399,679.472788726,648.29133752,66984695.7232,1710.45587577,34699798.6625,70027473.1619,4409.60674717,4401.20854528,0.0
0.980076372749,0.821818609307,1.01097950623e-05,-94767411.3581,1.48561520441e-05,0.0,5995665.94409,681.121318599,643.06315439,67387676.9251,1613.6812876,69707473.8451,69945081.4357,4068.29702328,4061.32476102,0.0
1.00320920515,1.12697421745,1.02044588669e-05,-91761600.8861,1.22166248879e-05,0.0,5972414.43352,677.564577421,644.547660822,67354287.4232,1632.54261928,67072277.0069,70832670.2435,4164.32141058,4157.36924643,0.0
1.2166733072,0.725180012241,9.76752406605e-06,12270653.2009,3.08757035672e-05,0.0,13581373.4446,689.121895873,658.138745976,65246715.3805,1903.41942724,57812201.7229,66349875.0532,5050.41089819,5038.98317749,0.0
1.15226393605,0.840421679888,9.92700502974e-06,-6702845.63648,2.43910275283e-05,0.0,5558152.00397,684.942885158,654.125760832,66269948.4743,1828.10046457,46278487.1987,68697426.8154,4783.04759854,4773.61039358,0.0
1.14976583196,0.754965626732,1.00338915965e-05,-7131350.45927,2.5968253846e-05,0.0,5553475.4097,684.750144086,653.948234433,66255017.1595,1824.97529184,45945788.0084,68620944.582,4772.67796847,4763.28255538,0.0
1.14629706459,0.697261987491,1.03182824458e-05,-7387580.04311,2.71466041397e-05,0.0,5544999.62872,684.379857471,653.713545207,66228939.0241,1820.50850261,45636960.8107,68441914.3073,4758.27911511,4748.93927666,0.0
1.0413121821,0.868856512984,9.75537956424e-06,-51949350.1178,1.50962601883e-05,0.0,5833650.63629,678.740617268,646.953130828,66996711.7804,1680.9686106,38340774.9176,70957830.9729,4322.4868679,4313.75628467,0.0
1.00730617805,0.810206627376,9.97880151611e-06,-88815592.7317,1.53209555943e-05,0.0,5879128.56005,678.088786532,644.788988844,67060452.5823,1634.73897883,64540106.8426,70808781.1413,4181.32794509,4172.90056265,0.0
1.05021788177,0.922319489413,1.01780317364e-05,-45380323.7178,1.50883433104e-05,0.0,5803110.28149,678.790612324,647.516515418,66921337.0553,1693.09308848,35878243.8637,70416488.9302,4359.45442723,4350.66599166,0.0
1.16465487606,1.11630162791,9.98579731811e-06,-513246.473667,1.90003339524e-05,0.0,5454444.7457,685.561860256,654.900257602,65919039.2288,1838.79624585,49675164.3211,67760559.1323,4834.48239053,4823.52568613,0.0
1.22520393016,0.945358612261,1.02322871406e-05,14279654.2885,2.70917994684e-05,0.0,15668522.5922,689.282864206,658.693547619,65039085.8774,1911.28583217,59461448.9604,66543110.5844,5085.82151409,5073.87471521,0.0
1.01271705521,0.974705966065,1.00334700226e-05,-80426360.2765,1.36223508125e-05,0.0,5945983.16594,677.618714564,645.140933291,67279483.2209,1645.20779519,57538642.6679,70742402.5558,4203.78849618,4196.61171481,0.0
1.18188946315,0.87306459348,9.80752189793e-06,3975560.15137,2.41679518893e-05,0.0,5838384.44625,686.852599305,655.94711792,65652185.4156,1860.23138904,52200578.7495,66985063.4333,4906.02316154,4894.77332911,0.0
1.27151155425,0.937356280841,9.56155579893e-06,23140171.8615,3.00382824525e-05,0.0,25112170.8239,692.584625837,661.59353975,64419519.2601,1964.18644375,66265118.3639,67207512.9371,5278.04446169,5265.0327503,0.0
1.06553636161,0.896088291832,9.85435201045e-06,-36927934.5365,1.56290413336e-05,0.0,5810265.97196,679.753528945,648.501334604,66958199.8293,1714.8021031,34668715.4151,70179070.6917,4423.04143704,4414.59267677,0.0
1.00188132135,0.869829697773,1.00549586201e-05,-95750646.6183,1.47221301685e-05,0.0,5893057.30606,678.259508808,644.444879359,67095968.5967,1627.48721331,70574701.7941,70653775.1518,4158.80936492,4150.47035668,0.0
1.09915461664,0.959251805271,1.00713184127e-05,-22871628.3245,1.75466157704e-05,0.0,5721185.8536,681.629935645,650.767682806,66717481.84,1759.26809497,37210924.7971,68759102.3845,4562.59081367,4553.80860247,0.0
1.14476915993,0.938482663579,9.92825215262e-06,-8523761.36493,2.13512951316e-05,0.0,5541030.81154,684.296893164,653.472580001,66191593.2838,1816.2233799,45315431.8996,68375264.0871,4751.93678287,4741.78477283,0.0
1.11598869825,0.712203942397,1.00312379549e-05,-15670607.8329,2.23085025283e-05,0.0,5642383.94988,682.662419491,651.74426682,66485846.7727,1780.5953471,40897071.2651,69312681.4272,4632.46908644,4623.22821989,0.0
1.24733895727,1.11497340446,1.03283945846e-05,19403513.8323,2.63432235804e-05,0.0,21205476.5205,690.463636326,660.041627799,64842907.7349,1936.49157402,63688165.6322,64842907.7349,5177.70401163,5165.57633072,0.0
1.17148538188,0.990480102537,1.02958694625e-05,2185036.28159,2.19136444153e-05,0.0,5420485.37987,685.816793298,655.311224959,65786902.5379,1847.7760641,50997585.4365,67061271.5145,4862.83582018,4852.06723252,0.0
1.21126458675,1.03017540936,1.00713146061e-05,11151780.9914,2.40920505774e-05,0.0,12451668.5526,688.403802328,657.757005403,65199232.3304,1894.3389029,56875348.1753,66497149.9311,5027.9592996,5015.91801812,0.0
1.06580476543,0.952131091493,9.97831720552e-06,-36330943.7817,1.51015442135e-05,0.0,5808335.10767,679.650336457,648.518178949,66954542.7558,1715.10665616,34656052.249,70181543.1259,4424.1555813,4415.70262263,0.0
1.0390730771,0.724523577853,9.72262039038e-06,-56097593.1483,1.65911002608e-05,0.0,5835224.36831,678.762886924,646.819325654,66998197.1255,1678.53501655,40460404.2383,71131324.6507,4313.19234304,4304.67338218,0.0
1.15568075335,0.919384499209,1.00888526183e-05,-4304035.19043,2.34906664345e-05,0.0,5543203.19959,685.058187841,654.381328013,66211252.9774,1831.97169916,47632284.9591,68515279.9147,4797.23080716,4787.74155546,0.0
1.20550561865,0.704903127504,9.69738386956e-06,9952471.3798,3.05092722814e-05,0.0,11391424.5942,688.47277719,657.445046173,65427366.0456,1890.33056743,56103148.6346,66950377.2844,5004.05382302,4992.90958743,0.0
0.957495191049,1.01913376833,9.92489492043e-06,-93838850.6049,1.35540917794e-05,0.0,6077616.02452,685.182661274,641.61532924,67609190.7585,1613.85087801,68889932.6887,69113244.1942,3974.56253804,3968.23024406,0.0
1.2570477389,1.04506655852,1.01774411953e-05,21028357.1621,2.85957378026e-05,0.0,22914340.1607,691.253412056,660.65559556,64657305.7879,1947.76421948,64908124.3454,65680586.2172,5218.00516417,5205.55958645,0.0
0.995363623897,1.16803907526,9.73335371306e-06,-95760602.2058,1.19758195836e-05,0.0,6011556.8115,679.191234941,644.052843853,67454932.3556,1621.86264353,70581834.4988,70818520.9258,4131.7544028,4124.91178158,0.0
1.01385789587,1.05354674929,9.85823461671e-06,-80598473.6211,1.28590430507e-05,0.0,5960471.73576,677.794842576,645.217311739,67325907.3297,1647.02478893,57682621.7847,70833414.1476,4208.52412576,4201.41926276,0.0
1.083296404,0.879834929055,1.04165221849e-05,-27207025.4532,1.75161875222e-05,0.0,5751262.22938,680.485290476,649.737450316,66796357.6768,1738.93655952,35857404.0616,69147232.2281,4496.763373,4488.32649245,0.0
1.01707056916,0.911798071494,1.04228433001e-05,-69519355.0952,1.41356326993e-05,0.0,5883953.6008,677.349909796,645.41496644,67111475.4065,1649.67697947,49095063.5791,70674602.5577,4221.85993258,4214.00220477,0.0
1.12902156849,0.879919602851,1.02555378696e-05,-11873885.8269,2.1110710262e-05,0.0,5576882.56605,683.209394234,652.52501048,66287599.0987,1796.11775624,43165473.3154,67335251.017,4686.5685308,4676.70954308,0.0
1.07624077394,1.00105530141,9.52034587868e-06,-31845479.1147,1.48039588911e-05,0.0,5796357.09804,680.455050158,649.12825408,66920830.7039,1727.98186292,35209417.6375,69829391.3426,4467.47545262,4458.67125915,0.0
1.1208065075,0.916993741563,9.73254958928e-06,-15079102.0412,1.93723923582e-05,0.0,5659293.41595,683.042527975,652.057093577,66555774.705,1786.60036302,41330753.057,69212051.505,4652.46781263,4643.14866246,0.0
1.069079772,0.787462380524,1.01805257659e-05,-33253271.9245,1.73293849328e-05,0.0,5781461.84358,679.713663761,648.707163152,66871248.4991,1719.33362399,34886532.9435,69680314.6943,4437.75013357,4429.24617128,0.0
1.22231753823,0.916256026151,1.01329639845e-05,13548341.8639,2.72085408184e-05,0.0,14829413.6953,689.174324131,658.508056254,65086109.2876,1908.20476875,58863425.6424,66486291.2215,5073.84010119,5061.94646339,0.0
1.03806497705,1.13037574232,1.00623372362e-05,-52611756.6982,1.25497253675e-05,0.0,5845978.38261,678.214352934,646.725467105,67032570.4007,1676.49357845,38622568.3206,71041178.9518,4309.00771973,4300.3289675,0.0
1.06063411767,1.09446458068,9.80714593945e-06,-39462081.1491,1.32860277718e-05,0.0,5836407.87406,679.448141091,648.185330824,67028615.7172,1708.13084897,34835279.7242,69913938.5012,4402.69222245,4394.31999337,0.0
1.05444308185,1.00806356905,9.99486205043e-06,-42686142.4883,1.4097028988e-05,0.0,5819935.90605,679.043030254,647.773301786,66971981.2428,1699.14480906,35268468.3562,70526739.3877,4376.99323276,4368.37317038,0.0
1.07164817441,0.788755931603,1.01037587751e-05,-33725842.5002,1.77237898801e-05,0.0,5795364.08676,679.898686514,648.864183484,66926895.2299,1724.04196986,34796481.1616,69746472.16,4448.41157198,4440.24793367,0.0
1.1121700022,0.809322198341,1.02376422419e-05,-16522778.4271,2.05078151513e-05,0.0,5638669.78412,682.270882598,651.515858466,66461935.1734,1774.74791503,40446097.0362,69179443.1258,4616.61767913,4607.23995091,0.0
1.1687464329,0.742757689701,9.82267828499e-06,620742.120474,2.58040570526e-05,0.0,5408540.93229,686.15779402,655.157544849,65782827.8443,1844.73109712,50341175.342,67629811.7426,4851.46644297,4840.54196259,0.0
1.12524573714,0.80779529186,9.8101173177e-06,-13415362.1696,2.14225142769e-05,0.0,5626218.1105,683.349559845,652.347544317,66456925.8062,1792.21390976,42200012.8272,68376463.7495,4670.89505487,4661.4019727,0.0
1.07579220701,1.05012725468,1.01401751615e-05,-31951175.5385,1.49412684441e-05,0.0,5795934.01887,680.163488281,649.239278723,66937524.8884,1729.2586182,35022865.2378,69499012.0488,4465.6134513,4457.38849551,0.0
1.0407419365,0.935595899217,1.02702325751e-05,-49921671.0479,1.45690960539e-05,0.0,5823005.49575,678.225854434,646.883533212,66964519.889,1680.48192424,37512788.3602,70872910.34,4320.11977841,4311.48460737,0.0
1.03507471676,1.01943397961,9.97513389652e-06,-57625605.3998,1.36584224643e-05,0.0,5853871.68666,678.247543602,646.553281997,67050650.2042,1673.08824339,41287011.8922,71051226.7974,4296.59514927,4288.13911902,0.0
1.1743420979,0.779696184665,1.04915746879e-05,3035343.39726,2.64276674611e-05,0.0,5364570.58536,686.038447096,655.474363,65594433.1592,1851.30179017,51374676.915,66801917.3611,4874.69404838,4863.80118946,0.0
1.04695628225,0.920373367767,1.00169733667e-05,-49128479.9476,1.49908010199e-05,0.0,5865598.16239,678.668940271,647.327752701,67117025.2719,1691.37691193,37250440.9569,70560323.0898,4345.91552762,4338.33745179,0.0
1.06150483563,0.735795042293,1.03259362048e-05,-37241443.3465,1.74258320518e-05,0.0,5796033.11912,679.238026412,648.239562881,66908737.1112,1709.89833823,34598556.6489,69937794.5386,4406.3065727,4398.01388865,0.0
1.18558635815,1.02973250821,1.01214175621e-05,5078799.71472,2.20774430609e-05,0.0,6681884.66116,686.73929101,656.181746937,65740834.2673,1865.67290404,52749898.8032,66989192.5631,4921.36897268,4910.57222029,0.0
1.09716907799,0.927279458388,1.00240608974e-05,-23621687.8746,1.76936563115e-05,0.0,5726868.8615,681.533958226,650.616749062,66744776.9099,1756.70591813,36922634.1686,69027206.7683,4554.34884274,4545.5978725,0.0
1.01094920869,1.09220354778,9.91294152991e-06,-83657895.5443,1.2479915274e-05,0.0,5967443.79367,677.73198881,645.047607119,67344120.2094,1643.10466434,60198634.7685,70884325.5069,4196.45016527,4189.38639043,0.0
1.22703640506,1.01218000155,9.60374684513e-06,14029828.8168,2.48350178995e-05,0.0,15468675.1408,689.677463217,658.819886853,65200165.4064,1914.33957566,59335785.9501,66662243.7845,5093.4281174,5081.52474609,0.0
1.05737139266,0.989509556647,9.99940828554e-06,-40204415.9596,1.43052559049e-05,0.0,5830035.51057,679.141502168,647.947872773,67006388.4398,1703.90215312,34875668.08,69775548.0902,4389.14865093,4380.82719963,0.0
1.08395580619,1.10687210933,9.86869365883e-06,-28620287.2166,1.44323550296e-05,0.0,5783136.12708,680.834648591,649.797522651,66895340.255,1739.30003867,35778725.5891,69380827.2098,4499.50055149,4490.95632124,0.0
1.19463626856,0.885235590766,9.88850473482e-06,6432769.17534,2.52617549271e-05,0.0,7955986.49403,687.679546933,656.776865521,65419267.2399,1875.35287672,53444404.4353,66593902.7954,4958.93515079,4947.22963732,0.0
1.14406631897,1.08584623224,1.01713384274e-05,-8479611.4659,1.97319486585e-05,0.0,5597355.65332,684.075162407,653.529194679,66383243.6143,1817.3219489,45150417.7102,68367794.2154,4749.01929004,4739.71345394,0.0
1.13432042571,1.13845517539,9.75102888219e-06,-11426046.0643,1.72186683396e-05,0.0,5572662.82969,683.870379179,652.944482257,66276090.0978,1801.46011617,43582290.4259,67581036.2561,4708.56408712,4698.10703207,0.0
1.12995773612,0.862844640982,1.00699703215e-05,-11993930.3312,2.12723810359e-05,0.0,5578310.25444,683.510778649,652.664808534,66287860.7958,1797.39003077,43092846.9913,67324754.0408,4690.45456263,4680.57879794,0.0
1.03940889947,0.82017996635,1.01596016922e-05,-52171667.1572,1.5382272457e-05,0.0,5832997.82369,678.32890771,646.831224079,66995973.9288,1679.33563913,38442116.1769,70843560.0946,4314.5863417,4306.14838013,0.0
1.10934991675,0.959535819949,1.01055481118e-05,-17587689.3247,1.8019562406e-05,0.0,5638929.27439,682.190203135,651.361022379,66460596.8845,1769.89996957,39962102.8457,68971409.3971,4604.91150443,4595.09138528,0.0
1.12762508361,0.610937969951,9.8992423717e-06,-13076162.1144,2.63145957513e-05,0.0,5618691.69502,683.541729129,652.526368273,66439296.8009,1796.82789616,42584403.9851,68122280.1818,4680.77172207,4671.75501488,0.0
1.03501595347,1.03203146972,9.82547229669e-06,-57834667.6653,1.34514967069e-05,0.0,5906860.40994,678.293011658,646.570560984,67223254.3286,1675.31767121,41487016.1252,71128466.4045,4296.35122285,4288.94586375,0.0
1.13692890104,0.977991009153,1.02440404606e-05,-10404475.2462,2.10195649498e-05,0.0,5607970.14756,683.717963521,653.138132543,66410086.8725,1808.35434762,44015328.2234,67922549.5828,4719.39186822,4710.22632135,0.0
1.19178984508,0.997966510485,9.72403211418e-06,5463369.68146,2.26591220956e-05,0.0,7078341.4046,687.469143936,656.566934018,65557338.8354,1871.92821044,53041727.3768,66853922.1505,4947.11964693,4935.46682849,0.0
1.13941210985,1.11925330105,9.8359433172e-06,-9142745.75279,1.81317373649e-05,0.0,5608652.41732,683.939009703,653.206685242,66414967.0756,1810.011534,45178720.532,68166671.8525,4729.69966799,4720.05380865,0.0
1.02501116305,0.815807582276,1.02283028609e-05,-65066791.2918,1.53125785027e-05,0.0,5848223.7336,677.764849643,645.911195392,67021314.0293,1659.47692045,45950514.9024,70792857.9092,4254.82133782,4246.44076775,0.0
1.10638472881,0.856410626862,9.81679725661e-06,-21309264.1299,1.92817216279e-05,0.0,5717962.06736,682.275345724,651.235658812,66724562.9241,1769.60859355,37937338.9569,68694583.8763,4592.60300929,4583.90621325,0.0
1.08256800286,0.956732476624,1.02106677957e-05,-27983260.777,1.63205954422e-05,0.0,5761971.58977,680.566276989,649.69892659,66834004.7077,1737.58576614,35751303.9889,69238197.6635,4493.73977987,4485.21714617,0.0
1.15738205913,1.01766134442,9.59168761243e-06,-4719057.8884,2.08500225365e-05,0.0,5538215.60599,685.390825667,654.437993682,66209817.0265,1832.84859298,47637496.774,68645154.0681,4804.29292745,4794.2255145,0.0
1.0689956627,0.901621070557,1.00493026707e-05,-34606373.486,1.58676860173e-05,0.0,5794380.38542,679.794333217,648.72356748,66908089.9656,1719.32229056,34734772.57,69891776.3897,4437.40099587,4428.89805958,0.0
1.23057778726,0.999689413932,1.01645248314e-05,15503513.1386,2.66257344541e-05,0.0,16957150.0405,689.571434553,659.050739183,65149478.9108,1918.68483394,60518926.6282,66765613.4343,5108.12839492,5096.5376543,0.0
1.20761712936,0.898398160399,1.02165874076e-05,10623757.9868,2.63830078745e-05,0.0,11927901.6346,688.128739682,657.52556718,65303836.9225,1891.17201468,56479657.0055,66726092.2933,5012.81870397,5001.30900477,0.0
1.03822723268,0.885641217527,1.00052858352e-05,-52746041.6232,1.48561103692e-05,0.0,5832170.1309,678.368036921,646.733300081,66989735.467,1676.88090525,38669924.7616,71054665.5856,4309.68124285,4301.00119563,0.0
1.0660781845,0.729196684222,9.7137402173e-06,-37214572.793,1.75415334445e-05,0.0,5803134.88835,679.956857207,648.535717005,66934676.3375,1715.61935675,34674437.9234,70171756.1607,4425.29054386,4416.83330746,0.0
1.15746660656,0.706599569302,9.94191234391e-06,-4639225.68182,2.6592748623e-05,0.0,5457618.72986,685.502925407,654.473885969,65941489.7856,1832.4330855,47222699.8677,67821303.6908,4804.64388383,4794.19951464,0.0
1.01882309183,0.960121572389,9.67432395858e-06,-76372813.6777,1.37829834936e-05,0.0,5950179.59914,678.077141533,645.550678451,67319601.0473,1653.73543041,54309561.083,70941121.8255,4229.13465419,4221.95941774,0.0
1.04792762594,0.867096797756,1.00589039832e-05,-47259116.5696,1.5519331356e-05,0.0,5812046.07179,678.793992857,647.369866721,66946238.7642,1690.24741909,36483694.673,70300104.7136,4349.94757528,4341.28552568,0.0
1.06133100964,0.857897558017,1.01090769359e-05,-37857762.4473,1.59085349581e-05,0.0,5808411.15555,679.3450585,648.227462263,66949121.7748,1709.29099728,34655573.0644,69955246.2669,4405.58502102,4397.20192981,0.0
0.985095900174,0.895448007892,9.7408769343e-06,-95061716.6486,1.46436154992e-05,0.0,6000002.58083,681.405765466,643.388410662,67404410.5526,1618.45640324,69966584.2556,70206802.6115,4089.13308162,4082.08879997,0.0
1.11553672754,0.882088191191,1.02639540367e-05,-15605764.0647,1.96953870535e-05,0.0,5629936.18685,682.408761407,651.703394033,66433665.4162,1779.11830767,40913419.1675,69155238.81,4630.59295602,4621.05913108,0.0
1.1396762873,0.728589966358,1.01574794107e-05,-9663566.10354,2.53896288896e-05,0.0,5582379.25182,684.049183662,653.293491652,66333930.6055,1812.23153798,44456721.7667,67997560.8995,4730.79626858,4721.58698804,0.0
0.968890209302,0.812296979596,1.04172824003e-05,-94163078.9679,1.50009319923e-05,0.0,6021276.03316,682.322132727,642.345265526,67465824.012,1611.87371788,69175564.3325,69405339.5711,4021.86325881,4015.3766829,0.0
1.16002276094,0.745202354113,1.01637458613e-05,-2078679.59691,2.53799363311e-05,0.0,5460455.41893,685.384745144,654.623997533,65947245.8147,1835.18933946,48578929.9787,67840512.9448,4815.25448066,4804.91176084,0.0
1.00276594403,1.09003226017,1.03142386933e-05,-92274663.064,1.29097323749e-05,0.0,5895891.98943,677.712901069,644.499100092,67111850.9933,1628.75764768,67526846.8029,70649726.4503,4162.48143367,4154.20965903,0.0
1.10131402903,0.775029400453,9.64197136336e-06,-22928140.9728,1.960150577e-05,0.0,5715863.71005,682.134748708,650.896653681,66704271.3994,1762.09933287,37247876.2042,69116756.1151,4571.5545345,4562.6389571,0.0
1.06737861424,0.756153931783,1.02663158335e-05,-34859529.0286,1.76338720935e-05,0.0,5784622.54305,679.606204874,648.622410597,66883494.0943,1717.63784128,34667802.6885,69804826.1588,4430.68862771,4422.30498548,0.0
1.10780873038,0.978980012255,9.6486808893e-06,-19606215.9627,1.74849595691e-05,0.0,5641165.98559,682.462057894,651.283419974,66467125.393,1767.1626808,39080998.2776,68754069.4447,4598.51403981,4588.34080455,0.0
1.13309940326,1.01954423273,1.0013839186e-05,-10755484.4682,1.95945890555e-05,0.0,5629458.7448,683.589297146,652.897367168,66476744.5907,1802.92147651,44082809.644,67787735.66,4703.49562293,4694.28959141,0.0
1.14301806872,0.80296960633,1.02986391572e-05,-8314369.8292,2.44675163167e-05,0.0,5563514.15425,684.069913273,653.457693603,66277104.4271,1815.93168772,45184120.792,68283373.7912,4744.66800326,4735.29935822,0.0
1.11888390247,1.14059044242,9.89617454062e-06,-15203614.5893,1.63278705849e-05,0.0,5627076.39811,682.76052106,651.912010732,66431389.2649,1781.84221641,41325831.2741,68997293.7845,4644.48707915,4634.40669291,0.0
1.15183622458,0.994049653493,9.98232458718e-06,-6748683.47919,2.17252074017e-05,0.0,5570892.21255,684.800555015,654.097644473,66309850.8476,1827.35826705,46216437.2184,68736671.3168,4781.27216823,4771.84183594,0.0
1.12582495884,0.933032059991,9.81464446202e-06,-13291900.2848,1.96700783763e-05,0.0,5635016.92703,683.3175148,652.386145961,66484517.0984,1792.82744232,42295955.0092,68317636.7216,4673.29940414,4663.7967873,0.0
1.14534999168,0.984568853884,9.69823034962e-06,-7759379.60994,2.05782009088e-05,0.0,5579520.64207,684.508837162,653.609872539,66329952.5929,1817.79681546,45998313.3098,68508916.8984,4754.34781546,4744.60217197,0.0
1.10003417699,1.06904501838,9.86732868585e-06,-22980057.9156,1.5944515199e-05,0.0,5738775.79129,681.761786569,650.816059046,66781890.3197,1760.48027454,37213910.2068,69074975.4647,4566.24186869,4557.44569171,0.0
1.1724304574,0.802781483608,1.00916551346e-05,1739124.57961,2.53144857392e-05,0.0,5378349.5417,686.185374112,655.367902995,65678092.6538,1848.8176997,50684548.1961,66919709.312,4866.75882867,4855.66271569,0.0
1.09904510335,1.08016955809,1.01355707982e-05,-22751277.0553,1.60263578032e-05,0.0,5727959.11933,681.525481274,650.761914151,66739459.3344,1759.01501559,37240243.3052,68679246.8674,4562.13622401,4553.3557371,0.0
1.03642733966,1.18709900135,1.04520719107e-05,-52403818.2968,1.23531596735e-05,0.0,5833262.52228,677.810014892,646.626637046,66997967.335,1674.1876042,38486219.3595,70741276.1261,4302.20988693,4293.55822499,0.0
1.17118832742,0.915979357134,1.01228363103e-05,1440401.73037,2.30530196435e-05,0.0,5430340.46057,685.957986252,655.304714392,65839742.7294,1848.16408548,50615067.2224,67424251.6845,4861.60274712,4850.94856931,0.0
1.05115873282,1.01247498581,1.02176401572e-05,-44748738.3839,1.42561103301e-05,0.0,5805006.01442,678.763448073,647.571320701,66930121.0266,1694.27544045,35711632.983,70425631.1216,4363.35989994,4354.55605058,0.0
1.09614943474,0.68657440322,1.04166510218e-05,-22389856.5366,2.12885279362e-05,0.0,5675628.00501,681.362657274,650.564546692,66576741.5007,1754.69835428,37275129.6445,68429743.4619,4550.11630361,4541.08737011,0.0
1.17254468392,1.10877190842,9.44704732955e-06,872238.891206,1.89991073257e-05,0.0,5484071.77078,686.324555556,655.414583905,66029278.6333,1850.041681,50784664.5786,67939834.667,4867.23298295,4856.56977961,0.0
0.997383791382,0.81668565402,9.9793268749e-06,-95468767.8078,1.51091928882e-05,0.0,5904495.21414,678.838563082,644.155672821,67122875.8134,1621.49997302,70325131.9442,70778403.4494,4140.14011803,4131.87426107,0.0
1.10645292279,1.00595477703,1.01254759816e-05,-20552005.9303,1.76647709854e-05,0.0,5700449.02104,681.989923992,651.2170253,66668686.3528,1768.71917985,38176008.9271,68765536.5581,4592.8860825,4583.98787941,0.0
1.1005587528,1.10288467767,9.89082855227e-06,-22731327.0275,1.55975284522e-05,0.0,5738814.30708,681.765479241,650.854750739,66783103.5324,1761.13868419,37302408.5988,68924425.7609,4568.41938287,4559.61332177,0.0
0.973411980241,0.829342818281,1.0246780168e-05,-94569750.7197,1.49483422441e-05,0.0,6020134.46002,681.606468405,642.638577708,67457314.2661,1611.22799491,69533529.5724,69767008.6584,4040.63312998,4034.09068341,0.0
1.02395074427,1.10156287038,9.93381587951e-06,-67650292.0912,1.25765853384e-05,0.0,5934046.30495,677.829850586,645.872151101,67286152.8534,1660.5358802,47788036.5976,71022182.3045,4250.41953946,4243.17131665,0.0
1.13334205248,0.942705489862,1.01103444002e-05,-11109234.2262,2.04892341053e-05,0.0,5573790.01974,683.556328029,652.813475122,66280618.6868,1801.61619796,43612810.6152,67620746.516,4704.50285984,4694.56984121,0.0
1.0291048277,1.05779968203,9.81227087997e-06,-61879154.995,1.30099342844e-05,0.0,5924621.48666,678.092486157,646.197890732,67265457.7158,1667.44478749,43856233.2879,71070733.4771,4271.81413978,4264.49215077,0.0
1.14467786787,0.976463314749,9.98106723931e-06,-7511654.2202,2.01259118645e-05,0.0,5541624.67502,684.316353479,653.550983488,66178944.5524,1815.60688694,45886958.3256,68542815.9501,4751.55782953,4741.34402551,0.0
1.02913067723,1.18272970617,1.03515860705e-05,-59927001.4644,1.19265848221e-05,0.0,5839745.79685,677.61832609,646.16449786,67004565.2943,1663.55420955,42559601.3389,70706157.6791,4271.92144118,4263.04923169,0.0
1.09070824419,0.960158868672,1.01796081035e-05,-25306522.2578,1.68891419621e-05,0.0,5740925.37557,680.99102991,650.160055814,66781189.9639,1748.23439522,36371789.4542,69114382.938,4527.52992163,4518.88029277,0.0
0.995052709513,1.02343338292,1.0087767776e-05,-95387102.5804,1.33287126559e-05,0.0,5918316.48284,678.755674653,644.008720211,67163017.5747,1618.27953853,70253170.9442,70572195.4528,4130.46379719,4122.23575247,0.0
1.089272039,0.72875655766,9.80833716442e-06,-26864610.3706,1.95289197791e-05,0.0,5743810.13688,681.330023536,650.119121376,66781286.4791,1746.57893097,36096778.8426,69309148.9892,4521.56823389,4512.941067,0.0
1.06188217684,0.982662891667,9.49727146165e-06,-42444836.655,1.47285841584e-05,0.0,5800230.28045,679.847628296,648.228396577,66921543.4808,1708.13291952,35322881.1565,69727305.01,4407.87291606,4398.80095842,0.0
1.14610460499,0.900025071126,9.55605288468e-06,-7879521.42927,2.20555774559e-05,0.0,5589848.67833,684.69073399,653.674144576,66372122.651,1819.48384796,45986747.2025,68493167.8151,4757.48021531,4747.93222771,0.0
1.20550670003,0.749708627443,9.45435449838e-06,9632269.76312,2.87734614579e-05,0.0,11071975.8327,688.587339652,657.464420806,65503264.2148,1890.47375379,55928489.459,66966912.075,5004.05831182,4992.8862291,0.0
1.13418220688,0.754762362742,1.02517712598e-05,-11050656.6887,2.44078810388e-05,0.0,5597812.18072,683.656005918,652.965587407,66372640.2688,1805.07000027,43693901.5152,67716080.3336,4707.99034076,4698.86831987,0.0
1.03454687656,0.761552690315,9.44474540477e-06,-58733050.5871,1.60029024569e-05,0.0,5909736.82762,678.675142709,646.544201603,67224488.6161,1674.70705057,42045869.8048,71230418.5339,4294.4040846,4287.00441117,0.0
1.07420200666,0.585100739699,9.7929259797e-06,-32706066.5461,2.02755082199e-05,0.0,5779584.81899,680.344696717,649.014704998,66877738.4882,1726.92006548,34950853.0628,69765056.5087,4459.01252965,4450.6196093,0.0
1.19538095093,0.904807929946,9.89907350339e-06,6590151.31182,2.49234530059e-05,0.0,8118740.89214,687.706814305,656.828027228,65417576.2685,1876.19835763,53554224.5464,66523408.1062,4962.02632731,4950.3070126,0.0
1.12775414196,0.748469555652,1.0124125966e-05,-12924526.2079,2.3557549625e-05,0.0,5625098.05145,683.326155163,652.536698002,66445229.2479,1796.88096126,42619223.76,67869306.9021,4681.30744328,4672.28778648,0.0
1.21229456833,1.00434138704,9.79128767125e-06,11240966.7891,2.41387935979e-05,0.0,12587508.5747,688.562738816,657.825284262,65390785.7701,1897.25509843,57069129.2008,66723397.6257,5032.23475314,5020.7464811,0.0
1.2187187235,0.965168514491,1.00571944771e-05,12779831.5194,2.58800799796e-05,0.0,14030872.635,688.964694964,658.269813286,65117937.3911,1903.3624058,58185071.4706,66391470.9212,5058.90142125,5046.85303895,0.0
1.01206784224,0.699909575524,1.00086339555e-05,-78820861.253,1.60191332337e-05,0.0,5881256.15827,677.911458551,645.098148102,67074064.2671,1642.18458232,56244223.3723,70630989.4383,4201.09361314,4192.9199438,0.0
0.93911336115,1.06073072389,9.90049747947e-06,-93119004.3879,1.27681078612e-05,0.0,6124583.18258,687.560091689,640.43150973,67720285.8281,1608.21237727,68256099.4734,68470252.9949,3898.25956213,3892.17489342,0.0
1.07866143918,0.894395947203,1.02469103498e-05,-29191129.2752,1.67819300181e-05,0.0,5755588.26918,680.341360153,649.44116453,66811053.9248,1731.85177899,35445017.9803,69210318.8658,4477.52363404,4468.8703517,0.0
1.14262425051,0.73305642532,9.63007689433e-06,-9337383.09644,2.4561805521e-05,0.0,5568546.86552,684.613889955,653.487504412,66291573.0953,1814.92068882,44943897.7472,68113321.8556,4743.03326387,4733.32957504,0.0
1.08440906987,0.866844949104,1.02709900052e-05,-26992531.9693,1.75562280307e-05,0.0,5748340.22605,680.656247435,649.807174822,66795661.0149,1740.06564316,35800784.0123,69187491.995,4501.38204903,4492.83076037,0.0
1.10448873515,0.892108735584,1.00139146311e-05,-21174390.4828,1.86964296014e-05,0.0,5705915.50469,682.000470898,651.104696552,66678085.257,1766.43935514,37914669.9,68649425.1956,4584.73273961,4575.86549534,0.0
1.0047663634,1.19594262551,1.00301654879e-05,-90913514.2365,1.18249061234e-05,0.0,5907478.16019,677.958192438,644.62737308,67144224.518,1631.09882372,66326797.2866,70813641.1001,4170.78517447,4162.39930903,0.0
0.980904424337,0.810761843172,9.91037969484e-06,-94872398.8446,1.48972120426e-05,0.0,6000238.5185,681.366546453,643.116927819,67392102.3361,1614.43364112,69799748.7667,70038956.9142,4071.73426542,4064.66763359,0.0
0.980478346039,0.899546385981,1.04740261349e-05,-94645880.8841,1.41422080719e-05,0.0,5935027.72332,679.968237454,643.073323395,67195373.2784,1606.9122447,69600515.9836,69839119.3756,4069.96561441,4062.05342781,0.0
1.19087106863,1.1345216042,1.01339670876e-05,5822684.75079,2.06895142466e-05,0.0,7359786.82513,687.099648366,656.527933325,65510315.2474,1870.15028958,52974686.1721,66611441.5913,4943.30580588,4931.67659613,0.0
1.21349095089,1.05740291929,1.01089792401e-05,11910887.1154,2.36434911233e-05,0.0,13152457.6136,688.453384821,657.935825215,65373871.2146,1898.45544711,57530901.4362,66430594.7764,5037.20093714,5025.78198391,0.0
1.08425267358,1.19214411398,1.03046161218e-05,-27334622.854,1.39615111132e-05,0.0,5773620.93319,680.499131224,649.80049172,66864644.8369,1739.97024546,35904948.4366,69255339.6726,4500.73284803,4492.28121937,0.0
1.03424677826,0.959378620334,1.0141778246e-05,-56114337.8734,1.41327005985e-05,0.0,5843956.98003,678.086096399,646.500878087,67020711.3668,1671.83543669,40456771.0951,70881408.836,4293.15837656,4284.62857245,0.0
1.0577843932,1.15478536312,1.05661427414e-05,-38592332.884,1.31274909769e-05,0.0,5814585.33477,678.714506109,647.99494874,66966705.0424,1704.48767147,34716939.6122,69805498.7971,4390.86301617,4382.55620461,0.0
1.0878688983,1.08418216215,1.05880516763e-05,-24677189.6032,1.53415499126e-05,0.0,5724444.75076,680.489413155,649.970381584,66717412.2192,1743.4952216,36392409.4468,68806510.7334,4515.74379684,4506.84811549,0.0
1.13541132931,0.956993369135,1.02448155148e-05,-10805364.4908,2.11950158598e-05,0.0,5612236.76771,683.63662628,653.046056534,66418068.769,1806.43359695,43823363.0826,67843553.7355,4713.09242797,4703.95094002,0.0
0.977350704926,1.07088277604,1.01831127489e-05,-94782808.3482,1.30952390093e-05,0.0,6024188.82152,681.158351124,642.89228992,67475545.7279,1612.71334452,69721144.1822,69956639.0444,4056.98277615,4050.38908105,0.0
1.01222149058,0.777887910356,9.98811171231e-06,-81244730.8685,1.50667554726e-05,0.0,5946780.98989,677.728501516,645.125674326,67283668.5232,1644.99914311,58198392.0435,70992601.5205,4201.7314074,4194.64967282,0.0
1.18834196167,1.16665186411,9.64256970389e-06,4967583.11658,1.94143879765e-05,0.0,6685592.56983,687.112437445,656.358931201,65836251.2204,1869.05968512,52939162.9961,67162898.1986,4932.80748289,4921.86072044,0.0
0.979981635006,0.873358056028,1.01351492727e-05,-94764197.4322,1.4476259572e-05,0.0,5997149.70174,681.05847413,643.056908514,67392204.5603,1613.43851548,69704539.8057,69941458.2898,4067.90376691,4060.93544234,0.0
1.12814150494,0.920600188452,9.71890025256e-06,-12808560.4633,2.00173384233e-05,0.0,5626008.38587,683.547870471,652.547088578,66456000.2027,1795.78161064,42634003.4031,68060180.1456,4682.91538701,4673.34913853,0.0
1.03845885587,0.836022542045,9.98755542026e-06,-52701183.3683,1.53216246952e-05,0.0,5829281.21766,678.415022625,646.75007282,66981077.3973,1677.22235812,38663944.0763,71034360.1841,4310.64271072,4301.95887326,0.0
1.04068427213,0.867166380393,9.66041883242e-06,-53868238.416,1.52464861e-05,0.0,5827531.56581,678.785189625,646.894994606,66975206.8728,1679.49658031,39358133.943,71106442.1679,4319.88041361,4310.98668485,0.0
1.00404734233,1.16601285391,1.01445716981e-05,-90787651.3237,1.20377342776e-05,0.0,5902944.44541,677.814773955,644.580293476,67131146.4908,1630.18136379,66218098.4827,70716188.7342,4167.80051801,4159.42766418,0.0
1.13744481879,1.02184060289,9.93629906171e-06,-9285408.35854,1.95889176411e-05,0.0,5591587.78544,683.934179058,653.164664918,66353752.649,1807.27210817,44957538.4932,68035597.7067,4721.5334428,4711.81535652,0.0
1.13382325383,0.811598262619,1.00543256144e-05,-10456174.7131,2.29594655841e-05,0.0,5607662.48135,683.71481506,652.943775012,66410925.4725,1804.04061633,44263472.3392,67792012.0434,4706.50032665,4697.2819031,0.0
1.09421899698,0.970076424461,1.05437273508e-05,-23152901.7339,1.71767021288e-05,0.0,5700302.22805,681.021981504,650.436348651,66634553.9611,1752.15033623,36929729.2412,68866121.6018,4542.10305646,4533.10493993,0.0
1.10319390678,0.902532561776,9.97144669011e-06,-21643671.8795,1.84098509433e-05,0.0,5712479.46208,681.966934596,651.030813071,66694018.9268,1764.74782741,37702505.86,68578646.2396,4579.35790704,4570.51112246,0.0
1.12493814334,1.10952218368,9.40358835189e-06,-14245380.8135,1.67222998298e-05,0.0,5645589.14952,683.456542708,652.314536619,66498760.8809,1790.50570354,41993252.0763,68889094.5967,4669.618233,4659.70310722,0.0
1.01230868792,1.11646464344,9.86912424665e-06,-82376181.8522,1.23003872138e-05,0.0,5967094.09385,677.767868307,645.129656729,67343692.7738,1644.91653871,59133433.8215,70915683.612,4202.09336356,4195.01039737,0.0
1.08185818566,0.902201306019,1.01329475734e-05,-28480965.8726,1.68352870003e-05,0.0,5763899.10181,680.607860444,649.659074221,66837302.6164,1736.71037897,35725782.565,69262810.4547,4490.79332867,4482.28099105,0.0
0.966437055583,0.788415715422,1.02250900901e-05,-94017060.5236,1.53462457544e-05,0.0,6017915.92996,683.343810671,642.184310906,67445362.0459,1613.1609145,69046867.4676,69274569.5697,4011.68021773,4004.93263006,0.0
1.08268401412,1.11173182112,1.01457424079e-05,-27397753.077,1.40973227649e-05,0.0,5740071.88363,680.581280845,649.692432876,66749084.5983,1735.67936478,35837325.7178,69043189.1801,4494.22134261,4484.95554663,0.0
1.0644117511,0.867073642039,9.86673626621e-06,-37394284.4878,1.58864350829e-05,0.0,5810741.43497,679.69421266,648.42764643,66957705.9944,1713.33458199,34668402.3427,70113340.0058,4418.37317882,4409.94200053,0.0
1.30113972388,1.14343534035,9.86225646188e-06,27991340.9167,2.98328407402e-05,0.0,29392818.9279,694.138338071,663.42981913,64013721.9836,1996.70751592,68846662.0301,70034422.5962,5401.03099383,5387.5678093,0.0
1.07530734383,0.905599940974,1.03551441888e-05,-30215929.9888,1.66195790607e-05,0.0,5765535.2027,680.048682153,649.209761581,66829769.8367,1727.76071546,35316022.5818,69205808.9977,4463.60078424,4455.09395814,0.0
1.17952521763,1.11818845128,1.02798015136e-05,3456579.7046,2.04086644273e-05,0.0,5385956.75448,686.278219706,655.77635588,65614997.5859,1856.30222618,51578072.6769,66934610.1641,4896.20917838,4884.77595841,0.0
0.998381689551,1.01852948363,9.91121235495e-06,-95560739.1482,1.3471152047e-05,0.0,5916094.73377,678.815377121,644.223993142,67159476.9057,1622.68230988,70406159.7149,70815007.1993,4144.28239333,4136.00285171,0.0
1.05085593558,1.17623449822,1.00267730432e-05,-44642223.7234,1.25598733287e-05,0.0,5827000.06792,678.79369437,647.557531535,66990858.6394,1693.64707127,35747597.2828,70522319.8326,4362.10298859,4353.36154798,0.0
1.26692514559,1.10179753041,9.94310989458e-06,22520340.5119,2.81325925651e-05,0.0,24447674.2401,692.026237202,661.282784963,64453027.1669,1958.22414137,65856794.637,66826958.0745,5259.00627934,5245.93541506,0.0
1.06957073289,0.939460989056,1.0368751046e-05,-32689980.7826,1.58681564579e-05,0.0,5786333.03283,679.514579009,648.711827247,66895686.3442,1720.1926057,34903281.7096,69535249.8913,4439.78811223,4431.37066484,0.0
1.03153084659,1.0071864125,1.04787501783e-05,-56946610.9141,1.35678124335e-05,0.0,5832057.3078,677.626703093,646.320017534,66977085.1305,1667.5402163,40883907.1792,70747668.0167,4281.8845442,4273.28245783,0.0
1.08908652405,0.931966647092,9.8674126382e-06,-26787995.6493,1.68538230862e-05,0.0,5756940.23961,681.180654926,650.104997126,66822569.4549,1746.15573263,36095360.0099,69335381.4196,4520.79816133,4512.17389412,0.0
1.01306396224,0.967266916463,1.04819273511e-05,-74316287.2154,1.37933749779e-05,0.0,5877699.37896,677.268575553,645.160290934,67073901.2617,1643.61886694,52658034.005,70565972.6236,4205.22850726,4197.12323263,0.0
1.2092509005,0.842391427446,1.0091092716e-05,10791665.1615,2.76440216474e-05,0.0,12091286.0433,688.37998385,657.617463231,65193880.9842,1892.80724107,56557794.8498,66499273.9174,5019.60048798,5007.81423913,0.0
0.995135774293,1.02553610608,1.01891274321e-05,-95339397.6792,1.34896029962e-05,0.0,5915951.20718,678.649719272,644.013665296,67159704.0219,1618.5715543,70211244.9343,70461526.8223,4130.80859909,4122.65967164,0.0
1.08768151409,0.850553334608,1.00063621177e-05,-26826656.054,1.78173221782e-05,0.0,5749244.06336,681.037160256,650.015073184,66799377.362,1744.38067775,36036138.0941,69267807.6141,4514.96596499,4506.3636457,0.0
0.954423020231,1.10371182019,1.03871403301e-05,-93597251.9061,1.24513932276e-05,0.0,6054100.92497,684.257325585,641.409330823,67527169.3829,1607.26925723,68677289.3868,68897578.1506,3961.80995698,3955.20140812,0.0
1.057323229,0.772080344073,1.00459799402e-05,-39977829.7769,1.65564337008e-05,0.0,5815604.47068,679.193036699,647.952802873,66962632.2235,1703.99299179,34830136.0982,69651519.9694,4388.94872358,4380.6280209,0.0
1.26183104853,1.13354245726,1.01029678817e-05,21473102.0889,2.73178794765e-05,0.0,23504938.1047,691.589224017,660.955143055,64520677.3684,1952.12550362,65195461.5983,66105108.013,5237.86068245,5224.88790596,0.0
1.13292380266,0.951729513133,1.01068685879e-05,-11201510.1476,2.03167266086e-05,0.0,5576305.33796,683.527491864,652.787172586,66287349.0423,1801.07425819,43538524.5406,67589707.8817,4702.76670484,4692.84078462,0.0
1.07136518369,0.78188899824,1.00163484296e-05,-32856648.429,1.74877471216e-05,0.0,5781415.08881,679.952068931,648.841388803,66872796.656,1722.34364145,34975697.4195,69679856.2977,4447.2368775,4438.69851731,0.0
1.01181308563,1.01908280196,1.0091582591e-05,-83072238.4597,1.3528158139e-05,0.0,5876289.47935,677.731886883,645.078063765,67060421.727,1640.64262595,59713938.1773,70632600.8654,4200.03611845,4191.5348614,0.0
1.10307133005,0.733576819878,1.02455810215e-05,-19290157.5661,2.10259746079e-05,0.0,5608744.24421,681.896282642,650.973409332,66362863.6549,1761.1279062,39063573.4841,68571634.3085,4578.84909104,4568.85334284,0.0
1.15681995176,0.601074089068,1.01158220927e-05,-1808704.38914,2.83055892755e-05,0.0,5454213.34132,685.309357058,654.425433594,65905597.6283,1831.09050787,48990509.8964,67972488.9153,4801.95961976,4791.67604353,0.0
1.12367925542,1.11751815224,1.005155019e-05,-13985280.4483,1.75442262476e-05,0.0,5671638.53488,682.915180017,652.265088606,66599437.4877,1791.14228047,42045679.3117,68594821.0529,4664.39258925,4655.43796411,0.0
1.0391613746,0.707262639353,1.01289265284e-05,-53184425.6972,1.6473025863e-05,0.0,5875953.61467,678.275666378,646.824984183,67138332.8194,1681.45893273,39010951.1476,70846779.5605,4313.55886596,4306.18456112,0.0
1.17089240288,1.13512782488,1.00823496881e-05,1269265.85447,1.9275842596e-05,0.0,5458340.92291,685.835149846,655.297448367,65924169.927,1847.55287794,50484346.4713,67574355.6003,4860.37436435,4849.72534569,0.0
1.12601176764,0.875512948464,9.44760280832e-06,-14369727.403,2.0474383097e-05,0.0,5670939.25229,683.56831469,652.407171212,66594442.6359,1794.39819127,41900092.9556,69034665.7751,4674.07484747,4664.95290323,0.0
1.17838082869,1.13528014085,9.78032740298e-06,2774982.45627,1.92716848281e-05,0.0,5440055.07701,686.456745824,655.748749008,65886331.7903,1856.57970802,51561945.3586,67175535.7853,4891.45881989,4880.58725789,0.0
1.06561254088,1.09403141449,1.02424769703e-05,-35812931.0108,1.3792611928e-05,0.0,5810982.35638,679.394169772,648.508302405,66961302.49,1715.08158006,34675956.4194,70000177.9412,4423.35765719,4415.00140624,0.0
1.05409584806,0.941053159298,1.02069953956e-05,-43331069.4231,1.51117361815e-05,0.0,5793391.55932,678.929426772,647.741275031,66900157.4644,1698.23408601,35350044.0921,70222929.7008,4375.5518653,4366.69982794,0.0
1.16861900151,0.876370254174,1.02098408338e-05,233179.843551,2.41663563199e-05,0.0,5376939.7339,685.889234758,655.138284017,65665014.1492,1843.65532094,49673628.3347,67241877.3292,4850.93747527,4839.67729227,0.0
1.11473689512,0.790734365899,9.41178574623e-06,-17195415.975,2.00183565021e-05,0.0,5654042.84151,683.048991574,651.71218028,66522691.9089,1777.93515359,40155149.5856,69206790.2366,4627.27285164,4617.55608908,0.0
1.2403622833,1.0454550869,9.78611421864e-06,17473696.5179,2.57129054149e-05,0.0,19073362.0357,690.276770387,659.5948733,65063612.6681,1929.85488437,62133949.5764,67082974.271,5148.74383798,5136.84969053,0.0
1.02265849001,0.698892208605,1.00124421397e-05,-68420813.2564,1.59945722832e-05,0.0,5914208.11868,677.850565667,645.788456157,67223995.9422,1659.04006666,48314503.7129,70872934.9638,4245.05539203,4237.82559268,0.0
1.10231981229,0.777975471802,1.0203757615e-05,-21499402.2598,2.0303470892e-05,0.0,5691561.04145,681.815297712,650.967861874,66635115.1165,1763.54827501,37688273.3341,68533206.4096,4575.72954082,4566.89743373,0.0
0.950131178022,0.856400099925,1.00032815169e-05,-93504074.4222,1.45407795901e-05,0.0,6085898.26019,685.944579828,641.140574553,67622047.4189,1610.81636259,68595160.4252,68814763.8743,3943.99451997,3937.76092468,0.0
1.2532690555,0.91595476596,1.04573839773e-05,20594337.7762,3.18628345883e-05,0.0,22507855.2075,690.988697709,660.407449125,64564565.4147,1942.96679412,64531392.3092,65329612.9294,5202.31984938,5189.85770603,0.0
1.18083420742,1.06345240346,1.01631082736e-05,4065237.06878,2.11842836047e-05,0.0,5958529.54737,686.388141575,655.87688503,65797730.7813,1859.82825931,52116077.4089,67066214.1545,4901.642795,4890.92885362,0.0
1.22333091723,1.03294591705,1.05013169871e-05,14056320.6124,2.56378691727e-05,0.0,15418402.0339,688.941389014,658.575021788,65089217.0043,1908.92191235,59316803.872,66540630.8776,5078.04663742,5066.22530163,0.0
1.07040388249,1.15886545931,1.01622398362e-05,-32806498.7482,1.3346491564e-05,0.0,5802542.24861,679.635591112,648.775691105,66938416.9807,1720.7950234,34999665.5625,69687435.8359,4443.24651622,4434.72177744,0.0
1.07300488662,0.634695327686,1.02992407173e-05,-31348971.6508,1.98149970973e-05,0.0,5755558.80838,680.056780636,649.046248435,66793547.7764,1724.95429747,35135200.165,69271881.1817,4454.04328436,4445.57237794,0.0
0.989756949551,0.904231856542,1.00395711361e-05,-95154339.0988,1.43313324337e-05,0.0,5925725.80435,679.602538448,643.67098617,67177647.285,1611.97964866,70048275.5116,70293222.694,4108.48109759,4100.33889361,0.0
1.24334772705,1.10600260901,1.01634077358e-05,18425981.4177,2.56373032773e-05,0.0,20048950.5547,690.302792,659.80408446,64938106.4845,1932.34265916,62856818.0698,66495863.5645,5161.13641498,5149.08296169,0.0
1.03905371745,0.941330142039,1.02472187584e-05,-51946681.2539,1.42923856552e-05,0.0,5837357.32026,678.195830712,646.809708684,67010261.3054,1678.77956925,38340530.6826,70814177.4142,4313.11198113,4304.67969376,0.0
1.12520371651,1.01063476827,9.68464369041e-06,-13702107.4866,1.84146797544e-05,0.0,5649546.99298,683.317872937,652.343640771,66525586.1951,1792.00551345,42032670.3237,68645633.6118,4670.72062723,4661.22823663,0.0
1.13973293673,1.21037543885,1.02355277982e-05,-7920790.30773,1.62520295164e-05,0.0,5548008.44246,683.74602602,653.247478624,66202849.7635,1807.95589021,45625744.9196,68383407.4082,4731.03142037,4720.55510625,0.0
1.06927776099,1.0800482078,1.02529708217e-05,-34171866.0821,1.41307493699e-05,0.0,5800617.38079,679.573788374,648.72545545,66936829.6116,1719.88341498,34772194.2418,69757650.6451,4438.57198587,4430.15884743,0.0
1.09500226361,0.86107482424,1.00674785494e-05,-24194362.6796,1.83380198792e-05,0.0,5726439.78571,681.385890284,650.456116409,66740887.1563,1753.93470507,36719742.3604,69011955.5654,4545.35439625,4536.63746733,0.0
1.17079167782,0.915356655702,1.00624360343e-05,1237377.16271,2.29583968122e-05,0.0,5435007.4209,685.979757883,655.289184078,65852517.2146,1847.72481829,50533959.0662,67496663.7348,4859.95625463,4849.30899178,0.0
1.14024856467,0.888695418917,1.01157929755e-05,-9285440.81615,2.19193820718e-05,0.0,5544192.28194,683.966945306,653.21834066,66198597.5788,1810.52471096,44748839.961,68086426.182,4733.17179195,4723.10837803,0.0
1.12538541493,0.887320513186,1.00018678665e-05,-13052878.1623,2.03741607884e-05,0.0,5599222.61959,683.222074309,652.356883579,66361939.942,1791.35319016,42545062.1168,67493046.1067,4671.47485737,4661.67832621,0.0
1.07927921688,0.649847511259,1.03332393245e-05,-28876641.7824,2.02875010937e-05,0.0,5749972.80542,680.420286993,649.492372294,66798044.0217,1733.86252034,35531954.9282,69141561.9912,4480.08802927,4471.71298803,0.0
1.10315298054,1.05349739989,9.82747966427e-06,-22068986.8956,1.63661817634e-05,0.0,5730533.9068,681.991169334,651.028902834,66761350.4977,1764.57903424,37564580.7402,68578887.0182,4579.18802222,4570.34200887,0.0
1.17057139835,1.05621343562,1.02190842907e-05,1583311.69149,2.05626581916e-05,0.0,5428489.04644,685.77980953,655.259830038,65824467.9449,1846.45661136,50647249.8629,67083688.8292,4859.04187455,4848.18948693,0.0
1.10432386136,0.84065070973,9.94785450214e-06,-21375004.245,1.92947011345e-05,0.0,5704878.52887,682.08003083,651.10039042,66672183.4856,1766.27498803,37830435.2992,68622008.0736,4584.04834851,4575.18447668,0.0
1.01260462312,0.858341865377,9.88330250599e-06,-81806739.3912,1.44824181664e-05,0.0,5953428.59374,677.833553885,645.151741167,67302913.6874,1645.44469214,58666826.0828,70851558.3734,4203.32179057,4196.23464381,0.0
1.1245345233,1.1866142618,9.8859062811e-06,-13850781.9915,1.62656790045e-05,0.0,5661653.19938,683.058728402,652.301694262,66555351.6416,1791.17105448,42049108.406,68567524.9917,4667.94280622,4658.56300913,0.0
1.10976317119,1.17993550407,1.00772311687e-05,-17508913.3453,1.53008495576e-05,0.0,5657300.92833,682.122868255,651.387599905,66517141.3115,1770.21900459,39847158.7069,69045373.1273,4606.62692361,4596.79973356,0.0
1.07348372758,1.03630743929,9.89653179919e-06,-32761003.152,1.46110040979e-05,0.0,5808538.62874,680.036785587,648.970833051,66967191.3916,1725.61353625,34979456.3176,69827383.7516,4456.03095318,4447.64913152,0.0
1.00633723095,0.853793165827,1.01706323952e-05,-88120044.0925,1.48620657965e-05,0.0,5876970.53611,677.800701834,644.727714799,67055222.3943,1633.46672634,63953233.3301,70701153.8341,4177.30584567,4168.89431182,0.0
1.14910150631,1.02297093697,1.02333138388e-05,-6911574.96872,2.12628454998e-05,0.0,5571058.65978,684.449635542,653.917268749,66311940.1212,1823.7315911,46002552.9567,68694641.8767,4769.92035269,4760.53391509,0.0
1.07425935408,0.843062867439,1.03397025337e-05,-30664274.4083,1.72666111448e-05,0.0,5764910.14827,680.018488716,649.137631013,66825699.0217,1726.43602133,35236606.9359,69205022.0765,4459.25057879,4450.76010966,0.0
1.06831397994,0.990762082573,1.00476464104e-05,-34940191.746,1.48622075461e-05,0.0,5801667.42099,679.724573584,648.68225256,66929987.6139,1718.36268716,34718186.8636,69968204.2111,4434.57133073,4426.07908145,0.0
1.15124949731,1.04465487223,1.02561094799e-05,-4361615.94874,1.94247852218e-05,0.0,5527098.91365,684.407522131,653.942712819,66147205.9784,1823.784829,47521381.5833,68065400.6671,4778.83666333,4768.64558034,0.0
1.0998894462,0.939898959671,1.00174489464e-05,-22543048.0359,1.76939950549e-05,0.0,5722997.03398,681.718305028,650.816244459,66721074.7818,1760.394437,37324038.1661,68754031.3863,4565.64109118,4556.84626236,0.0
1.00556582551,0.670260064848,9.69253936305e-06,-89329429.267,1.58312554149e-05,0.0,5896673.02417,678.412946729,644.683628707,67096790.5222,1632.55614268,64954856.5436,70977549.9575,4174.10374169,4165.75694861,0.0
1.1468208587,0.793712516669,1.02017865171e-05,-7569356.98172,2.504521821e-05,0.0,5559906.40577,684.41564747,653.740931323,66273681.4183,1821.1037103,45664443.4183,68482929.3183,4760.45338446,4751.10348966,0.0
1.18177225524,0.920808308219,9.95071149e-06,3994638.08405,2.36013539639e-05,0.0,5946109.53395,686.678527244,655.947484216,65787569.4203,1861.39278396,52167713.3586,67053147.7893,4905.5366315,4894.80636356,0.0
1.07329352711,1.26166001428,1.0092110762e-05,-31793459.5085,1.25751880133e-05,0.0,5803365.27003,679.785728236,648.934468326,66945845.9621,1724.5395129,35180610.3728,69596560.8926,4455.24143103,4446.67258124,0.0
1.12828870811,0.80547525646,9.92389902342e-06,-12388038.2466,2.18175063502e-05,0.0,5585127.85437,683.508721862,652.551143594,66320950.4409,1795.19524191,42920527.9637,67222890.5503,4683.52642736,4673.68025472,0.0
1.06917359597,0.870176346659,9.86157873744e-06,-35275605.1844,1.61308135158e-05,0.0,5798946.06819,679.956520198,648.736896692,66930789.4311,1719.57080896,34709155.3598,70070571.0381,4438.13959687,4429.63534125,0.0
1.21846320597,1.15732681025,1.01551308178e-05,12585187.9902,2.23302877425e-05,0.0,13804726.1351,688.7389827,658.259645327,65230725.6085,1903.37439473,58056777.4721,66444676.0211,5057.84076798,5045.99446024,0.0
1.02806904504,0.958857294212,9.9779411181e-06,-61922631.2546,1.39570266178e-05,0.0,5914358.18125,677.943197809,646.130464815,67233336.9607,1666.11398868,43875450.2031,70981761.5105,4267.51460596,4260.20753602,0.0
1.06567261005,0.89095217126,1.04134291488e-05,-35065162.3281,1.60583617322e-05,0.0,5791324.61763,679.345834006,648.512351209,66904007.8485,1715.29053438,34647741.1333,69798394.8388,4423.60700432,4415.24982231,0.0
1.08489990493,0.782322310074,1.00925195017e-05,-27501302.7502,1.85837512183e-05,0.0,5748674.90132,680.852014597,649.842664089,66794201.611,1740.78796287,35866715.6194,69241313.6592,4503.41950536,4494.86057054,0.0
1.02701272969,0.757151948798,9.80358444878e-06,-65058171.7574,1.56996684385e-05,0.0,5914595.09907,678.141090557,646.065454428,67231808.1416,1664.78330323,45996787.0005,70912998.2202,4263.12984094,4255.83788419,0.0
0.951081029344,0.986024473783,1.01915492707e-05,-93433421.8589,1.35971222477e-05,0.0,6065059.03499,685.435027212,641.195853499,67559244.2349,1609.15712703,68533037.4231,68752709.1367,3947.93735281,3941.40483322,0.0
1.21985695376,1.17740471442,1.00607094594e-05,12756890.2982,2.20603472226e-05,0.0,13975377.0331,688.883424757,658.343076738,65192683.7693,1904.4802242,58208006.2677,66485219.2479,5063.62621506,5051.55398213,0.0
1.18822015441,1.01101728085,9.5556953117e-06,4879054.56063,2.18411932365e-05,0.0,6588287.76915,687.255131523,656.35493268,65797752.8783,1869.20973908,52912081.2496,67123699.0489,4932.30186096,4921.35724436,0.0
0.981018537556,1.04498205421,9.77733208626e-06,-94945703.8597,1.30773393702e-05,0.0,6016258.37098,681.633473221,643.125560226,67440347.4199,1615.68770744,69864225.0476,70103577.4937,4072.2079494,4065.13987255,0.0
1.07943493673,0.890271706266,9.95665850916e-06,-29885325.514,1.66813718147e-05,0.0,5776809.00399,680.57617045,649.481789798,66869561.3689,1733.54262826,35492088.2998,69318377.6331,4480.73442237,4472.26046198,0.0
1.11928105813,0.931609207201,9.61979391871e-06,-15494502.2626,1.87729652414e-05,0.0,5641134.53061,683.053767963,651.946995779,66481909.916,1783.53022217,41093928.5754,69396222.911,4646.1356723,4636.34200791,0.0
1.10268981682,0.830807204158,9.78759986915e-06,-20653611.0945,1.88297478725e-05,0.0,5641727.53501,682.15112186,650.97399813,66461725.2286,1760.74931676,38463569.7951,68449459.2275,4577.26542962,4567.18218494,0.0
1.12082478138,1.28293527736,9.44967754832e-06,-15542019.644,1.44451982564e-05,0.0,5672081.51638,683.089993921,652.048191316,66575605.4567,1785.23154315,41185801.3016,69507663.1425,4652.54366751,4642.72382362,0.0
1.08662701838,1.01051707818,9.93917119638e-06,-27411792.3281,1.58255614073e-05,0.0,5766186.16026,680.964255117,649.95490845,66848720.8781,1742.87366281,35948651.3758,69343906.3528,4510.5887533,4502.00289144,0.0
0.999480681693,1.10863058178,1.01387064946e-05,-95548238.4677,1.27656013777e-05,0.0,5912167.56676,678.305217082,644.291214393,67154273.8152,1624.32321785,70395292.002,70719777.5353,4148.84430971,4140.62540357,0.0
1.1252846181,1.0703774826,9.94235457033e-06,-13254744.0922,1.77273439536e-05,0.0,5619046.5875,683.158803969,652.350409464,66421877.1881,1791.05074387,42481789.1522,67851679.569,4671.05644973,4661.26104156,0.0
1.14908491105,0.950529360041,9.73496228947e-06,-7487893.9667,2.14710519724e-05,0.0,5547025.2612,684.804667149,653.861139569,66223414.4221,1822.23042548,45778493.2542,68624507.854,4769.85146577,4759.83079053,0.0
1.20354636169,1.1064384502,1.01156455257e-05,8854312.11731,2.20489543336e-05,0.0,10225514.8478,687.870637534,657.294269505,65350594.6204,1885.25722015,55101254.2771,66782062.2829,4995.92094738,4984.05151533,0.0
1.08903190998,0.774305003801,9.73510262855e-06,-26798279.4149,1.84423803e-05,0.0,5727158.58164,681.37367763,650.095703307,66726153.6304,1745.08287695,35992025.2865,69087332.4391,4520.57145833,4511.4642831,0.0
1.06788334384,0.910226986613,9.83111499267e-06,-35959797.5423,1.55937604729e-05,0.0,5806125.04526,679.892960968,648.653296677,66949775.9431,1717.85649921,34680993.2141,70166227.6705,4432.78376028,4424.29825942,0.0
1.09522174187,1.07538954116,9.7122687279e-06,-24819747.9405,1.53657862229e-05,0.0,5754072.8076,681.525379376,650.446942505,66813136.7333,1753.86038906,36636328.0358,69263675.2024,4546.2654505,4537.44662058,0.0
1.08760001191,0.953883196832,1.02531113928e-05,-26109752.7318,1.67634836417e-05,0.0,5746275.89282,680.794832337,649.990770973,66793623.8366,1744.17231632,36119353.2161,69159648.0355,4514.62764944,4506.02660261,0.0
1.09647285457,0.859815816712,9.90001328033e-06,-23989748.4336,1.82788374586e-05,0.0,5731866.48292,681.589812061,650.553193006,66755093.2332,1756.01480783,36846078.463,69117371.8371,4551.45881932,4542.71862024,0.0
1.17478633868,1.02460438196,1.02310617603e-05,2856207.46937,2.14059667921e-05,0.0,5407727.66487,686.041327268,655.511835245,65767206.7666,1851.52006467,51472322.8497,66969050.3302,4876.53809186,4865.61341076,0.0
1.22037422717,1.12943325612,9.93291469407e-06,13360313.5015,2.28316495536e-05,0.0,14526664.114,688.934878664,658.396919558,65386608.9875,1907.02991916,58759999.2722,66655030.056,5065.77341698,5054.4496675,0.0
1.05682613956,0.889416485179,1.02670810427e-05,-39699072.1881,1.54697465309e-05,0.0,5818442.15967,678.964679802,647.92988518,66968113.5391,1703.54701003,34788531.8416,69628619.2739,4386.88530531,4378.66623153,0.0
1.24698107294,1.1291925119,9.68440958393e-06,18661532.1942,2.445094971e-05,0.0,20185500.4453,690.781727803,660.026084417,64916242.5466,1936.47859946,62976841.5364,66444826.5361,5176.21843377,5163.79815373,0.0
1.00561425119,0.914151840831,9.87977905256e-06,-90482209.2671,1.39396465287e-05,0.0,5972928.24343,677.968587466,644.706201258,67352085.2162,1635.99416288,65978527.222,70967405.9817,4174.30475669,4167.31607849,0.0
1.13702386444,0.940828536126,9.87566811872e-06,-10954336.6567,2.01016358054e-05,0.0,5540220.7929,684.085018794,653.119984828,66179339.2748,1805.36727329,43833266.8607,67709610.1198,4719.78606129,4709.29025701,0.0
1.03420894484,1.06198883916,1.02224368524e-05,-55533771.3189,1.31524814331e-05,0.0,5847696.54596,677.971831088,646.49957042,67030294.425,1671.71437992,40123042.0537,70927911.3376,4293.00133003,4284.47213814,0.0
1.04197178199,1.13283111322,1.01303580081e-05,-50496638.2693,1.28053784199e-05,0.0,5839769.24199,678.323668064,646.964161523,67020866.3338,1682.17027048,37707327.095,70927123.5081,4325.22486704,4316.65916947,0.0
1.19128745947,0.925034527688,9.80581265953e-06,5680844.80772,2.39579541975e-05,0.0,7268044.44653,687.424669951,656.540891238,65564881.172,1871.83974907,53154524.1916,66788819.7792,4945.03424426,4933.6030637,0.0
1.17820597972,0.92501912992,9.94267342939e-06,2808641.49879,2.31234163639e-05,0.0,5389323.83146,686.521160974,655.726535349,65722366.2259,1856.09486427,51423545.1166,66950885.2363,4890.73302182,4879.63783526,0.0
1.03048200121,1.14187991092,1.01813292498e-05,-60662456.3332,1.26009438073e-05,0.0,5857030.49394,677.861221731,646.264261258,67053925.4376,1666.5382733,43089279.828,70928609.8603,4277.53078702,4269.0621351,0.0
1.1288316491,0.845560658759,9.97634092298e-06,-12163771.8254,2.1318064076e-05,0.0,5587064.20923,683.389168862,652.511456689,66329973.5365,1795.82263955,43083007.6344,67287451.7197,4685.78017541,4675.92481677,0.0
1.28553318309,1.01376301805,1.01027192015e-05,26028667.9576,3.16319182959e-05,0.0,27621985.1292,692.980502633,662.352928937,64212989.2148,1979.53346979,68026762.3589,68900292.1761,5336.24824301,5323.2832114,0.0
0.992009638583,0.912193221526,9.94713892511e-06,-95271169.8833,1.43343955855e-05,0.0,5924904.70335,679.5090623,643.813766172,67175261.2965,1614.43067271,70151059.0965,70401450.3676,4117.83200976,4109.65322104,0.0
0.991275760041,1.08691561764,1.00543594e-05,-95254427.5921,1.26949835209e-05,0.0,5933311.10816,679.270310622,643.768264752,67202501.4593,1613.3642315,70136313.7156,70377233.7624,4114.78567993,4106.61895164,0.0
1.05559700707,1.22160336482,1.00434681426e-05,-41864606.9515,1.22602963018e-05,0.0,5859092.65153,678.918162147,647.846584432,67104148.9411,1702.18438311,35249564.9306,70114824.3815,4381.78317635,4373.89037389,0.0
1.13211250489,1.14009365739,9.74319996632e-06,-12964437.1762,1.7510009394e-05,0.0,5575003.90155,683.76602885,652.793923254,66304373.6977,1798.80708942,42565554.3083,67507157.3377,4699.3990078,4688.95240402,0.0
1.0099876419,0.972741104867,1.02856568527e-05,-82636968.9025,1.36563599417e-05,0.0,5945199.46483,677.343642056,644.974841429,67280404.3565,1641.7758921,59337888.9275,70693330.2911,4192.45870153,4185.40875989,0.0
0.994216311443,1.0051164363,1.01244811023e-05,-95309977.3893,1.37191058664e-05,0.0,5919127.61397,678.919962153,643.955850201,67167229.4269,1617.32938219,70185319.5573,70443238.6016,4126.9919088,4118.85775909,0.0
1.07417586742,0.992118227156,1.03796217941e-05,-30531314.0361,1.55957956402e-05,0.0,5773063.94712,679.927854568,649.133996475,66851183.0814,1726.21096226,35235162.2239,69224377.4359,4458.90402566,4450.41485904,0.0
1.04559106079,1.00518166127,1.01366937775e-05,-48208236.9355,1.41418435077e-05,0.0,5823123.65064,678.571921756,647.225609846,66976646.8221,1687.06067239,36861066.7018,70711232.7647,4340.24849334,4331.62429596,0.0
1.23578579509,1.01782827826,9.95764334562e-06,16765926.022,2.63176521809e-05,0.0,18289975.7773,689.92605368,659.33831381,65133159.3618,1924.73072563,61566645.7491,66950820.3699,5129.74683542,5118.11318305,0.0
1.21760801311,1.1003228274,1.03230148481e-05,12623308.0981,2.34926428113e-05,0.0,13812209.999,688.622596877,658.20823992,65227303.8232,1902.57064811,58096320.0604,66420244.3371,5054.29086242,5042.57164404,0.0
0.960657854064,0.885711031572,9.6701165433e-06,-94040928.6361,1.45129566314e-05,0.0,6049409.54597,685.163899616,641.813068844,67501802.7517,1613.43511322,69067755.3776,69293991.5093,3987.69075222,3980.75644436,0.0
1.18428526298,0.93292801167,1.02275065125e-05,5003777.6467,2.39293871487e-05,0.0,6595660.253,686.66179397,656.097573023,65679943.1051,1864.12628549,52624524.9722,66936302.1622,4915.96812663,4905.19407205,0.0
1.17618249028,1.21358008417,1.01306695395e-05,2522994.82121,1.84630164767e-05,0.0,5420689.39687,686.094780392,655.598476657,65799444.5997,1853.04803892,51189293.611,67025371.7248,4882.33351715,4871.27460175,0.0
1.01354726832,0.880114858747,1.02614330871e-05,-78671881.483,1.44385260623e-05,0.0,5932975.62085,677.433556376,645.204515381,67249123.0856,1646.60681484,56114085.98,70754394.6062,4207.2347108,4200.13451661,0.0
1.04526316603,1.14226141428,9.86759955977e-06,-48373995.1859,1.26222534048e-05,0.0,5844206.66203,678.672034051,647.208435329,67028857.4978,1686.19887912,36979195.1936,70965451.0899,4338.88740219,4330.236877,0.0
1.05482725888,0.900512349867,1.0177068449e-05,-42415618.828,1.56660883191e-05,0.0,5793423.84214,678.988808661,647.784284443,66894270.2899,1699.31524812,35110049.5912,70049120.067,4378.58795161,4369.81363384,0.0
1.11971991657,1.20933271569,1.00299565013e-05,-14714557.5325,1.57100960838e-05,0.0,5623260.89946,682.698232269,651.964188096,66423479.2757,1782.81444654,41431154.5379,68574541.5081,4647.95737368,4637.8615759,0.0
0.999633823317,1.25914220998,9.96250601132e-06,-95838004.6559,1.13633999244e-05,0.0,5978667.53872,678.342165474,644.3175974,67353433.1332,1626.56513303,70650268.986,70969765.076,4149.48000059,4142.23488463,0.0
1.08278911111,0.897196563042,9.51459603479e-06,-30122312.5595,1.65314360212e-05,0.0,5790648.56841,680.896029487,649.572651576,66922481.9048,1737.92723975,35586392.7219,69446245.2091,4494.65760022,4486.1315272,0.0
1.14312953867,1.0696952969,1.01309506179e-05,-8404391.16647,1.93549291539e-05,0.0,5550580.40341,683.983432959,653.364500237,66221863.3971,1813.89307856,45142719.0278,68359683.941,4745.13071502,4735.00686163,0.0
1.07954422181,0.915546983245,1.01031924988e-05,-29404031.9347,1.64929438645e-05,0.0,5772135.25642,680.476748351,649.497192442,66858083.1867,1733.66179081,35549422.6439,69280388.1142,4481.18806473,4472.71240849,0.0
1.22096514651,0.886666508351,9.70765104525e-06,12714744.8564,2.69454023034e-05,0.0,13997145.8247,689.372321503,658.416460868,65106424.3186,1906.566202,58201419.0592,66315547.8285,5068.22632316,5056.07064774,0.0
1.22883817987,1.17129645516,1.03456793009e-05,15103454.7874,2.33529964014e-05,0.0,16605290.3573,689.302764141,658.921679153,65002976.1516,1914.22610809,60100568.6259,66666764.4682,5100.90728464,5088.66487423,0.0
0.959146444991,0.809904961106,9.96170216775e-06,-93865295.6988,1.51685281415e-05,0.0,6062968.94709,684.943344709,641.721287057,67568887.7669,1614.11052139,68913238.4069,69137043.2614,3981.41689316,3975.06234172,0.0
1.14468979832,0.764900942933,9.461442687e-06,-8930331.46573,2.38598590896e-05,0.0,5567123.7562,684.819135532,653.608090375,66297066.6918,1817.3215812,45243944.1454,68241021.014,4751.60735283,4741.77812914,0.0
1.24668808984,0.874711328496,1.01178388183e-05,19231910.1281,3.09249184987e-05,0.0,20887087.783,690.748045159,659.999353434,64726943.9968,1935.89300472,63378855.3299,64779624.0095,5175.00226093,5162.65991337,0.0
1.10106158969,0.88503095172,1.00463207127e-05,-22295942.9051,1.85654128314e-05,0.0,5711079.9683,681.796353401,650.891419869,66689388.1289,1761.8132283,37366500.9494,68456322.6043,4570.5066588,4561.69440004,0.0
1.06445621237,0.810698914158,1.00253694686e-05,-36720202.6284,1.65932686296e-05,0.0,5800949.27591,679.596617583,648.42970267,66929748.4896,1713.43671298,34606026.4052,70106055.826,4418.55773755,4410.12586445,0.0
1.14434422716,0.907896874407,1.00521793713e-05,-8188202.56538,2.19586876102e-05,0.0,5533277.95436,684.214488689,653.444731214,66169432.4389,1815.66820931,45300697.6863,68374114.7545,4750.17288694,4740.02662598,0.0
1.07095913175,0.946531715567,9.63457431658e-06,-33415633.9197,1.50406741677e-05,0.0,5762554.62445,680.325288115,648.914707007,66800001.5664,1719.27521776,34877439.6196,69785120.0557,4445.55135589,4436.11596412,0.0
1.10738964855,0.962195897369,9.85430756594e-06,-18639406.9093,1.75430768583e-05,0.0,5677840.14935,682.244182067,651.266865382,66584355.2962,1768.37568641,39400547.6765,68820554.9771,4596.77443113,4587.27869199,0.0
0.972727286818,0.89670996469,9.88858881163e-06,-94394922.0148,1.46873795324e-05,0.0,6019698.3541,683.242940043,642.590496489,67449520.6009,1616.95977297,69379422.6126,69611606.478,4037.79096758,4030.87532425,0.0
1.21431407134,1.04489876575,1.02206335963e-05,12214326.371,2.41258295121e-05,0.0,13447601.9942,688.469077538,658.000966238,65313624.0825,1899.31108825,57754881.4049,66428326.5145,5040.61771013,5029.18399435,0.0
1.12636367548,0.871788421641,9.92334727857e-06,-13154136.1818,2.07967174481e-05,0.0,5625365.93046,683.317767287,652.433269945,66448808.4738,1793.81564865,42351425.6239,68099009.595,4675.53561692,4666.12597442,0.0
1.08256329469,0.748457474856,9.74559689671e-06,-29435445.4876,1.86093151473e-05,0.0,5767091.62626,680.976482399,649.691375274,66853689.1136,1737.76778181,35651106.2051,69343485.5865,4493.72023626,4485.19767579,0.0
1.12495961166,0.73739240319,9.90116799919e-06,-13516034.0834,2.27280887823e-05,0.0,5618031.32526,683.317954832,652.339284382,66423603.5235,1792.16891188,42116046.6977,68311239.8716,4669.707348,4660.32061836,0.0
1.04303244834,0.680802173634,1.00120706408e-05,-50379088.3597,1.71883372946e-05,0.0,5813280.86726,678.658832634,647.037767307,66939267.7401,1683.87916528,37650622.8814,70895678.6219,4329.62769306,4321.0448682,0.0
1.02149968674,1.03329314109,1.0250380536e-05,-68184647.3083,1.33687642579e-05,0.0,5867708.03347,677.576373742,645.690480542,67073392.6729,1654.64533279,48127285.0459,70756810.9186,4240.24519966,4231.92096849,0.0
1.02602889526,0.663457588944,1.00256197145e-05,-64012346.251,1.64876673275e-05,0.0,5902511.50073,677.925044872,645.991882596,67196412.4538,1663.56733536,45277237.6574,70790151.7897,4259.04594422,4251.76805167,0.0
1.09818559239,1.07637743546,1.01294793485e-05,-23029707.5661,1.60008073018e-05,0.0,5730410.58415,681.474776043,650.70075401,66745445.615,1757.89027849,37121200.6155,68863145.19,4558.56839401,4549.80143536,0.0
1.14176300419,1.06416056609,1.01668239314e-05,-8998496.17683,1.98366867449e-05,0.0,5596046.33169,683.975664777,653.397856945,66369531.9176,1814.05211646,44948688.8347,68236862.9994,4739.45823039,4730.08322547,0.0
1.00771369072,0.769494978379,9.9669332646e-06,-88543528.1925,1.56618119109e-05,0.0,5876279.27291,678.11302905,644.818396081,67052171.4453,1635.30452281,64317341.1819,70770870.9567,4183.01953018,4174.58547868,0.0
1.1567264443,1.07288268107,9.96266528145e-06,-3741968.65198,1.91410544965e-05,0.0,5474505.28238,685.166237681,654.413297767,65985096.3593,1829.10164251,47727864.8067,67869511.0545,4801.57147029,4790.66687587,0.0
1.1369832764,0.808662429458,9.5814950946e-06,-10898486.2823,2.24532082468e-05,0.0,5599263.6667,684.263993475,653.142270172,66375167.8996,1807.59210772,43882198.3922,67727463.3758,4719.61758034,4710.00861353,0.0
1.04503299862,0.758547599125,1.03503667216e-05,-47200655.4003,1.64117823939e-05,0.0,5799021.93282,678.456176626,647.181755293,66900900.293,1686.32556372,36387385.4674,70132696.3835,4337.93197727,4329.2269091,0.0
1.12827488315,0.839006057922,9.73164272204e-06,-12717934.1339,2.12330224958e-05,0.0,5617763.86187,683.592844761,652.557254832,66431979.4553,1796.02977692,42666471.5605,67989203.8416,4683.46903996,4673.90058705,0.0
1.1003675861,1.03607649779,1.02390939498e-05,-22094271.0116,1.67959306907e-05,0.0,5716241.66365,681.548445467,650.846525399,66707183.4448,1760.76409995,37495740.4884,68495000.7408,4567.6258499,4558.82453117,0.0
1.24471940586,0.996216569333,9.8818377537e-06,18412320.7705,2.74016044655e-05,0.0,19968415.7337,690.654025221,659.881622625,64822727.8462,1933.65271282,62748815.1733,66582257.4645,5166.83025372,5154.39868302,0.0
1.00813155407,0.795929912977,1.05310918172e-05,-82642008.8178,1.53541195972e-05,0.0,5857587.39672,677.286554001,644.833499195,67005884.6826,1636.14105734,59337688.5751,70400033.0927,4184.75408094,4176.39661877,0.0
0.997599469326,0.858795143485,1.01574348472e-05,-95405374.1571,1.48891813201e-05,0.0,5901493.96289,678.538850804,644.170433207,67118634.446,1621.97673956,70269483.1486,70656776.8791,4141.03539717,4132.84681938,0.0
1.09130407074,0.879841179734,9.9739405334e-06,-25700165.4261,1.77184465224e-05,0.0,5742475.94206,681.216465772,650.210593233,66783007.811,1749.09563464,36315329.7934,69230368.1058,4530.00319764,4521.34424315,0.0
1.10700362129,0.853357919386,9.86084560089e-06,-18679988.292,1.88128728992e-05,0.0,5669974.47092,682.273162018,651.244062746,66560128.3959,1767.97367749,39352540.075,68771464.7452,4595.17203197,4585.68195048,0.0
1.05489720689,0.938306589205,1.01314178237e-05,-42593719.6671,1.52829749941e-05,0.0,5797380.83039,679.016742254,647.790977523,66906271.1537,1699.37335053,35161691.0516,70193974.0725,4378.8783058,4370.10284782,0.0
1.14060151305,0.778385571588,1.00076970256e-05,-9695137.57866,2.43716564174e-05,0.0,5590380.01899,684.180036821,653.357884691,66353358.8891,1813.35643541,44519941.5059,68040021.2633,4734.63688067,4725.38634367,0.0
1.07958780003,1.06423153422,1.01717855938e-05,-30220697.6952,1.50511822127e-05,0.0,5785730.28885,680.379858184,649.506537943,66913262.8591,1734.20092375,35302334.9024,69274036.4129,4481.36895792,4473.0862883,0.0
1.08081236894,0.948427936762,9.86263341911e-06,-29707506.1696,1.60582733921e-05,0.0,5780878.6884,680.700649125,649.573426113,66895099.1359,1735.30937639,35567177.884,69358035.6596,4486.45214347,4477.95661703,0.0
1.189701968,0.659184715114,1.01256498667e-05,7103525.64004,3.07923339422e-05,0.0,8596747.74768,687.379331267,656.466149045,65379749.7714,1869.77263684,53893331.545,66523986.8175,4938.45286917,4927.16841706,0.0
1.13890142556,1.03716013274,1.00008616187e-05,-8848878.45116,1.95367181513e-05,0.0,5584747.29696,683.953603217,653.239517285,66336547.4531,1809.07096779,45257304.8287,68162591.3351,4727.5798175,4717.83749442,0.0
1.21739069202,0.850629959602,1.01011228121e-05,12653081.8624,2.8244721511e-05,0.0,13917303.0146,688.955123158,658.18356736,65065897.5105,1901.91452827,58038288.2499,66304575.0477,5053.38876258,5041.34112528,0.0
1.13622410135,0.76664291284,1.02624953013e-05,-10539201.0788,2.44543755583e-05,0.0,5591467.68829,683.7732895,653.097258283,66358856.886,1807.66334077,43976448.9564,67843152.1735,4716.4662447,4707.31187464,0.0
1.21108927907,0.925829344485,1.02241896658e-05,11259154.0386,2.61648663085e-05,0.0,12523336.2933,688.373292318,657.758021828,65218864.1043,1894.73216073,56932386.3513,66209644.3926,5027.23159742,5015.43879758,0.0
1.11702406849,0.875563194421,9.73663854226e-06,-17800062.6059,1.96847826045e-05,0.0,5673974.29836,682.886498217,651.844437612,66604926.4345,1782.42764591,39887708.3692,69224162.003,4636.7669083,4627.59911438,0.0
1.11116299251,1.03191575445,9.63143364012e-06,-19831789.1916,1.69522246371e-05,0.0,5683680.7955,682.616863738,651.507813328,66616113.9,1773.66986482,38926767.6106,68872237.6142,4612.43758191,4602.96595249,0.0
1.11589908601,0.979718508941,9.71213109274e-06,-16380102.5682,1.80368869014e-05,0.0,5630791.3401,682.804192157,651.744985966,66448037.2681,1778.16449516,40700998.9592,69328833.3128,4632.09710603,4622.06840722,0.0
1.03927228824,0.894444978708,9.98654780713e-06,-52133546.4324,1.48086851039e-05,0.0,5831100.68329,678.440851786,646.814598271,66988412.2666,1678.26191142,38411029.5684,70919767.1515,4314.01926848,4305.32211492,0.0
1.02749233834,0.879670770914,9.71968192797e-06,-65339249.3706,1.46277920807e-05,0.0,5922285.62418,678.202623323,646.097030987,67255239.1419,1665.34321403,46195985.6695,71028581.8351,4265.12069645,4257.82187937,0.0
1.22239288549,0.940951240109,9.95750332558e-06,13305291.7036,2.66129084489e-05,0.0,14531736.8697,689.290107753,658.506058624,65063233.0444,1907.93656129,58633568.3611,66421349.3055,5074.15286767,5062.00556486,0.0
1.1555982,0.986412194034,1.01487612615e-05,-5270248.33828,2.2377252921e-05,0.0,5546892.25898,684.999754396,654.37583481,66242858.7792,1832.03398426,46931429.6943,68485825.103,4796.8881282,4787.3972771,0.0
1.06758984992,1.19831344576,9.80153605716e-06,-36278335.9478,1.26689834361e-05,0.0,5825672.50813,679.788351656,648.634203644,67008492.812,1717.271008,34706321.6897,70276960.7184,4431.56546702,4423.08456419,0.0
1.03765022674,0.96921576041,1.02011673092e-05,-53509041.5924,1.39997417793e-05,0.0,5843634.95002,678.145495534,646.698653478,67025351.8225,1676.89745171,39091639.5322,70972443.1905,4307.2860912,4298.8775878,0.0
1.07881456375,1.06444661467,9.85095693406e-06,-30641433.4045,1.45777783407e-05,0.0,5798702.63741,680.354327803,649.30912088,66946752.0315,1732.59383037,35407886.7643,69390446.964,4478.15925413,4469.69491789,0.0
1.12114459393,0.905350142802,9.61613419624e-06,-14990111.7033,1.92874957061e-05,0.0,5632734.9163,683.185009686,652.064554124,66458937.981,1785.95407755,41418206.2507,69151093.6322,4653.8712094,4644.04593845,0.0
1.15530946457,1.14073966524,1.01948038609e-05,-2282687.19232,1.82259910442e-05,0.0,5519267.66344,684.805274036,654.332166369,66106325.2729,1828.40620699,48772707.3352,68229240.3094,4795.68958743,4785.43184062,0.0
1.02121919779,0.895533661487,1.00918738676e-05,-69299339.0325,1.43977349318e-05,0.0,5917939.85953,677.679175349,645.693515163,67230119.4405,1656.63644578,48949821.9073,70762087.9083,4239.08089003,4231.78230766,0.0
1.14646428856,1.15820856881,9.86280252404e-06,-8400828.5419,1.80742495493e-05,0.0,5560236.1948,684.308526603,653.58249539,66251162.5321,1818.14084451,45466643.5146,68546553.9664,4758.97326181,4748.79225496,0.0
1.17299234848,1.08440007237,1.02962035745e-05,2348695.4204,2.03040747548e-05,0.0,5435124.10056,685.839265913,655.408457899,65839226.0655,1849.88351741,51039596.66,67123495.4653,4869.09123854,4858.41257961,0.0
1.09587737713,0.737528758993,1.02160079749e-05,-23379853.3815,2.03502936433e-05,0.0,5707592.41799,681.419832243,650.537396371,66672069.6398,1755.18645713,36893361.7298,68881592.3578,4548.98699247,4540.25521747,0.0
1.01270654266,0.785797759524,1.00471045633e-05,-80246415.8775,1.5090869681e-05,0.0,5937377.22682,677.655133158,645.140007154,67253312.6179,1645.28840263,57390361.1461,70701338.6343,4203.74485858,4196.56822728,0.0
1.14966013627,1.01081845027,9.44745910647e-06,-6941841.77865,2.00978830506e-05,0.0,5544013.421,684.977300787,653.891582076,66224214.1397,1821.98237081,46457167.6374,68762223.988,4772.23922566,4761.88750456,0.0
1.05439291948,1.14115207561,9.69862357262e-06,-43434568.9562,1.25857674847e-05,0.0,5834060.64007,679.214242254,647.776378056,67013026.3306,1698.43998813,35506283.4249,70650677.9485,4376.78500876,4367.98418144,0.0
0.956623731555,0.755795539957,9.72443824796e-06,-93806019.798,1.57391830109e-05,0.0,6077053.3822,685.982868432,641.560286673,67600639.2415,1615.98116272,68861000.9382,69083923.4557,3970.94510968,3964.62439737,0.0
1.07844564717,1.05624311286,9.72845447452e-06,-30543092.2971,1.44028411057e-05,0.0,5785850.54667,680.417373138,649.27853822,66896678.0462,1730.86267689,35417975.2651,69447940.5128,4476.6278814,4467.788277,0.0
1.11771059035,1.11994461578,1.00484368464e-05,-15331079.9745,1.66820702988e-05,0.0,5671359.80342,682.543873323,651.852282198,66577835.9144,1782.38759065,41183353.6352,69257607.551,4639.61666054,4630.34774224,0.0
0.971504456173,0.992987588532,9.95680283548e-06,-94344156.949,1.39827614394e-05,0.0,5993466.60326,682.985235676,642.503437511,67358770.6441,1612.99872396,69334848.0239,69566540.0913,4032.71499757,4025.25501455,0.0
1.06456969435,1.02153427105,1.01219678508e-05,-36349012.9143,1.4348010113e-05,0.0,5810316.14739,679.448487706,648.438328183,66950237.2047,1713.43918029,34647514.4347,70142313.162,4419.02880125,4410.59515461,0.0
1.13190467862,1.17873461389,1.00699554366e-05,-11586124.5523,1.69537025343e-05,0.0,5602852.62858,683.362786363,652.720715147,66367680.133,1799.54119691,43343138.692,67562535.3842,4698.53632095,4688.62849375,0.0
1.19191159938,0.869296373865,9.92129285704e-06,5914098.01072,2.54422654505e-05,0.0,7495653.60291,687.485821617,656.585702214,65444007.5817,1872.05192579,53123764.3103,66686998.066,4947.62504903,4935.95673089,0.0
1.09747818513,0.988518731087,1.04566181783e-05,-21976511.9957,1.72395431657e-05,0.0,5695029.08394,681.265740423,650.652254303,66623766.8993,1756.10441021,37518905.6338,68356942.3527,4555.63194647,4546.58155592,0.0
1.03285476317,0.970058037009,9.94807718311e-06,-59745467.2237,1.40655449296e-05,0.0,5856423.30875,678.220698457,646.416093987,67056283.9234,1670.17328637,42534003.9345,71096134.464,4287.38012192,4278.95970967,0.0
1.11116519381,0.905637116551,1.00632901304e-05,-17103480.4028,1.8803843098e-05,0.0,5630224.92217,682.345893328,651.469995902,66436368.9992,1772.30242542,40156095.1079,69050517.9247,4612.44671951,4602.59552545,0.0
1.10497070645,0.685888749806,1.01605046008e-05,-20816119.2843,2.21357664267e-05,0.0,5676582.58862,682.045177683,651.126578753,66593282.8428,1767.11486065,38012758.3495,68619722.1128,4586.73340247,4577.85847915,0.0
1.08894290124,1.09499357071,9.73086726145e-06,-26735542.4323,1.4618540121e-05,0.0,5774016.56055,681.19739656,650.098374145,66877349.5697,1745.70280484,36143719.3757,69438267.644,4520.20198305,4511.48230927,0.0
0.981241317982,0.840215770042,1.01936993093e-05,-94726476.5667,1.47677381135e-05,0.0,5940894.8881,680.654907065,643.124336717,67209811.9106,1609.87999409,69671459.8238,69910142.6874,4073.13271094,4065.20736533,0.0
1.07690042157,0.892039178993,1.02251653863e-05,-31093270.7989,1.69037815929e-05,0.0,5779681.93749,680.235999837,649.320253151,66890272.3257,1730.81784535,35107187.7219,69216140.0225,4470.21364994,4461.97111776,0.0
1.13013782918,1.25061587706,1.00669882563e-05,-11179948.3545,1.61170724457e-05,0.0,5633613.13877,683.260324345,652.69444209,66466083.5075,1797.67509324,43804875.3783,67687533.1001,4691.20212893,4681.72406558,0.0
1.16284540378,1.13962330255,9.97838918349e-06,-1108126.17831,1.85303512676e-05,0.0,5464350.23763,685.448780078,654.788145996,65947396.7014,1836.58163217,49330281.6859,67793711.0012,4826.97127109,4816.04726099,0.0
1.02801431123,0.976335380944,9.86325011506e-06,-62758231.3673,1.37629667085e-05,0.0,5920763.17302,678.026567426,646.113504791,67251884.7633,1666.03828136,44455722.6285,70953046.9693,4267.28740592,4259.981033,0.0
1.02288231301,0.940756590571,9.99931069154e-06,-68315125.1073,1.39776244387e-05,0.0,5925722.92347,677.793916141,645.803509529,67259725.5247,1659.20971772,48257645.9104,70926516.7242,4245.9844813,4238.75149237,0.0
1.09606856139,1.06043545068,9.97113564037e-06,-23969475.2016,1.58128825249e-05,0.0,5745193.29354,681.42731459,650.528343421,66796224.0847,1755.30284302,36848895.2941,69126554.7033,4549.78059833,4541.04605668,0.0
1.20086070663,0.848764520267,1.00479049715e-05,9454929.33523,2.67114880594e-05,0.0,10873964.0954,687.872228923,657.164986378,65447575.0284,1883.69050862,55651112.686,66815910.7706,4984.77279322,4973.60780502,0.0
1.14611342065,0.981386098964,9.48880403575e-06,-8622638.60496,2.03869333258e-05,0.0,5581813.22631,684.742045244,653.680540096,66344682.539,1818.85191828,45471628.1044,68408852.814,4757.51680912,4747.66380089,0.0
1.12212905996,1.09580855103,9.84030654742e-06,-16083719.4199,1.72675085621e-05,0.0,5669945.2955,683.007754754,652.146876338,66586000.0333,1788.80137154,40648160.5093,69134532.101,4657.95772789,4648.7076087,0.0
1.03980595188,0.922210805863,9.95069405078e-06,-51966857.8229,1.4568994758e-05,0.0,5832841.54051,678.488802467,646.853525312,66994479.3067,1678.94764292,38333597.4452,70902522.098,4316.23450625,4307.52861202,0.0
1.19891105839,0.946553056406,9.92054336111e-06,8334439.44091,2.42678723924e-05,0.0,9775697.95046,687.79992138,657.05346058,65487681.906,1880.96254769,54914216.7871,66700095.2832,4976.67980338,4965.32760305,0.0
1.09852662016,0.990236288451,1.02839227938e-05,-20613526.276,1.70688528255e-05,0.0,5654501.00945,681.463702178,650.705859928,66499666.0862,1755.28176186,38312289.5097,68363320.7499,4559.98400028,4550.1611481,0.0
0.951705369299,0.796879961709,9.96135934956e-06,-93567125.8953,1.50490944745e-05,0.0,6081413.07544,685.890124362,641.242158437,67610222.169,1611.81552175,68650673.6149,68871024.7008,3950.52898796,3944.27431834,0.0
1.13863130096,0.984893186867,9.77658126998e-06,-9385047.21329,2.00502919353e-05,0.0,5598975.39158,684.121331714,653.244765487,66383228.3719,1809.18244242,44989651.6289,68045868.6566,4726.45853029,4716.82555681,0.0
1.18708539418,0.974024520024,9.96056718532e-06,5229720.60365,2.29202721675e-05,0.0,6876305.55228,686.976157221,656.279880378,65720512.6121,1867.46985102,52954105.1861,66983978.9948,4927.59147124,4916.67360849,0.0
1.15287939327,0.944230380286,9.90486076758e-06,-7295626.41443,2.25474483812e-05,0.0,5460680.94505,685.097576454,654.126306515,65963594.8497,1825.09388969,45645293.8831,68339497.9066,4785.60236146,4774.68375386,0.0
1.12527849664,0.927761615521,1.04823386339e-05,-12357620.2647,2.02733158959e-05,0.0,5583423.59431,682.801054771,652.275016665,66305192.9436,1791.20213729,42730887.2814,67154315.6617,4671.03103955,4661.23531584,0.0
1.1305462036,0.889950199311,1.00113835564e-05,-11684413.0124,2.08772203358e-05,0.0,5583084.71296,683.457269727,652.629338432,66322099.0699,1797.94921357,43367023.3987,67442777.1073,4692.89729114,4683.01290169,0.0
1.04410430783,1.00905623217,1.01596238409e-05,-48901411.2352,1.40522861332e-05,0.0,5825862.99692,678.484519881,647.133538604,66982100.8843,1685.08891339,37086819.5587,70977993.9667,4334.0769818,4325.47683487,0.0
1.071108579,1.1481652383,9.86995799862e-06,-34448765.4765,1.32943879631e-05,0.0,5811544.14892,679.940241285,648.856163205,66962745.4785,1721.90809611,34816069.4222,69967631.6174,4446.17171143,4437.63709066,0.0
1.02445339377,1.03581417594,9.74980868344e-06,-68872756.4773,1.31830185094e-05,0.0,5936639.71782,678.048534165,645.90439848,67292819.905,1661.21031388,48665274.5036,71028762.5732,4252.50603754,4245.25188437,0.0
1.08202736196,0.932991858774,1.00569916035e-05,-28669417.7824,1.64415212397e-05,0.0,5768487.24445,680.663114126,649.671330358,66850305.0536,1736.90874795,35690219.7014,69284379.8284,4491.4955795,4482.98135301,0.0
1.15108841199,0.984312527141,9.74991458507e-06,-7009412.19035,2.11219194465e-05,0.0,5542614.05374,684.925333886,654.014696704,66212067.6202,1824.70404677,46069251.5114,68739422.319,4778.16799817,4768.11342292,0.0
1.17230397465,0.887546488302,1.01720753731e-05,1633082.06395,2.3829081342e-05,0.0,5369621.79081,686.084212533,655.35236441,65640968.8934,1847.95799952,50633745.1254,66912140.8904,4866.23379877,4854.93290156,0.0
1.13848949317,1.04409329585,1.00208647576e-05,-8938545.59147,1.93959927306e-05,0.0,5585705.81723,683.913903359,653.216159047,66339805.7017,1808.51511608,45203365.2066,68139772.4025,4725.86988615,4716.13434963,0.0
1.07011071336,1.15684944747,1.00936671878e-05,-33187301.3032,1.33169184174e-05,0.0,5805972.36818,679.684728522,648.771167781,66947131.0496,1720.41784467,34939022.1021,69763910.4161,4442.02957116,4433.50943425,0.0
1.09041419811,1.20372074716,1.00289820832e-05,-25900716.2413,1.39368121111e-05,0.0,5764514.85263,680.99841984,650.160902789,66851879.2838,1747.67100852,36247992.922,69295283.8145,4526.30933635,4517.66430826,0.0
1.11753102954,0.839929456484,9.76182225514e-06,-17577213.0825,2.02450606353e-05,0.0,5668114.01257,682.911190544,651.867721726,66572626.9156,1783.11116193,40013071.7931,69252616.8992,4638.87130362,4629.69534754,0.0
1.24677046153,0.92174362526,9.88177017579e-06,18897445.4147,2.92521206579e-05,0.0,20496138.4068,690.847944766,660.006219139,64753075.7374,1936.08169742,63129940.5012,65502933.1128,5175.34418581,5162.87296851,0.0
1.14269421374,0.942969426566,9.62041803026e-06,-9440376.93039,2.09145235758e-05,0.0,5589334.99048,684.502537369,653.493672662,66355814.4832,1814.76344047,44936241.5394,68173449.05,4743.32368123,4733.61883453,0.0
1.14851072674,1.11438089142,1.01346724091e-05,-7357173.38342,1.96278584227e-05,0.0,5586180.8467,684.411343618,653.861814395,66356313.1195,1822.93814631,45845161.7586,68660473.3466,4767.4680267,4758.09106071,0.0
1.06771112514,0.855890530124,1.00585576362e-05,-34347059.4864,1.63797164363e-05,0.0,5794413.38182,679.722678086,648.642515534,66906100.484,1717.48064579,34765697.8052,69932425.173,4432.06888046,4423.58637168,0.0
1.10916120113,0.947825530247,1.0132452304e-05,-17722804.3909,1.82760258412e-05,0.0,5665354.26921,682.124029618,651.358323711,66553411.3242,1770.71691562,39889140.5931,68998603.8907,4604.12814589,4594.80048573,0.0
1.02453952155,0.951414827849,9.66924250946e-06,-69493665.0809,1.39502434831e-05,0.0,5935374.61965,678.158653445,645.908774461,67287810.6653,1661.35658425,49111606.0066,71008072.0562,4252.86355395,4245.60693041,0.0
1.0988320363,0.993745397262,1.00028187024e-05,-22601766.1041,1.70652698737e-05,0.0,5729336.40176,681.629082501,650.740861539,66742656.7357,1758.73749226,37310945.7232,68939217.4372,4561.25178268,4552.46901187,0.0
1.08043733364,1.21580092897,1.04448545235e-05,-28225056.3288,1.35812514596e-05,0.0,5778971.17615,680.181234278,649.563978966,66877452.4721,1734.94216894,35700026.725,69215754.8575,4484.89537194,4476.50252224,0.0
1.13428748263,1.09589348921,9.9233905218e-06,-10518983.4889,1.84931050816e-05,0.0,5635007.89961,683.679371127,652.971702284,66489385.9799,1804.3660969,44236775.4808,67862291.3853,4708.4273404,4699.17540848,0.0
1.0616505644,0.820099315556,1.01910104088e-05,-37850943.4364,1.63764600759e-05,0.0,5810671.33836,679.309878062,648.250172995,66951305.7917,1710.25815731,34666244.3792,69942285.5748,4406.91149282,4398.70974652,0.0
1.11711116933,0.943213747009,1.02163581172e-05,-15353149.5459,1.894126642e-05,0.0,5631542.89227,682.504466715,651.80491468,66440909.3586,1781.01708737,41063921.9247,69012603.5311,4637.12846389,4627.56838342,0.0
1.21192551686,0.929549885566,1.05426999843e-05,12167879.2429,2.67270717442e-05,0.0,13395755.8451,688.223113193,657.848102053,65245931.8303,1896.27634474,57657028.3518,66338073.0519,5030.70282049,5019.32588891,0.0
1.07450048806,0.911977159006,9.79679266571e-06,-32640518.3007,1.60025014306e-05,0.0,5801866.04373,680.210243735,649.031232057,66946851.2784,1727.04114071,34996132.3915,69822452.5224,4460.25152594,4451.85399175,0.0
1.0591801086,0.911022853658,9.88628044902e-06,-39801178.1704,1.51401008747e-05,0.0,5825396.6718,679.373635807,648.082183298,66993565.04,1706.34286727,34854431.0096,69783365.4215,4396.6566308,4388.30704609,0.0
1.10733362234,1.23063065204,9.95272668547e-06,-18398051.2924,1.44949332772e-05,0.0,5669786.96299,682.060770127,651.246982627,66557308.0263,1766.84854488,39493991.4272,68925535.7057,4596.54186633,4586.66026397,0.0
1.27237918698,0.862068167756,9.94702215067e-06,23527263.732,3.45186370654e-05,0.0,25418787.558,692.593369832,661.643707837,64292009.5745,1965.52234665,66633780.2422,67648914.8165,5281.64600515,5268.70479761,0.0
1.14937438642,0.924111060378,1.01615760195e-05,-7015848.9673,2.28732147205e-05,0.0,5564863.72764,684.562014401,653.932488715,66290797.7701,1824.21871523,46048223.1009,68690521.0385,4771.05307803,4761.66226419,0.0
1.07774282216,0.71468059546,9.76069829898e-06,-31350088.3326,1.86887650419e-05,0.0,5781492.15332,680.500125442,649.238055133,66890213.0953,1731.45750197,35234059.5172,69613035.6071,4473.71045479,4465.26273441,0.0
1.10807339162,0.769736018867,9.82110510971e-06,-18209878.7447,2.00881586705e-05,0.0,5635483.83393,682.429408023,651.295223104,66449886.878,1768.3600688,39555180.0825,68837411.8493,4599.61264861,4589.71819445,0.0
0.956345699149,1.18717383743,1.0088617621e-05,-93789225.3648,1.19494815722e-05,0.0,6082409.29983,684.772909045,641.540373469,67624954.54,1611.56040675,68846234.0847,69068871.5049,3969.79099717,3963.47417735,0.0
1.06917685281,0.862715379801,9.81024902059e-06,-35475589.8145,1.61886084588e-05,0.0,5800409.07302,679.998970991,648.737077537,66934513.563,1719.57806118,34702943.3094,70106324.3018,4438.15311601,4429.64880932,0.0
1.02373783677,1.03128544979,9.95145938694e-06,-67707299.0156,1.32062580024e-05,0.0,5930081.08173,677.831948006,645.85911926,67274137.4244,1660.29438803,47827494.6186,71000131.026,4249.53576043,4242.29057438,0.0
1.05031834661,0.938873465075,9.65145055058e-06,-45770116.1459,1.44099009284e-05,0.0,5832301.97546,679.136907416,647.517874744,66998155.2842,1693.15494576,36095332.57,70655016.7182,4359.87145678,4351.13709252,0.0
1.05326654739,0.911933657183,9.94747580955e-06,-44787222.3009,1.52285689312e-05,0.0,5799877.09807,679.119881724,647.704159788,66912112.6544,1696.85935104,35745823.6631,70388049.9369,4372.10943822,4363.18191483,0.0
1.02981671557,0.958825898492,9.81314340083e-06,-61493592.7353,1.39994862646e-05,0.0,5916552.16889,678.155830143,646.245976764,67241986.6137,1668.42056979,43606750.0363,71092400.4218,4274.76918633,4267.43708242,0.0
1.14454858086,0.900638243514,1.0026451722e-05,-8206188.50715,2.20606029653e-05,0.0,5533034.69137,684.247959238,653.458558568,66169043.5836,1815.95375699,45299779.1693,68379234.2921,4751.02115915,4740.87300068,0.0
1.08791087082,0.959120650287,9.63562523183e-06,-27527019.164,1.61101482462e-05,0.0,5769725.4135,681.273881398,650.040950227,66861771.4348,1744.39188485,36013133.5364,69433860.8875,4515.91802477,4507.21472587,0.0
1.04860568318,0.727945184344,9.85356554109e-06,-45229813.0663,1.65477972709e-05,0.0,5830323.17715,678.955305984,647.41577607,66988391.0139,1691.7656124,35940457.8821,70426127.1455,4352.76219088,4344.39679002,0.0
1.1433782766,0.998233847209,9.76650845942e-06,-7933603.56983,2.01096734526e-05,0.0,5556797.08112,684.379283741,653.48655464,66251452.2373,1814.0990011,45870030.7479,68407987.1996,4746.16322617,4736.03893208,0.0
1.0830500546,0.970767003633,1.03153001655e-05,-27661005.1827,1.6389013094e-05,0.0,5762122.23419,680.513320586,649.727004177,66827381.2561,1738.56211512,35812485.8011,69208885.2839,4495.74077664,4487.3076937,0.0
1.13528558898,0.751999865699,9.67501380473e-06,-11124623.5512,2.33511682487e-05,0.0,5594756.25546,684.135240029,653.034392949,66361691.5982,1805.44974659,43700000.2495,67628116.7342,4712.57047986,4702.98948042,0.0
0.986566108051,0.972656817847,9.62244367542e-06,-95159832.3356,1.41058029013e-05,0.0,6005415.33415,681.493184152,643.483676912,67418872.0513,1619.90551302,70052773.1178,70294028.5033,4095.23591452,4088.1704792,0.0
1.03624089102,0.914727413542,9.95789753495e-06,-56714788.8795,1.46329741705e-05,0.0,5845681.00069,678.354923738,646.63232439,67027830.2346,1674.69648304,40779284.3248,70992841.4271,4301.43593862,4292.96117331,0.0
1.01149208131,1.16039444376,1.00824673566e-05,-83484596.6763,1.21581987739e-05,0.0,5886984.81748,677.677495913,645.05180459,67092664.3241,1640.10385762,60045595.1778,70688737.39,4198.70362952,4190.20764274,0.0
1.03482481633,0.747571309817,9.94648911251e-06,-58042017.2866,1.6154623208e-05,0.0,5838878.74173,678.370266884,646.534979503,67006826.0121,1672.93062585,41517161.4797,71049786.5544,4295.55781259,4287.10699666,0.0
1.07499458737,1.05553327295,1.01108379641e-05,-31044353.3263,1.45999968271e-05,0.0,5786524.23822,679.947610307,649.050848604,66898158.4761,1726.90447444,35313360.9182,69418951.9571,4462.30253217,4453.70708419,0.0
1.17598843788,0.796419187274,1.02926226818e-05,3074061.5694,2.5993771253e-05,0.0,5369213.70468,686.254724092,655.58243861,65628344.0974,1853.40749321,51507546.397,66851658.4279,4881.52800564,4870.57952116,0.0
1.07612574946,1.12985955416,9.94660684477e-06,-31463722.0521,1.37629175005e-05,0.0,5805757.39358,680.098879889,649.129102185,66965279.4745,1729.01429932,35206495.5918,69633476.8729,4466.99798601,4458.57531071,0.0
1.15242796692,0.62252439464,1.02459418512e-05,-5366320.64687,2.90908248498e-05,0.0,5479239.19222,684.836300254,654.02157404,65997866.2805,1826.92958712,46569191.5488,68323129.3901,4783.72849068,4773.75608959,0.0
1.17631827145,0.781177955096,9.78617214584e-06,2494135.70773,2.56825239771e-05,0.0,5402145.2128,686.576945741,655.620129148,65766208.1519,1854.48932748,51379950.1313,67023860.3075,4882.89714479,4872.04841467,0.0
1.09471402909,0.804439721054,9.58635788737e-06,-25270804.105,1.8530915968e-05,0.0,5740704.10328,681.711637787,650.41893836,66781927.7919,1753.44932844,36533792.2604,69302184.0092,4544.15793475,4535.34555232,0.0
0.989424053063,1.06996016487,9.76275416812e-06,-95269363.3299,1.31489956199e-05,0.0,5998796.38912,680.643916281,643.666034079,67405766.325,1619.02122724,70149246.0708,70391961.3134,4107.09924426,4099.99261139,0.0
1.06800492427,1.05202989154,1.02777972828e-05,-34616475.1987,1.43815190507e-05,0.0,5800983.22093,679.512837426,648.658661507,66935829.4485,1718.2404022,34718005.1112,69824381.1726,4433.28844064,4424.8950757,0.0
1.03863324988,0.977960325034,1.01616383914e-05,-52897660.0882,1.39545510936e-05,0.0,5843444.66823,678.230208436,646.774151379,67026872.2727,1678.18914672,38892688.9923,70984431.4293,4311.36662025,4302.94104802,0.0
1.10239410719,1.02101838062,1.00123008974e-05,-21828543.1153,1.68894385806e-05,0.0,5721883.83309,681.837111029,650.978488244,66722637.4139,1763.57724905,37619058.0553,68567031.4996,4576.03793895,4567.20454646,0.0
1.14369900677,0.986526203273,1.01137582557e-05,-8260006.41266,2.07365442789e-05,0.0,5540438.46774,684.086813597,653.402172293,66190278.8856,1814.72624175,45248745.6636,68369249.9382,4747.4945771,4737.35937012,0.0
0.96563761941,1.00212670218,1.00036045434e-05,-94145712.7929,1.38341845983e-05,0.0,6053710.08192,683.909766459,642.138886462,67550997.4179,1615.41065447,69160107.9895,69387576.738,4008.36175817,4001.91938413,0.0
1.03964229444,1.10998570849,9.53947302061e-06,-55061679.7345,1.29031903916e-05,0.0,5850420.28183,678.762942722,646.848005703,67044387.6267,1677.91159495,39939405.8933,71476497.6355,4315.55516422,4306.67878299,0.0
1.0121226109,0.765737717628,1.02473208463e-05,-80410989.7071,1.53010078968e-05,0.0,5932006.89805,677.443577223,645.09926221,67244511.9901,1644.72737569,57517672.8655,70583868.4451,4201.32095785,4194.24072849,0.0
1.06972522931,1.21465753495,9.75907311294e-06,-34883549.9235,1.2551235751e-05,0.0,5833748.12506,679.91612954,648.776503006,67035255.3622,1720.58513051,34746782.6386,70214170.2224,4440.42942687,4432.10558207,0.0
1.09317008457,0.841562621748,1.04369860493e-05,-23318227.9008,1.86105366896e-05,0.0,5697953.96482,681.062125408,650.353369821,66640314.378,1750.67111311,36915788.5007,68911862.1788,4537.74902105,4528.76721423,0.0
1.14946462235,0.904441144634,9.94790751861e-06,-7449197.39045,2.2963572738e-05,0.0,5573289.02644,684.688754887,653.917380237,66314025.0085,1824.46817582,45856384.0725,68631081.9438,4771.42764737,4762.03538622,0.0
1.12085697658,1.06082811829,1.01649507146e-05,-14010270.743,1.76927998284e-05,0.0,5622629.38948,682.731330988,652.058186974,66429457.0146,1785.30281653,41963234.2231,68342380.9352,4652.67730978,4642.95653141,0.0
1.02826601792,0.699625085131,9.75046785497e-06,-63987194.2323,1.62807924283e-05,0.0,5910487.08828,678.238711425,646.135982706,67221398.3966,1666.47743174,45280278.8189,70925500.0269,4268.33224039,4261.02235079,0.0
1.06430463738,0.854216959199,1.02868938163e-05,-36155744.4057,1.630888376e-05,0.0,5797639.35158,679.381013648,648.423077026,66918040.1671,1713.53223291,34614344.7885,69996642.4283,4417.92854976,4409.59256029,0.0
0.985347414164,0.889097783476,9.94615727528e-06,-94988410.1523,1.44545223371e-05,0.0,5938213.33763,680.519811742,643.387896859,67209867.4519,1611.72572733,69902124.7378,70144016.9191,4090.17711619,4082.10594411,0.0
1.04911094906,0.88493524594,1.01176776269e-05,-45083060.6626,1.52433885347e-05,0.0,5809652.81439,678.752119306,647.447618095,66935309.9901,1691.54349103,35862688.0454,70461726.2838,4354.85954955,4346.14651641,0.0
1.0774996938,1.15948438473,9.51893996115e-06,-32397001.7984,1.33070929484e-05,0.0,5821278.30111,680.470299504,649.217584294,67007821.9,1730.77881205,35090176.6422,69938641.3904,4472.70122896,4464.25727609,0.0
0.984475978119,1.13041907429,1.01405630695e-05,-95152958.9304,1.21765247144e-05,0.0,6001162.08985,679.806348088,643.346199131,67402347.862,1611.2373222,70046834.0617,70287721.1927,4086.55978517,4079.53121895,0.0
0.965614513573,1.07465983859,1.01907817074e-05,-94039292.9658,1.3046025731e-05,0.0,6034355.42842,683.440448544,642.131577329,67495633.8632,1613.10716749,69066557.8386,69293819.8374,4008.26584584,4001.52985365,0.0
1.04682459945,1.20324587879,1.02989272161e-05,-44523359.5033,1.21718683426e-05,0.0,5841475.81112,678.350000248,647.302331696,67030071.8848,1689.01371815,35716235.3585,70509171.2631,4345.36891232,4336.96060155,0.0
1.11805904201,0.76084358966,1.02692353031e-05,-14889266.4669,2.18209615301e-05,0.0,5608644.29474,682.642440382,651.866296152,66372224.9846,1782.47757093,41271646.7482,68709840.5185,4641.06308338,4631.48727999,0.0
1.1413394466,0.816475670205,9.87575165423e-06,-8467623.4078,2.31294075112e-05,0.0,5569251.10037,684.276748533,653.383035937,66296435.3761,1812.79348009,45527308.0913,68231634.4486,4737.70004284,4728.02234657,0.0
1.05021297026,0.922487205703,9.97454590004e-06,-45157477.6926,1.49090856219e-05,0.0,5814760.78722,678.906616776,647.519180855,66950744.9747,1692.96163809,35884253.6378,70496994.5906,4359.43403955,4350.70307042,0.0
1.07933238152,1.05259804491,9.97797026335e-06,-29947355.3846,1.48244805939e-05,0.0,5787122.73404,680.48806284,649.475185526,66902136.2031,1733.28281534,35493900.7372,69349542.4494,4480.30871569,4471.83634661,0.0
1.02772890686,0.848841611709,1.03207442402e-05,-63362264.9397,1.51888409919e-05,0.0,5818537.62148,677.760723346,646.077291428,66936487.1604,1661.82542228,44803510.4643,70631824.5752,4266.10269238,4257.25428979,0.0
0.980396987252,1.13827163169,1.00765762681e-05,-94842126.4787,1.23159916261e-05,0.0,6011660.64037,681.061467134,643.084089141,67437014.0267,1613.98172851,69773215.0135,70011050.2383,4069.62789408,4062.6525393,0.0
1.03723223708,1.23058962356,9.90091407769e-06,-56412190.2078,1.18964600412e-05,0.0,5863802.49069,678.328796803,646.698112736,67085184.5123,1675.7878724,40620809.1149,71116482.2673,4305.55101612,4297.06168192,0.0
1.04250380712,0.946378725438,1.03317345662e-05,-48621523.1483,1.45484664137e-05,0.0,5814080.46077,678.400751681,647.107240528,66942559.0032,1682.81786391,36927805.5743,70807672.2793,4327.43330336,4318.77067097,0.0
1.12964469331,1.24040212685,9.95354252206e-06,-12124584.3041,1.59628213173e-05,0.0,5619956.5842,683.255820913,652.56725275,66432502.1738,1796.45352513,43155085.9737,67439674.0227,4689.15512193,4679.28600106,0.0
1.04910708015,1.10700585534,1.03356286139e-05,-45339883.1044,1.32296545581e-05,0.0,5811864.13637,678.530450715,647.445313625,66949217.5857,1691.48912638,35878786.3062,70388146.8878,4354.8434897,4346.07323823,0.0
1.1511411232,0.725224334321,9.89376294658e-06,-7081614.70377,2.66030164676e-05,0.0,5552130.43639,684.94764148,654.041812824,66250026.1152,1826.83558133,46067198.5219,68710138.9195,4778.3868024,4768.967635,0.0
1.1066691309,0.766452443856,1.01122155499e-05,-20477061.4037,2.08281682634e-05,0.0,5680926.09241,682.128121258,651.229038762,66608442.5892,1769.22074847,38185608.1714,68713144.5988,4593.78356237,4584.88270512,0.0
1.08451204187,0.816368549318,9.71957683645e-06,-28834225.4858,1.78048544724e-05,0.0,5767746.10311,681.08766045,649.8278257,66858111.8401,1740.26623495,35760809.0433,69363272.337,4501.8094858,4493.25659329,0.0
1.03724533835,0.680698299836,9.82205969556e-06,-56304934.3674,1.68489758138e-05,0.0,5883628.37717,678.498849469,646.719130892,67152875.8159,1678.50171234,40649544.7347,71057901.2972,4305.60539949,4298.16792067,0.0
1.08011473144,0.939275819058,9.92193140598e-06,-29802125.4221,1.61468848504e-05,0.0,5779577.72979,680.621572383,649.527379114,66879193.9375,1734.39742946,35534066.5962,69338246.9972,4483.55625021,4475.07173869,0.0
1.14558212718,0.705376097115,9.92084824747e-06,-8142045.5377,2.56490999725e-05,0.0,5511981.89797,684.51311952,653.526822419,66103484.5834,1817.58594799,45440571.8391,68360772.7073,4755.31140992,4745.14474725,0.0
1.08378108547,0.979870795492,9.64922466869e-06,-29384549.7395,1.57922868087e-05,0.0,5783811.55108,681.014049864,649.77049423,66905094.5944,1739.16626815,35746752.9012,69421036.58,4498.77528579,4490.23377571,0.0
0.945172787301,1.14093297628,9.59849481355e-06,-93404484.9365,1.24593490778e-05,0.0,6109177.23947,687.720500663,640.818474673,67669684.9889,1612.97396912,68507437.6407,68723467.952,3923.41224009,3916.93242901,0.0
0.946684870585,0.782785972664,9.50693117737e-06,-93464484.6693,1.54119710123e-05,0.0,6114820.73537,687.923368666,640.922456611,67700390.5327,1615.7181968,68560311.3966,68778601.6559,3929.6888978,3923.58037933,0.0
0.993900559471,0.887782081168,1.01657246137e-05,-95265866.0512,1.46163684441e-05,0.0,5912061.67701,678.896894983,643.935044323,67145698.3012,1616.99441706,70146504.9527,70400280.8721,4125.68122236,4117.55214495,0.0
1.03940271383,1.04395584055,9.96479250196e-06,-52143383.9178,1.33689768389e-05,0.0,5841266.05316,678.401589177,646.822115548,67019693.6013,1678.3215983,38399861.3281,70974602.8465,4314.56066511,4305.86137568,0.0
1.10157450277,0.778157841141,1.04438858754e-05,-19616385.2299,2.01893807448e-05,0.0,5617959.19445,681.649970923,650.883061451,66379790.0879,1759.67376157,38757474.9392,68450893.6399,4572.635761,4562.76035595,0.0
1.07572791271,1.08548201768,9.81663447755e-06,-32100057.2783,1.41396417967e-05,0.0,5809235.23323,680.185702102,649.102100129,66972490.3476,1728.52113594,35117133.6836,69764149.6986,4465.34656566,4456.93004734,0.0
1.22413923196,0.986492582013,1.02930344775e-05,14122055.0875,2.63123696748e-05,0.0,15435859.97,689.150093672,658.624738174,65061632.2545,1909.89380861,59341967.9564,66539475.5435,5081.40195187,5069.47480227,0.0
1.18260196904,1.22673538353,1.04699557529e-05,4871309.11223,1.91771484461e-05,0.0,6404821.44917,686.284093608,655.97290186,65566253.5988,1859.45525863,52301690.7613,66829177.5867,4908.98077349,4897.49510445,0.0
1.00289573374,0.929521808547,1.03450660929e-05,-91252026.3677,1.43474990403e-05,0.0,5884398.29758,677.711115599,644.505711069,67077152.6722,1629.04573734,66633447.4007,70636666.3251,4163.02019075,4154.74631661,0.0
1.12103415653,0.904354474505,9.86157498408e-06,-14588207.3507,1.96654263156e-05,0.0,5599318.46524,683.049644278,652.051838607,66347597.8682,1784.88082195,41525717.0937,68483498.2511,4653.41278376,4643.29505312,0.0
0.973519416047,0.930216150464,1.02500086904e-05,-94587682.5948,1.42384524272e-05,0.0,6023660.88237,681.55202795,642.645498512,67468267.569,1611.17141636,69549309.3939,69782706.0993,4041.07909601,4034.53518293,0.0
1.13590033563,1.01473669115,9.85154650087e-06,-10645814.7509,1.95063385083e-05,0.0,5603294.78356,683.815664465,652.98524869,66386419.3426,1805.5936811,44082112.9579,67788806.0036,4715.1222932,4705.42665143,0.0
0.947791177063,0.819263457429,1.01791883753e-05,-93367671.0342,1.45647966054e-05,0.0,6082913.91824,685.744332478,640.988870226,67611556.5474,1608.19935088,68475156.2784,68693349.235,3934.28117599,3928.078999,0.0
1.15825078166,0.987995871404,9.70442966847e-06,-4120211.48124,2.15787817056e-05,0.0,5526133.09621,685.392131582,654.487768897,66174078.6696,1833.88725205,47852338.8599,68480115.5476,4807.89899467,4797.8169152,0.0
1.04174248818,0.8947597237,9.93321641571e-06,-51038579.517,1.47257821335e-05,0.0,5824884.90336,678.554948333,646.946737798,66969469.1103,1681.26773311,37988130.1871,70898318.4696,4324.27306844,4315.44812076,0.0
1.11078053543,0.802423326484,1.01340580999e-05,-17097303.3884,2.03059636025e-05,0.0,5610331.3184,682.332585114,651.435088571,66371398.8696,1771.54683146,40222334.5021,69019551.0671,4610.85000257,4600.90909441,0.0
1.1113101154,1.26364282407,9.62917137772e-06,-18407226.4691,1.42021187635e-05,0.0,5701890.1193,682.479172578,651.511355467,66666278.478,1773.41289923,39686326.1795,69069530.732,4613.04828903,4603.58555062,0.0
1.15197592099,0.967838012565,1.02292116413e-05,-4194956.64801,2.06887337624e-05,0.0,5517780.5934,684.512248617,653.988015662,66116888.3947,1824.80890116,47605001.1727,68038625.073,4781.85204803,4771.64695438,0.0
1.02851145114,0.814846142482,9.85277504558e-06,-63142180.771,1.52584213875e-05,0.0,5913877.07557,678.108615871,646.14897827,67232975.0631,1666.89503045,44729860.226,70951136.9188,4269.35103368,4262.0772983,0.0
1.08741080722,1.26824644436,1.01577364514e-05,-26545888.8683,1.32377336498e-05,0.0,5770872.00277,680.74232051,649.992049432,66867631.0586,1743.69977425,36086705.2539,69293114.7976,4513.84226077,4505.24416762,0.0
0.964965369282,0.661969056661,1.01525152661e-05,-93943821.7135,1.65755186263e-05,0.0,6016975.32433,683.859747095,642.089929683,67435229.414,1613.83388308,68982390.5592,69209434.9141,4005.57124789,3998.84440075,0.0
1.02027151532,1.14301467861,9.86536178848e-06,-72926580.4629,1.21824351976e-05,0.0,5948402.35624,677.821721206,645.641043682,67320898.1934,1655.61050547,51648368.8034,71003673.4097,4235.14706009,4227.95123889,0.0
1.01515416722,0.894151481442,1.02269443211e-05,-78086916.8601,1.46782895375e-05,0.0,5855323.21151,677.608573281,645.285969896,67013226.2059,1645.23591959,55640257.0807,70732081.1797,4213.90494813,4205.34875914,0.0
1.22097424847,0.894682797956,9.75672518188e-06,12877094.6684,2.69714898295e-05,0.0,14161381.6866,689.323009361,658.422706831,65153147.2285,1907.00441513,58340912.278,66381313.3404,5068.2641054,5056.30940849,0.0
1.07866744517,0.876759757964,9.57591811609e-06,-31652527.0536,1.65280557768e-05,0.0,5797566.80069,680.614216242,649.298376996,66937692.1884,1732.53409553,35229276.1405,69759158.1329,4477.5485649,4469.08651033,0.0
1.09065806094,0.6687817311,9.93661945997e-06,-25976085.824,2.07403775114e-05,0.0,5729320.88632,681.318985865,650.179793776,66741318.8271,1748.44874861,36241510.5906,69216182.5398,4527.32161096,4518.67276736,0.0
1.10595276642,1.07714258781,1.03004478265e-05,-17989814.6971,1.63168223843e-05,0.0,5675011.01366,681.769472225,651.159674455,66574693.417,1766.2299071,39640657.7582,68884350.8202,4590.80993341,4581.43686223,0.0
1.13028046409,1.07244289926,9.66544637997e-06,-12470433.9067,1.79366988978e-05,0.0,5641258.00551,683.63501209,652.694023804,66511912.8868,1798.70269622,42813112.2134,67946712.9207,4691.79420644,4682.29468778,0.0
1.05162525184,1.10528196095,1.05847201105e-05,-39955593.1008,1.30979751116e-05,0.0,5827746.92215,678.325260689,647.57912231,66997773.366,1696.04381183,34780715.3408,69697454.0119,4365.29642039,4357.06582278,0.0
1.18103960407,1.03351116561,9.394126977e-06,2555712.57597,2.07258025029e-05,0.0,5413898.07616,686.951945728,655.915235121,65819201.2003,1859.6475265,51555278.2793,67060321.7704,4902.49539649,4891.25028729,0.0
1.12263029141,1.16858114417,1.03501380965e-05,-13406092.6587,1.65982601309e-05,0.0,5617996.39007,682.691552479,652.175324759,66403919.1421,1787.60547368,42269622.2824,67718995.0365,4660.03833964,4650.28727708,0.0
1.17687269648,1.00213503761,1.01266311968e-05,1751328.32611,2.33895818894e-05,0.0,5442148.77197,686.289443474,655.662088022,65891083.7717,1856.79049387,50826085.4091,66961900.9064,4885.19856309,4874.90860061,0.0
1.22673772597,0.994597144443,9.87419221915e-06,14360505.7183,2.56123788733e-05,0.0,15783040.4849,689.514507542,658.798149062,65160029.8817,1913.71785041,59555075.8756,66673659.2187,5092.1883005,5080.35415718,0.0
1.0268173116,0.908585701481,1.00681227264e-05,-64713548.9281,1.4601807183e-05,0.0,5854866.8495,677.943330888,646.029781114,67042316.4309,1661.79453077,45725723.0577,70861980.9201,4262.31866045,4253.90905218,0.0
1.04796281514,0.943899165261,9.70775075024e-06,-48663893.8848,1.46092205506e-05,0.0,5824255.86,679.052039015,647.377893871,66976600.114,1689.72737962,37052479.1162,70773706.0235,4350.09364565,4341.25371499,0.0
1.03496394252,1.02185782892,1.02609834385e-05,-54595407.4817,1.35731218443e-05,0.0,5841859.15628,677.981405677,646.545085439,67014253.1502,1672.74931824,39639256.7736,71038725.3331,4296.1353254,4287.59391283,0.0
1.11064644896,0.973179546476,9.72822258839e-06,-19949789.4829,1.79562114874e-05,0.0,5699611.08387,682.520975627,651.481275633,66673111.3294,1773.99137949,38650009.2755,68917913.2531,4610.29340963,4601.22815616,0.0
1.17065571826,0.962664840939,9.86602576192e-06,1059905.56714,2.17578135538e-05,0.0,5428085.50319,686.081477662,655.279443362,65828456.0992,1846.69846449,50574706.2395,67614151.5166,4859.3918865,4848.43334598,0.0
1.02905753093,0.917585807023,1.02112874846e-05,-60267188.6417,1.43373335464e-05,0.0,5850374.59711,677.851044812,646.173611315,67031926.3858,1664.97260082,42825620.8484,70859649.2907,4271.61781089,4263.17181282,0.0
1.21943528047,0.764306083728,9.98200675381e-06,12992950.9686,3.02777144629e-05,0.0,14207902.8818,689.212848989,658.324433833,65080143.5345,1905.30307323,58337463.2821,66303456.0431,5061.87584923,5050.03320497,0.0
1.14987140106,0.814126929228,9.72577191749e-06,-7234410.52593,2.38935438557e-05,0.0,5530156.3616,684.959812418,653.925232692,66172870.0413,1823.40165267,45906075.7949,68622878.7211,4773.1161858,4763.08220827,0.0
1.00723818652,0.883572686081,9.96834550137e-06,-88998781.8221,1.47226500442e-05,0.0,5883801.06297,678.077466176,644.783363647,67074615.5531,1634.59895722,64697166.0726,70853559.6362,4181.04571224,4172.61944231,0.0
1.12583225653,0.996063774535,9.8782405248e-06,-13433247.8324,1.89809439245e-05,0.0,5639063.8389,683.252970496,652.398319523,66489146.7177,1793.02819931,42239171.2583,68298248.0519,4673.32969686,4663.92872921,0.0
1.04860540665,1.0364449222,1.00139350517e-05,-45846107.6871,1.37274155238e-05,0.0,5856741.88837,678.687110327,647.428183638,67081916.8086,1692.37804875,36119889.5204,70511409.237,4352.761043,4344.78767027,0.0
1.0980874453,1.10138773475,9.8857778185e-06,-23563548.9321,1.5412710673e-05,0.0,5745811.77953,681.603204944,650.673433213,66800208.5481,1757.90742966,37000048.4163,69160596.7343,4558.16098544,4549.39545967,0.0
1.29247050949,0.993129833048,9.94383997367e-06,26971395.2189,3.23108298554e-05,0.0,28446824.9494,693.60538843,662.837303723,64060914.6964,1986.9156897,68348642.9392,69452322.5232,5365.04508489,5351.76525924,0.0
1.06256552944,0.986515336855,9.78831840068e-06,-38602313.6315,1.44890515582e-05,0.0,5825701.24791,679.607281662,648.308341,66998876.283,1710.77224628,34749669.5931,70036953.9201,4410.70951271,4402.30716548,0.0
1.06931488416,1.01625502024,9.89888769827e-06,-34586334.4335,1.47532170003e-05,0.0,5815814.96008,679.865066345,648.748297142,66976409.488,1720.14244946,34738803.2273,70068231.3152,4438.72608415,4430.40684046,0.0
1.1184352367,1.08828688195,1.00266961323e-05,-15123475.6135,1.71385605952e-05,0.0,5667554.59109,682.621775931,651.900241163,66567117.0906,1783.35264505,41228365.9512,69207965.854,4642.62466754,4633.34318167,0.0
1.1224561497,1.12536433601,1.00431893998e-05,-13820564.0563,1.68544305255e-05,0.0,5628491.2436,682.879880719,652.163421147,66447528.0827,1787.32025381,42068758.6952,68291385.4661,4659.3154774,4649.56685164,0.0
1.18694609673,1.0949771809,9.59143629562e-06,4593444.13093,2.03536124314e-05,0.0,6318600.61644,687.099706687,656.27442693,65836358.1561,1867.49884593,52747760.6555,67149271.9324,4927.01324753,4916.09106588,0.0
1.22660679953,1.08454860484,1.01721674041e-05,14572746.8902,2.44741017052e-05,0.0,15974994.7425,689.248501995,658.794272827,65216692.611,1913.92420145,59811136.4279,66754742.8364,5091.64482485,5080.12525925,0.0
1.09746529896,0.964897702385,9.91199145341e-06,-23657734.8486,1.71077241599e-05,0.0,5736383.08901,681.598273599,650.628366062,66770227.6565,1757.20926103,36935374.3985,69124249.0978,4555.57845598,4546.82271668,0.0
1.19105973221,1.02482789165,1.00183764477e-05,5724688.17319,2.2432776087e-05,0.0,7260955.83552,687.251045278,656.536238255,65506501.6606,1870.67660329,53008025.1352,66624436.73,4944.0889484,4932.4562524,0.0
1.02346293446,1.14332545699,1.05152030961e-05,-64723109.0333,1.24575022557e-05,0.0,5862012.76976,677.319972323,645.810925759,67063302.1611,1657.38531679,45700824.8107,70674800.045,4248.39464094,4240.1034793,0.0
1.14344135436,0.883967406809,1.03468644636e-05,-7185612.94557,2.31180783687e-05,0.0,5566373.24776,684.021145934,653.50211218,66266258.9785,1816.08413781,45991543.2437,68460894.1781,4746.42506195,4737.05256331,0.0
1.09007004463,0.908963139083,1.00845945008e-05,-25771473.5804,1.73535791265e-05,0.0,5743399.85305,681.059425458,650.136320369,66785615.7422,1747.45067224,36230649.3027,69212378.529,4524.88075526,4516.24111066,0.0
0.985573857153,1.00372870517,1.01267109153e-05,-95174825.4948,1.33521795494e-05,0.0,5991788.05814,679.73255637,643.416707437,67375340.3632,1611.63701055,70066117.7366,70307505.3896,4091.11708104,4084.07274837,0.0
1.10362494871,1.02413490459,9.98251514636e-06,-21520010.7986,1.69255723205e-05,0.0,5719805.61678,681.929420955,651.058036449,66717683.9167,1765.18803325,37737540.0728,68632663.8898,4581.1471621,4572.29433413,0.0
1.14586028397,1.01414074485,1.03963010945e-05,-7113223.92783,2.09670011253e-05,0.0,5537845.83778,684.172783195,653.678380472,66175333.6454,1818.01149096,45667676.715,68521683.072,4756.46603876,4746.60542834,0.0
1.02550935579,0.903961062352,1.00211308051e-05,-64807237.0467,1.43399877908e-05,0.0,5916660.14647,677.841545005,645.967562031,67238242.9873,1662.73854158,45820820.2238,70833243.7563,4256.88933588,4249.61886563,0.0
1.18015773927,1.1702432612,1.02566610007e-05,4032272.48906,1.95369908474e-05,0.0,5935633.00856,686.224350434,655.830824155,65803623.1161,1858.77765893,52038438.5258,67092226.2159,4898.83477571,4888.13260208,0.0
1.10617311898,1.07028280743,1.04443884268e-05,-17896635.7537,1.65307154517e-05,0.0,5668390.20264,681.700113782,651.16883516,66539098.6559,1766.77725176,39679570.4409,68843838.3271,4591.72461689,4582.34751236,0.0
1.0878371276,0.72330425021,1.03303892864e-05,-25902839.423,2.00259886286e-05,0.0,5731529.15118,680.844477239,649.998869378,66739418.4859,1745.03841925,36178140.3537,69096855.4478,4515.61191667,4507.10416097,0.0
1.24031156769,1.02403096099,9.9392895256e-06,17588952.2446,2.64004959152e-05,0.0,19135470.4229,690.304282533,659.633591981,64977098.0749,1929.11652207,62168630.3989,67050827.3059,5148.53331748,5136.47075161,0.0
1.08348054218,0.886293033734,1.02416799869e-05,-27503798.7581,1.72211368849e-05,0.0,5753531.5608,680.62072646,649.752642318,66809738.7568,1738.83572829,35803349.1127,69212107.8645,4497.52773059,4488.99089877,0.0
1.14017001662,0.703299418783,1.00330973098e-05,-9307740.75237,2.51236588076e-05,0.0,5524231.33334,684.265345911,653.306057458,66134191.4963,1810.68381909,44674380.7373,67984981.387,4732.84573899,4722.77250155,0.0
1.05462202311,0.882576258347,1.02684411385e-05,-41584318.92,1.55257863678e-05,0.0,5804523.77418,678.873811345,647.770637537,66933107.9574,1699.75312947,35068536.3191,69902444.6142,4377.73601793,4369.20378195,0.0
1.00694739816,0.92350698766,9.86064015175e-06,-89386944.13,1.38856414652e-05,0.0,5970913.0627,677.947916583,644.790578392,67346971.2626,1637.78364219,65067046.4614,71047757.0284,4179.83864976,4172.83123794,0.0
1.04147194834,1.10218374576,1.00254068515e-05,-51798845.3442,1.3049117771e-05,0.0,5842867.84795,678.421935672,646.950316954,67027489.4946,1681.50197492,38360421.1451,70876856.7898,4323.15005756,4314.59242634,0.0
1.11666107807,0.701986219108,1.03030801513e-05,-15120609.9974,2.27777402431e-05,0.0,5604989.02391,682.570234039,651.77444501,66359406.1285,1780.77821335,41099661.6084,68851016.8431,4635.26013507,4625.70852302,0.0
0.99013227487,0.94548314913,1.03362434039e-05,-95082837.6504,1.40541391172e-05,0.0,5917942.00802,678.930573868,643.691049675,67159752.9836,1612.08761321,69985355.0965,70233595.9416,4110.03907299,4101.97063113,0.0
1.16742404772,0.7855518359,9.80072223459e-06,204953.156905,2.47973018584e-05,0.0,5412235.72847,686.070703418,655.074374689,65787131.232,1842.7673297,50147632.1525,67698039.1453,4845.97722209,4834.97269368,0.0
1.06802732424,1.04829915052,1.00857832494e-05,-33486782.5184,1.41627112818e-05,0.0,5786870.33742,679.630725329,648.648780251,66878147.1134,1716.53552902,34892379.7513,69734820.2406,4433.38142292,4424.52238992,0.0
1.01509295744,0.913213422387,9.677869312e-06,-80772098.4324,1.41147240221e-05,0.0,5957457.1916,678.042977942,645.298341068,67325003.5564,1648.73031736,57823570.5668,70946785.8019,4213.65086633,4206.52852606,0.0
1.14928021698,0.831403307478,9.76361341839e-06,-7314111.96049,2.35578385036e-05,0.0,5532420.50365,684.877381782,653.880757769,66178050.0685,1822.60843792,45833953.0965,68599801.7533,4770.66218068,4760.63820279,0.0
1.05619192359,0.885433503751,1.05057546941e-05,-38019574.0847,1.55242250004e-05,0.0,5807040.6218,678.735424517,647.892439581,66931173.2846,1702.28376345,34613022.7162,69774049.3101,4384.25267482,4375.95129082,0.0
1.08516593275,1.0305918646,1.01592462425e-05,-27251852.8312,1.56026796537e-05,0.0,5762330.58332,680.711793476,649.857705599,66838350.8983,1740.93334739,35911786.6397,69268473.8398,4504.52378685,4495.9607067,0.0
0.995646310809,0.795025536662,9.76343522566e-06,-95703270.1211,1.50441004081e-05,0.0,5992126.95861,679.212686914,644.070459747,67396319.2166,1622.44314967,70531207.9297,70766449.6171,4132.92783617,4126.08128094,0.0
1.08058255486,1.06430668403,1.03947240315e-05,-28293733.7985,1.51460982113e-05,0.0,5771640.2131,680.281724863,649.574768641,66853290.5787,1735.24167504,35693048.2553,69202902.0174,4485.49818522,4477.10310134,0.0
1.13959104895,0.978914784117,1.00685391228e-05,-9557362.56148,2.05326802806e-05,0.0,5545814.41664,684.044899383,653.269272041,66194886.6562,1809.22459853,44645601.7747,68044129.4895,4730.44244419,4720.27587588,0.0
1.03448397474,0.77497827874,9.99499248151e-06,-57927508.8439,1.58675212057e-05,0.0,5839919.40061,678.299223501,646.513459546,67009873.1564,1672.47368261,41445055.312,71016575.8203,4294.14297915,4285.696433,0.0
1.15157841922,0.705536471094,9.9389420255e-06,-5335799.58736,2.66633273512e-05,0.0,5515265.20435,684.987874326,654.070071211,66127789.6991,1825.89413508,47136690.6546,68607858.481,4780.20201818,4770.35290611,0.0
1.0320124243,1.00546992309,9.99695542725e-06,-60123789.848,1.37279495793e-05,0.0,5858537.75763,678.134226865,646.364250315,67062010.5572,1669.04321761,42761416.729,71041077.1087,4283.88357327,4275.47665995,0.0
0.989465962508,0.924467731272,9.67990844685e-06,-95258505.2661,1.45033976238e-05,0.0,5993725.2794,680.929002058,643.669164379,67388748.983,1619.94246283,70139687.3005,70382463.2543,4107.27321037,4100.16597262,0.0
1.23286975726,1.04755353539,9.91605896652e-06,15800040.3977,2.51590769677e-05,0.0,17235738.1096,689.852321845,659.188145155,65047962.83,1920.1631005,60730521.5202,66775694.9292,5117.64236239,5105.54596909,0.0
1.02339375045,0.947175500213,1.00518641749e-05,-66943628.0798,1.40409791633e-05,0.0,5916118.95101,677.753002339,645.832511963,67229066.374,1659.50082311,47283592.6216,70941302.2576,4248.10745812,4240.77758348,0.0
1.06174755982,1.10834915304,1.05046245763e-05,-36525960.3265,1.37100005371e-05,0.0,5822807.75845,678.970587895,648.261950983,66999262.8588,1710.67747655,34629563.9546,70036511.3383,4407.31412081,4399.30126395,0.0
1.03248892488,0.95443734777,1.03120368888e-05,-57786184.924,1.43458898106e-05,0.0,5836359.64119,677.875672807,646.381687677,66997644.7364,1669.34044303,41361459.8055,70900460.0467,4285.86152718,4277.36046991,0.0
1.09734347888,1.05826352573,9.55645309719e-06,-24574365.2085,1.56248371488e-05,0.0,5753449.40557,681.766528065,650.589210178,66825056.6896,1756.65590334,36781689.7821,69321674.8543,4555.07278083,4546.22030577,0.0
1.1822377885,0.852088895289,1.01872237092e-05,4670272.13417,2.50390225986e-05,0.0,6252618.89994,686.646130238,655.954922415,65591718.3304,1860.61084207,52343542.7696,66897945.7382,4907.46906006,4896.30520569,0.0
1.0129717207,1.00467803773,1.03791689095e-05,-78158311.3977,1.34158539189e-05,0.0,5934984.98364,677.248911899,645.161553746,67257018.3686,1645.80578011,55698542.5787,70692311.3476,4204.84561263,4197.753554,0.0
1.09583171716,0.764326149065,1.05184488285e-05,-22590804.2255,2.00675269915e-05,0.0,5629868.16625,681.30254423,650.52736533,66414251.7717,1752.43765578,37297924.0498,68007196.7327,4548.79745793,4539.00971747,0.0
0.989597042105,0.788613312291,9.96424028073e-06,-95143219.1089,1.52311102594e-05,0.0,5922519.30625,679.862087706,643.661045643,67167858.9877,1612.34441002,70038455.8582,70281139.2996,4107.81732178,4099.67754881,0.0
1.16306113751,1.09195070451,1.02052730336e-05,-1353696.96989,1.93427992883e-05,0.0,5479742.82138,685.325416506,654.812496412,65985495.7461,1838.04676673,48982038.6828,67685351.5825,4827.8667818,4817.37274745,0.0
1.14691678534,1.00473711552,9.73140025915e-06,-7337543.91302,2.0643823316e-05,0.0,5587871.90008,684.557511035,653.709994837,66350615.359,1820.33908448,46182735.5755,68621293.0351,4760.85157595,4751.29035002,0.0
1.19494753965,1.15111680642,9.9438133821e-06,7076658.27712,2.03106369995e-05,0.0,8512058.34443,687.420949483,656.818188427,65622276.8493,1876.0028636,53926569.9047,66709371.7815,4960.22723709,4948.93544044,0.0
1.22833334042,0.898548230502,9.97260788074e-06,14876461.4261,2.80724282321e-05,0.0,16252822.4735,689.485367617,658.819010152,65171932.352,1916.47456075,59991367.1048,66714025.3019,5098.81169608,5087.2323332,0.0
1.05369519988,0.999979675259,1.0164760574e-05,-43121367.1215,1.4637413039e-05,0.0,5802651.94197,678.912107772,647.719955425,66921102.1841,1697.73133214,35323562.3502,70374069.7027,4373.8887747,4365.13290218,0.0
1.19422679044,0.899122005815,9.74504371041e-06,6585460.05883,2.4640458202e-05,0.0,8151197.0829,687.627067476,656.753801246,65640482.909,1876.45290015,53843421.0883,66827095.0357,4957.23540712,4946.18477662,0.0
1.09002331142,1.01769516543,1.01788293726e-05,-25539112.8027,1.6148446517e-05,0.0,5747075.80855,680.934978823,650.124231097,66799018.483,1747.29038645,36299343.0583,69157863.0994,4524.6867657,4516.04785204,0.0
1.16637398979,0.967216011665,9.59311055233e-06,-2047927.58493,2.26957946207e-05,0.0,5520301.42615,686.007166163,655.045506003,66163988.0746,1844.92804446,49016961.2673,68239366.176,4841.61843162,4831.72190234,0.0
1.09904687669,0.929310351161,9.75171796466e-06,-23404619.8762,1.74324669352e-05,0.0,5730780.88105,681.828463387,650.734989836,66748037.4348,1758.97932625,37057321.2314,69227338.9522,4562.14358514,4553.26406099,0.0
1.1386362006,1.05306007164,1.03503048475e-05,-9339815.61422,1.95211829193e-05,0.0,5553751.63202,683.613081723,653.108058788,66232878.9166,1808.14439333,44566694.0776,68082115.7264,4726.47886869,4716.45582542,0.0
0.927694170503,0.953894459331,1.02014128729e-05,-92298762.6889,1.38186736828e-05,0.0,6081144.55926,688.770434558,639.679132081,67558313.2619,1602.22325953,67534308.1739,67740448.5725,3850.85850176,3844.05280196,0.0
1.05282173597,1.19649240676,1.00478107782e-05,-42283283.7088,1.23172382786e-05,0.0,5840650.7165,678.821770682,647.673147663,67032518.9351,1697.1011445,35223398.7069,70628053.5312,4370.26302601,4361.83126021,0.0
0.981250016471,1.01847540178,1.03478510212e-05,-94896456.3396,1.35743157307e-05,0.0,6005262.95265,680.175340244,643.141370602,67426595.4207,1611.98967449,69821213.8298,70058365.2315,4073.16881837,4066.52163547,0.0
1.06312077515,0.896501736997,1.04440727805e-05,-36104725.7015,1.5848072062e-05,0.0,5796786.09181,679.18213375,648.345916778,66916610.7464,1711.93192969,34611024.5468,69937201.2558,4413.01433765,4404.69813511,0.0
1.17895008354,1.07801413283,9.67017717369e-06,2493010.3464,2.01462179181e-05,0.0,5413178.6487,686.626793902,655.778298156,65804128.9952,1856.76577048,51383112.8459,67034627.6312,4893.82179677,4882.62105785,0.0
1.11879373068,1.00205852238,9.99552143231e-06,-15090361.8075,1.83697406778e-05,0.0,5660525.93383,682.705879531,651.922183112,66546006.1027,1783.90617747,41271010.5905,69160526.6411,4644.11277605,4634.82640008,0.0
0.999062704407,0.932443543203,1.01189500208e-05,-95551753.2332,1.41624630363e-05,0.0,5901112.30849,678.33582762,644.263167932,67117557.1878,1623.71013505,70398407.2371,70667817.1723,4147.10928599,4138.81615228,0.0
1.0327283569,1.11945886506,1.0253335607e-05,-56721827.9195,1.25905323501e-05,0.0,5853243.07156,677.859059197,646.400205353,67047498.4302,1669.70826817,40765342.1192,70912896.6302,4286.85540949,4278.35016242,0.0
1.00514280449,1.16406155743,1.00028482805e-05,-90889011.6735,1.20925594627e-05,0.0,5905791.0312,677.997291985,644.651754965,67139123.1463,1631.6112966,66307173.7847,70789753.5125,4172.34778144,4163.95576772,0.0
1.03668136791,0.885879497929,1.01510805096e-05,-53816838.6883,1.48527437094e-05,0.0,5833958.16095,678.185298117,646.638682744,66991638.7908,1675.11460265,39244562.6078,71128952.0841,4303.26435819,4294.69648358,0.0
1.06703423839,0.879326833488,9.44959681908e-06,-37193585.676,1.54330904562e-05,0.0,5821723.78612,680.25762336,648.683109249,66989023.3432,1716.79473265,34694454.5445,70279895.1885,4429.25912356,4420.78815435,0.0
1.16955111091,1.19884671804,9.99989012741e-06,1030242.64811,1.81927283217e-05,0.0,5473500.96409,685.762318797,655.217256253,65966937.4103,1845.73837764,50502522.9065,67662095.041,4854.80666139,4844.18247656,0.0
1.0501943527,0.963081677864,9.59195181312e-06,-47947712.242,1.44683561616e-05,0.0,5824887.01067,679.236133418,647.515776348,66980749.2427,1692.66073331,36787958.1439,70503494.4316,4359.35675806,4350.47863007,0.0
1.11090160605,1.00901173264,1.00241514659e-05,-17127995.3578,1.75249084116e-05,0.0,5636102.08131,682.314117476,651.452043842,66447493.8129,1771.66212741,40258269.8489,69066471.4445,4611.35256671,4601.40944905,0.0
1.21258125786,0.78087156421,9.96887560475e-06,11360033.4788,2.92836105127e-05,0.0,12640384.3749,688.754458253,657.846843662,65128426.4607,1896.82066149,57038250.8538,66226546.9227,5033.42480138,5021.48806686,0.0
1.09424450606,1.0340190254,1.00320711684e-05,-24589696.8238,1.61646946735e-05,0.0,5742851.06678,681.275070859,650.395741454,66789282.4419,1752.79894028,36623576.7487,69098758.6341,4542.20894466,4533.50390754,0.0
1.18089631872,0.666424866206,9.92148531469e-06,3549614.43255,2.92297936152e-05,0.0,5610640.15943,686.930574187,655.888979305,65568326.0215,1859.89368235,51818391.7602,66840099.366,4901.90061901,4890.75713638,0.0
1.07646860481,0.840075900294,1.04048345024e-05,-31547800.1972,1.76802802055e-05,0.0,5690412.68117,680.223359009,649.263594006,66596607.5806,1726.8736879,34870931.027,68874587.9482,4468.42117857,4458.77748722,0.0
0.981856498643,1.11943282303,1.00064362093e-05,-95046522.1051,1.2513615046e-05,0.0,6022381.3461,680.796310869,643.182312136,67468942.9839,1614.08001456,69953283.9262,70192908.2396,4075.68632587,4068.94579756,0.0
1.09641601601,0.912327763599,9.9498686263e-06,-24105025.9356,1.77418388904e-05,0.0,5731159.23891,681.531656913,650.553141112,66755098.6687,1755.7402054,36801220.2964,69075646.9378,4551.22288246,4542.4837492,0.0
1.11538830368,1.12671479244,9.82249947914e-06,-16283419.0008,1.60447512549e-05,0.0,5648618.50828,682.614893871,651.714423394,66493948.6724,1777.6813464,40631096.9188,69367052.9194,4629.97684858,4620.05387027,0.0
1.09108547894,0.92328037324,9.92341345441e-06,-25941385.8662,1.71508416035e-05,0.0,5748226.50803,681.228494823,650.204344572,66800262.0747,1748.77588697,36275781.5295,69280890.5717,4529.09582308,4520.44029037,0.0
1.07329332769,0.955961846715,9.9517551686e-06,-33124624.8167,1.54630645847e-05,0.0,5790384.43219,680.038128045,648.957300128,66903225.7212,1724.92294017,34959968.3309,69683293.5448,4455.24060324,4446.67164474,0.0
0.976231392984,0.750556241807,1.03812622109e-05,-94457067.7505,1.56966350086e-05,0.0,6001803.28142,681.474198524,642.817500781,67417513.9448,1614.30746479,69434415.2934,69668004.7599,4052.33651228,4045.74969252,0.0
0.964166386758,0.970460578827,9.79765876006e-06,-94161403.2228,1.39411174292e-05,0.0,6063102.02403,684.510519589,642.044893862,67569113.4186,1615.78373066,69173835.7618,69401806.0915,4002.25467143,3995.75312158,0.0
1.07311606641,1.10719015923,9.82282946851e-06,-32197849.3752,1.34584216877e-05,0.0,5784539.65897,680.078856838,648.94895547,66876493.072,1723.18115482,34943806.9341,69694870.8817,4454.50479167,4445.39749752,0.0
1.09722646465,0.87423647727,1.02517898137e-05,-22936294.4516,1.85190952309e-05,0.0,5712715.38837,681.427045974,650.639938179,66691558.6342,1756.80838737,37097778.4334,68743160.9436,4554.58705476,4545.83518223,0.0
1.1672973009,0.95006878901,9.96563732079e-06,655880.206732,2.18795293007e-05,0.0,5466724.81128,685.777105654,655.076264664,65948482.8233,1843.53102073,50382607.6369,67732041.384,4845.45109604,4834.97170365,0.0
1.18391471115,0.769495315251,1.0390814419e-05,4949473.86319,2.75007727957e-05,0.0,6471813.19421,686.707608458,656.071618403,65544410.6062,1863.44602457,52396127.7361,66715535.782,4914.42996598,4903.44567433,0.0
1.09116683661,1.06139378593,1.00413419284e-05,-25445053.6414,1.55967273745e-05,0.0,5752672.42581,681.075571999,650.1956416,66812182.9589,1748.73351801,36370019.6536,69215761.4682,4529.43353877,4520.75145929,0.0
1.14403482472,1.02841183078,9.81093321784e-06,-7891105.04881,1.98627943829e-05,0.0,5582920.61557,684.335879138,653.529540203,66341469.3664,1816.0196978,45860866.4095,68460341.8477,4748.88855741,4739.16633888,0.0
1.0951234991,0.908001606209,9.72436768745e-06,-24733111.4355,1.71343471673e-05,0.0,5720696.88197,681.603544134,650.431220094,66703937.6249,1752.91907752,36598485.8862,69265280.6599,4545.85764476,4536.65134298,0.0
1.11339253572,0.964129264036,9.9045790178e-06,-16614947.0556,1.82154682453e-05,0.0,5629475.30608,682.546976859,651.595606246,66443856.9202,1774.95789767,40493864.3099,69192407.2493,4621.69241577,4611.70715371,0.0
1.0856217861,0.969099555112,9.85427477107e-06,-28046911.5997,1.61755379215e-05,0.0,5769641.87518,680.991509252,649.897500147,66856439.2608,1741.59448849,35870509.3865,69358649.9236,4506.4160341,4497.84584881,0.0
1.09017422702,1.23931369911,1.00171881727e-05,-26039963.3032,1.35831183883e-05,0.0,5767983.3062,680.984149666,650.148161774,66860738.0744,1747.33419205,36253448.1876,69316322.7685,4525.31321636,4516.67194221,0.0
1.05796701862,0.982106454756,1.00125295932e-05,-39871466.9116,1.44124733679e-05,0.0,5827807.87085,679.182244426,648.001773931,67000713.0452,1704.7030619,34846720.2289,69732231.3753,4391.62109429,4383.29038271,0.0
1.04398814222,1.00904669117,1.00054899812e-05,-49709294.252,1.40229412736e-05,0.0,5831982.85343,678.588700684,647.112431843,66999158.7971,1684.91001001,37361980.5743,71013293.2852,4333.59477836,4324.99650943,0.0
1.07443939777,0.993361038591,9.49693335716e-06,-33740411.1319,1.49559471691e-05,0.0,5816060.1134,680.547545483,649.144896603,66984730.7493,1726.89820961,34897034.132,70116882.1635,4459.99794014,4451.60135036,0.0
1.12673772921,0.893936161207,9.68769356721e-06,-13273140.5308,2.01709175077e-05,0.0,5634721.65226,683.476772175,652.446458697,66482513.0932,1794.07936228,42288912.9106,68364070.7787,4677.08831395,4667.57066402,0.0
1.12589103447,0.944180328061,1.03559535271e-05,-12481104.0915,1.99891428039e-05,0.0,5588812.65701,682.912388437,652.314707942,66319425.1294,1792.01291194,42744142.8403,67162101.8454,4673.57368409,4663.76761856,0.0
1.00208930375,1.00697565777,9.61208086872e-06,-95820412.1405,1.34884648858e-05,0.0,5914845.19531,678.984941728,644.461322539,67156911.4129,1627.33787576,70634835.8869,70800958.1751,4159.67269987,4151.24959606,0.0
1.08731731541,1.08378581266,9.64481174854e-06,-27736560.1464,1.46542209107e-05,0.0,5779532.85666,681.182568423,650.005296238,66891157.5146,1743.51494142,35970504.0036,69459307.8086,4513.45417627,4504.76022983,0.0
1.14835748306,1.07015768263,9.89603125651e-06,-7929460.99887,2.00337482463e-05,0.0,5594693.68542,684.540658594,653.825101746,66377291.7652,1822.91130872,45602894.451,68582572.2251,4766.83191218,4757.45740242,0.0
1.20739847085,0.846727753174,9.53151338044e-06,10091011.9104,2.66012087797e-05,0.0,11497707.1553,688.541443522,657.562035771,65518119.626,1892.51854151,56247156.254,67101093.6314,5011.9110525,5000.73334736,0.0
1.16186682057,0.713987192706,1.03551128708e-05,-1608971.27129,2.89892541016e-05,0.0,5484180.77831,685.393112053,654.752497326,66017929.3587,1839.61296671,48764416.5842,67887404.1386,4822.90917219,4813.31989098,0.0
1.00044395346,0.893290364484,1.01904827758e-05,-95677460.5025,1.46548720036e-05,0.0,5894576.43242,678.204292516,644.351535541,67102525.5193,1625.7701681,70508152.3754,70612197.4201,4152.84285081,4144.60839754,0.0
0.966549990467,1.0873666404,1.04739473421e-05,-94100469.4297,1.27285201882e-05,0.0,6036931.04434,682.361931437,642.194355699,67511283.0359,1610.40837239,69120321.2914,69348656.7905,4012.14901043,4005.69425067,0.0
1.22686026123,1.0530196232,9.84895499857e-06,14262274.7422,2.43082188693e-05,0.0,15644791.5491,689.525899032,658.793830257,65076763.1352,1912.66546175,59422692.072,66644505.6055,5092.69694437,5080.437249,0.0
1.0269727244,0.767456494731,1.01513523814e-05,-63940701.4107,1.58183047152e-05,0.0,5843593.17819,677.90693835,646.027497664,67007504.8785,1662.11733886,45185436.3592,70835528.2163,4262.96377898,4254.55167017,0.0
1.12668422067,0.750492391054,9.5867064089e-06,-13830440.2158,2.26625611127e-05,0.0,5650878.24471,683.595170242,652.451428302,66536961.613,1795.36969258,42108225.5911,68753031.0647,4676.8662,4667.73361452,0.0
1.06317998883,0.873329595594,1.00879333442e-05,-36321107.4773,1.59141821226e-05,0.0,5805785.44962,679.441532224,648.347766561,66943459.5524,1711.5205804,34628059.666,70129446.2113,4413.26013363,4404.84977431,0.0
1.18166522567,0.681791107975,1.01889973545e-05,4762112.21582,2.94200080547e-05,0.0,6418153.21474,686.707548038,655.925766592,65625493.1381,1861.29078954,52478703.0279,66886219.8917,4905.09235176,4894.36637296,0.0
1.00445608305,0.79914740714,9.47221607721e-06,-95967318.9792,1.54481277412e-05,0.0,5900879.61799,679.14580401,644.611024298,67115613.7198,1630.58658744,70763455.043,70782442.6458,4169.49720074,4161.03518926,0.0
1.10317189367,1.07490072857,1.0236377109e-05,-21266965.7655,1.65032667112e-05,0.0,5710900.18569,681.699919099,651.019060945,66697098.5686,1764.37239909,37846656.4886,68646809.5045,4579.26653062,4570.42097171,0.0
0.974119297275,0.824924163245,9.7406781471e-06,-94599323.0612,1.50133408005e-05,0.0,6025194.02661,683.014612989,642.682892527,67459452.7978,1616.18371849,69559293.0255,69793281.1259,4043.56920299,4036.68348631,0.0
1.16703462436,0.892607039569,9.72805042539e-06,-1406995.70807,2.25847631853e-05,0.0,5424961.23717,686.047842688,655.051628579,65836350.6171,1842.30219354,49158153.3128,67779116.2286,4844.36072572,4833.25769125,0.0
1.03766654767,0.813657879416,9.97352309859e-06,-53439496.3647,1.54960335032e-05,0.0,5830285.34527,678.402198901,646.700540596,66982449.3911,1676.18169685,39046626.9409,71182156.3568,4307.35383938,4298.68296434,0.0
1.0086742431,0.824082843248,1.01353793573e-05,-85989700.6926,1.51585029257e-05,0.0,5870704.15519,677.798710475,644.875818022,67038989.1652,1636.59505821,62145471.494,70786364.501,4187.00678311,4178.55700351,0.0
1.01735947158,0.863794717583,1.00484157772e-05,-71483642.3377,1.45531834378e-05,0.0,5892876.77656,677.762098645,645.436909537,67129819.582,1649.85462458,50558120.7818,70686783.2929,4223.05916653,4215.11091693,0.0
1.06745787846,0.837214415065,9.86874647821e-06,-35992633.7936,1.64056565612e-05,0.0,5801007.65379,679.869574732,648.624507323,66933782.893,1717.35142344,34670567.7197,70140912.02,4431.01765349,4422.53881786,0.0
0.9466043313,1.0398494618,9.85854899878e-06,-93423075.9282,1.3163583217e-05,0.0,6107782.81695,686.739225352,640.914416473,67681152.3476,1611.12091181,68523785.4021,68741759.8256,3929.35457923,3923.16808715,0.0
1.10137340643,1.01477191857,9.87769454605e-06,-22501626.5544,1.67851143392e-05,0.0,5730408.94709,681.872446733,650.913659644,66758827.6211,1762.27800492,37398125.133,68762762.7598,4571.80101009,4562.98372166,0.0
1.19061315727,0.986744825848,1.01222315241e-05,5825406.31439,2.3248754666e-05,0.0,7344950.80882,687.196777843,656.510698075,65455791.735,1870.08359205,52975141.6516,66647523.1578,4942.23521583,4930.61077126,0.0
1.21245237717,0.895105076577,9.72130284938e-06,11116583.7863,2.61482542712e-05,0.0,12454728.7252,688.719287529,657.826778749,65304445.2898,1897.20641777,56921026.0404,66598653.367,5032.88981763,5021.17514783,0.0
0.924240419157,0.860951512841,1.01820557532e-05,-92155873.9354,1.42910584854e-05,0.0,6086847.20246,689.249963357,639.456881527,67570074.143,1601.24745292,67408541.7052,67613099.6045,3836.52197992,3829.7691771,0.0
1.27029465318,0.588344482931,9.83475736728e-06,23459446.146,4.38062251578e-05,0.0,25308129.459,692.921127775,661.512123638,64083136.3352,1963.95882972,66505931.7227,67480232.0411,5272.99310535,5259.97409326,0.0
1.14484055213,0.890861492103,9.937857641e-06,-8356128.12503,2.21378046424e-05,0.0,5535266.03278,684.334547679,653.478884818,66175620.8395,1816.36734499,45295413.8534,68373392.4185,4752.23313189,4742.07989826,0.0
1.15108904139,1.03916512706,9.97225721823e-06,-5511374.08034,2.04669628208e-05,0.0,5551023.38307,684.735753591,654.040444784,66238866.3422,1824.83038711,47050243.1138,68730270.4809,4778.17061081,4768.32964429,0.0
1.08770357682,0.773925576446,9.7821292649e-06,-27464029.3295,1.86964288391e-05,0.0,5752963.35975,681.239122873,650.023705589,66806962.2372,1744.48021887,35968784.9428,69337667.5071,4515.05754738,4506.45488362,0.0
0.98204626351,1.01082844845,1.04944740106e-05,-94725662.9159,1.33435342664e-05,0.0,5935859.07976,679.64184676,643.173855252,67201495.4123,1606.96171052,69670875.9102,69910169.3883,4076.47403983,4068.53693125,0.0
1.09852895001,1.09512169869,1.01636634833e-05,-22837866.6537,1.58161745788e-05,0.0,5729295.78784,681.466407776,650.72636761,66743239.6861,1758.322094,37195562.2366,68729891.6901,4559.99367149,4551.22130959,0.0
1.07490942901,1.19212292836,9.87305777436e-06,-32267373.0906,1.30501134718e-05,0.0,5815380.10023,680.056971991,649.04730717,66990635.2628,1727.37586161,35086881.3851,69788435.6999,4461.94903982,4453.54518265,0.0
1.22442259195,0.626114311246,9.98073688444e-06,13966003.8326,3.5792838364e-05,0.0,15298628.8636,689.776501469,658.636492454,64823948.2723,1911.08394284,59137185.5818,66258173.9887,5082.57817918,5070.39279873,0.0
1.18971353319,1.07903899391,9.59948918957e-06,5226486.22836,2.08097808847e-05,0.0,6932287.97277,687.272331732,656.443164097,65800112.9362,1870.87255173,53127922.3433,67124805.9512,4938.50087627,4927.52993973,0.0
1.0734705442,1.05276816277,9.39178898816e-06,-33598280.0259,1.39868887894e-05,0.0,5822685.65177,680.427542804,649.004866736,67002693.5297,1724.93232751,34933795.892,70199664.3811,4455.97622897,4447.40453133,0.0
1.05656950412,0.920121318056,9.65595344157e-06,-44427143.7108,1.52033507843e-05,0.0,5803258.34676,679.507617814,647.911306764,66923688.573,1701.16617475,35671945.842,70420033.6154,4385.8200116,4376.83636614,0.0
1.10467185692,0.980402358519,9.84012566042e-06,-21812413.1936,1.76753805829e-05,0.0,5730509.5671,682.109025522,651.131253897,66761069.8507,1767.26512741,37705353.7996,68624016.281,4585.49287807,4576.82426072,0.0
1.0632720081,1.02885404436,1.00181323528e-05,-37376129.2894,1.41523599814e-05,0.0,5817974.48911,679.452957755,648.353784946,66980652.6993,1711.7260582,34661388.358,70087006.9012,4413.64210562,4405.23001366,0.0
1.05767418026,1.03832035897,1.01037709147e-05,-39654798.4596,1.38234336649e-05,0.0,5828587.98302,679.075736465,647.984340671,67004579.7705,1704.28322401,34814747.6027,69738484.6372,4390.40552226,4382.079364,0.0
1.04003719373,1.04469320291,9.87342985074e-06,-52263232.068,1.33649295948e-05,0.0,5843389.33139,678.505822615,646.863939071,67026186.4286,1679.15253792,38464640.2501,71021304.9904,4317.19439117,4308.48470842,0.0
1.0485222457,0.804704051701,1.00317676697e-05,-45744695.9426,1.5978780848e-05,0.0,5843687.79958,678.749661287,647.422830333,67041893.2295,1692.4091895,36074115.3136,70467001.9488,4352.4158419,4344.44372793,0.0
1.13454398939,1.1960492124,9.50531199074e-06,-11666609.8653,1.64465995093e-05,0.0,5593297.29915,684.006664812,652.963865065,66357054.6575,1801.96637229,43355799.3886,67575029.2781,4709.49209996,4699.11421967,0.0
1.04624731826,1.10308581448,9.91636164476e-06,-47592515.5955,1.30059513221e-05,0.0,5837856.46654,678.68832336,647.265933796,67012247.2556,1687.54442693,36655370.014,70606444.3226,4342.9726181,4334.30612248,0.0
1.12190644068,1.04564923607,1.0322036104e-05,-13624936.0837,1.8148161111e-05,0.0,5610892.56291,682.724447127,652.126588233,66380310.1172,1786.80519613,42119295.0623,67913765.5871,4657.03363526,4647.29384755,0.0
1.08653288706,0.973607457421,9.53290105771e-06,-28319845.3355,1.57890448323e-05,0.0,5778925.98618,681.264969914,649.958292349,66886315.1601,1742.57208808,35906773.6585,69466002.1288,4510.19801419,4501.51642144,0.0
1.0897466359,1.08059047268,1.02868688773e-05,-25323377.3904,1.53980266737e-05,0.0,5747877.14066,680.808392054,650.099849874,66786577.0379,1746.86501488,36338743.5056,69100222.4799,4523.53828562,4514.90369877,0.0
1.03656617795,1.00653340609,1.00108593224e-05,-56029495.4766,1.38291432622e-05,0.0,5848348.98426,678.287734079,646.655150005,67037971.72,1675.07684261,40398708.0925,71042491.3711,4302.78620467,4294.30621049,0.0
1.14488673711,0.779170765465,9.87225647598e-06,-8422710.27181,2.40395921183e-05,0.0,5526202.86668,684.444777363,653.483575498,66144450.3723,1816.62113098,45247982.6503,68320354.5398,4752.42484574,4742.270892,0.0
1.07166195534,0.978547100416,9.62279608258e-06,-33245394.7287,1.48400073281e-05,0.0,5802574.88038,680.19404299,648.884590665,66932011.9346,1721.98363418,35012475.003,69975393.471,4448.46877662,4439.73793629,0.0
0.991845496711,1.14388332214,1.05328889347e-05,-95153036.9626,1.22258805258e-05,0.0,5918163.29894,678.158668127,643.800879838,67166658.5642,1614.17301886,70047151.3319,70351676.8022,4117.15065685,4109.05456105,0.0
1.060989897,0.955372439347,1.01498340811e-05,-37858643.6247,1.48915011282e-05,0.0,5813563.62358,679.258372428,648.205108889,66964962.0597,1708.77401847,34645057.3688,69955777.7892,4404.16906245,4395.79128872,0.0
1.19806568533,0.996529276902,9.67778341747e-06,7428884.61005,2.29197314569e-05,0.0,8901049.01949,687.879877792,657.020622278,65583751.6285,1880.26493023,54278277.622,66715536.5463,4973.1706598,4961.80912045,0.0
1.18088770771,1.16285445079,1.00315432375e-05,3810172.11492,1.94409379314e-05,0.0,5799566.82269,686.421704267,655.892278721,65848221.6996,1859.90796689,52060149.6129,67131524.4712,4901.8648747,4891.15000242,0.0
1.024972062,0.814102642967,9.56123848098e-06,-69996046.4588,1.51785765438e-05,0.0,5932021.57857,678.32373568,645.939965401,67276687.2689,1661.97930078,49481816.2178,71000001.2328,4254.65902936,4247.39623165,0.0
1.16938346582,0.926367399843,1.01284705876e-05,890880.234362,2.25811548561e-05,0.0,5407115.82968,685.88959305,655.193211162,65760207.215,1844.88635238,50219259.3405,67372790.9408,4854.11076662,4843.0698313,0.0
1.14774963402,1.09391326178,1.0096912019e-05,-7635456.94174,1.98349634626e-05,0.0,5589007.45243,684.384093553,653.803257466,66362423.1034,1822.01299374,45675659.6403,68599465.0324,4764.30873082,4754.94396124,0.0
1.19433604871,1.08441088199,9.6756971526e-06,5915699.25032,2.12245987909e-05,0.0,7497483.60734,687.600378235,656.737309742,65570432.8537,1874.91029525,53316872.0281,66842608.949,4957.6889382,4945.98898694,0.0
1.08744689658,1.12050735749,1.00547732437e-05,-26818531.0778,1.46236625757e-05,0.0,5766849.67815,680.873157227,650.000013559,66853991.0271,1743.85078765,36064423.9854,69313976.5862,4513.9920677,4505.39341119,0.0
1.18701760078,1.1826660029,9.91778490678e-06,4897695.06621,1.92435896674e-05,0.0,6477997.5939,686.878630521,656.269951359,65739812.211,1866.67535508,52711195.1282,67036111.1855,4927.31006084,4916.1783985,0.0
1.11174243808,1.30097000681,1.04247589479e-05,-16425355.5258,1.44699581968e-05,0.0,5666843.88085,681.900401134,651.47714523,66544411.2862,1773.81394088,40464839.7218,69245456.8536,4614.84286047,4605.37358625,0.0
1.13241554608,0.778702223337,9.87683442641e-06,-11407218.7453,2.28133495175e-05,0.0,5590176.62651,683.812929879,652.838000535,66341049.4399,1801.3711876,43528768.4545,67498234.7324,4700.65693178,4691.01994234,0.0
1.07976864203,0.965621773029,1.03217619507e-05,-28799161.4208,1.6204604309e-05,0.0,5770122.00159,680.32952044,649.52564826,66861085.4692,1734.26115783,35585985.0657,69212533.2141,4482.11963307,4473.7370678,0.0
1.11620428008,0.87890535105,1.00477590807e-05,-15641328.736,1.97577660979e-05,0.0,5657068.78807,682.568664281,651.758404493,66532047.6601,1780.66845103,40967518.8869,69338236.1078,4633.36396661,4624.11861445,0.0
1.01607576092,0.918673305423,9.73731416376e-06,-79051881.8099,1.40711440487e-05,0.0,5952894.78372,677.987388344,645.372897527,67317320.5057,1650.07696459,56433143.0383,70997476.7317,4217.73048358,4210.59422261,0.0
1.09637879797,0.78594946072,1.02037012986e-05,-23309294.0855,1.96220803573e-05,0.0,5710433.36816,681.44090558,650.574179394,66681636.1997,1755.78992264,36964480.7032,68905844.2513,4551.06839037,4542.32984196,0.0
1.14433622208,0.687323142414,1.01528831501e-05,-8299577.42688,2.688124382e-05,0.0,5559197.56499,684.327137724,653.548271254,66266731.2409,1818.12410943,45211441.6358,68270085.4188,4750.13965785,4740.82950841,0.0
1.0615096517,1.06042962481,9.86170733919e-06,-38045689.7349,1.34981084851e-05,0.0,5799039.83736,679.483676811,648.223940665,66903903.0452,1707.50367765,34648476.4476,69945614.5504,4406.32656421,4397.22869009,0.0
1.14077474365,0.982481971207,9.96049784092e-06,-8737516.73569,2.08861398989e-05,0.0,5601311.9207,684.073103764,653.355542424,66396484.2522,1812.72791074,45290764.4938,68209526.8646,4735.35596089,4725.99990033,0.0
1.14788475957,1.30467115327,1.01712029335e-05,-7490284.25851,1.71145427686e-05,0.0,5600585.69077,684.257460599,653.815860162,66399989.1558,1821.96433413,45723504.6123,68671801.6969,4764.86963698,4755.50437799,0.0
1.01749051322,0.91856028881,1.00052788991e-05,-74812678.7122,1.4042357132e-05,0.0,5937765.92199,677.715217067,645.456166956,67282154.0362,1652.03603252,53082355.8578,70813931.6743,4223.60312038,4216.4468001,0.0
1.2565865057,0.997910896774,1.03567158774e-05,21195767.812,3.00951611236e-05,0.0,23142734.3831,691.176372547,660.633590678,64613865.3905,1946.92305914,64991117.5542,65822040.2116,5216.09058516,5203.6867191,0.0
1.1039930065,1.04910414288,1.02245284482e-05,-19173806.3811,1.66918195084e-05,0.0,5637690.80496,681.77630395,651.030059692,66453574.1749,1761.95279238,39154965.0424,68706170.1844,4582.67496998,4572.6631484,0.0
1.03338760397,0.885496362481,9.92201742547e-06,-58306066.5948,1.47365966451e-05,0.0,5899892.84827,678.181835954,646.45886339,67199176.934,1673.2468957,41772203.1987,71022987.9986,4289.59194408,4282.20857692,0.0
1.00297393284,1.00987639439,1.06065031437e-05,-87140627.7276,1.35780545094e-05,0.0,5879029.78843,677.215505577,644.507508273,67064795.4068,1629.15484846,63095184.8536,70561843.4867,4163.34479522,4155.069656,0.0
1.07632475581,1.07920259089,9.73808370709e-06,-32115599.0434,1.41987414353e-05,0.0,5810575.30629,680.277697805,649.141995975,66976247.2077,1729.30883845,35125178.205,69794139.1825,4467.82406137,4459.39830553,0.0
1.14753433371,0.977865138463,1.01273150551e-05,-7604518.68915,2.17647011624e-05,0.0,5577495.21699,684.410513238,653.786478544,66327437.2141,1821.84894633,45659739.9557,68561285.4547,4763.41501923,4754.05537332,0.0
0.985710385467,1.12590871152,1.02641666737e-05,-94952704.5761,1.24523797039e-05,0.0,5943391.12918,679.677617504,643.41087259,67226477.0416,1609.82766229,69870758.8534,70112470.3514,4091.68381007,4083.68729309,0.0
1.24664948215,1.05525846672,9.69662555223e-06,18918242.5169,2.59418798112e-05,0.0,20482039.992,690.751201611,660.015079953,65015770.4439,1937.22937072,63199544.9366,66667240.3038,5174.8420004,5162.89529773,0.0
1.14984388141,1.04630170307,1.01610199421e-05,-6888945.1793,2.08465432039e-05,0.0,5574227.18053,684.53145574,653.966319705,66321532.1504,1824.68672821,46052386.1824,68727194.4832,4773.00195173,4763.60360656,0.0
1.07056094095,0.869468419941,1.0046444975e-05,-33913649.0821,1.63232381879e-05,0.0,5788156.3739,679.88093389,648.808787797,66892526.257,1721.40257802,34811889.0629,69759307.4566,4443.89846588,4435.37096935,0.0
1.06102431381,1.02774451813,9.80914585138e-06,-39253096.674,1.3969739857e-05,0.0,5831348.31446,679.492138503,648.210294917,67013586.0705,1708.69687587,34797395.3569,69932088.2079,4404.31192663,4395.93361645,0.0
0.998906884691,1.06108384253,1.00583441335e-05,-95587208.1401,1.29828187183e-05,0.0,5912287.87543,678.416969877,644.254857556,67150487.0067,1623.39429865,70429542.5049,70731296.6303,4146.46247835,4138.17187772,0.0
1.0741809742,0.788525447702,9.65522359811e-06,-33249368.6379,1.7364667847e-05,0.0,5800193.61161,680.365531208,649.029107631,66939017.379,1726.7072676,34901250.8476,69958824.6663,4458.9252239,4450.53262863,0.0
1.08122951783,1.08314176343,9.65270589502e-06,-29753601.9903,1.42217219718e-05,0.0,5783481.18795,680.626642318,649.46435649,66892248.162,1734.49161501,35474118.8672,69459591.5982,4488.18372851,4479.29933218,0.0
1.17403622967,0.894916812799,9.7355838395e-06,1700089.08362,2.29488861446e-05,0.0,5414654.50675,686.409185875,655.48741884,65805925.6527,1851.10751692,50965210.3134,67236837.4661,4873.42438936,4862.40560739,0.0
1.18432522704,0.805651380659,1.00450282479e-05,4798078.85045,2.63434343803e-05,0.0,6450126.12635,686.861477863,656.097766639,65676549.5744,1864.5730463,52577409.2832,66949934.5657,4916.13401744,4905.35926596,0.0
0.952007841406,1.17867919466,9.71921300312e-06,-93693927.4124,1.21514193092e-05,0.0,6107779.74043,686.399342922,641.263158465,67688397.2504,1614.23104173,68762212.2164,68982946.613,3951.78454968,3945.52582721,0.0
1.09976387535,0.94014277136,9.70556222444e-06,-23305125.0914,1.73407685954e-05,0.0,5731446.33655,681.902830327,650.786230076,66750336.0075,1759.90902881,37116050.692,69260635.185,4565.11984658,4556.22892682,0.0
1.01785179437,0.997209864744,9.64764585796e-06,-77748794.5186,1.34666286134e-05,0.0,5955563.28178,678.083942751,645.486142268,67330697.4325,1652.38734692,55397839.6846,71009668.4194,4225.10279843,4217.94135181,0.0
1.129287491,0.65776900596,9.48874880935e-06,-11940056.7748,2.3203058608e-05,0.0,5592061.23564,683.911222424,652.60313455,66332852.5558,1796.61016181,43168821.8078,67853764.2992,4687.67237514,4677.72244495,0.0
1.25798213037,0.868342959825,9.67017267567e-06,20788814.6814,3.14851059294e-05,0.0,22534807.5247,691.737276612,660.692330704,64567576.1833,1949.22483586,64656235.317,65492823.3552,5221.88382317,5209.08588626,0.0
1.00847302849,0.899878399459,9.85873911338e-06,-87168508.7808,1.40950778055e-05,0.0,5966404.20085,677.910763123,644.887888687,67336287.6707,1639.85278073,63138688.984,70998941.3548,4186.17154126,4179.14266466,0.0
1.02223942824,1.14897844796,9.71794420462e-06,-71869308.324,1.21706876857e-05,0.0,5949480.59453,677.995570203,645.759880555,67326204.5767,1658.18042098,50861151.3868,71080755.0566,4243.31586662,4236.09203748,0.0
1.13777097652,0.850805728173,9.79739673327e-06,-9588977.55762,2.19277321429e-05,0.0,5563263.27254,684.058454271,653.098113752,66264138.0915,1807.19704937,44795902.0844,67932682.0327,4722.88732353,4712.85504385,0.0
0.935311489662,0.949694408098,1.01794223761e-05,-92889809.4799,1.33432166348e-05,0.0,6116993.49751,687.277119212,640.184742927,67691691.5753,1603.91024765,68054381.8034,68267044.0841,3882.47799359,3876.44127843,0.0
0.984843100797,0.72734809374,9.36575083126e-06,-95155107.7411,1.58461377342e-05,0.0,6004427.25774,682.145686116,643.373542026,67400047.5309,1619.3634912,70048625.2236,70291193.5434,4088.08371141,4080.8798039,0.0
1.1175648067,0.864597999005,9.87533884985e-06,-15499335.2021,1.97794307942e-05,0.0,5621102.53507,682.821615376,651.831293117,66410899.1254,1780.92634874,41103278.1576,69241784.7123,4639.01151261,4629.14853271,0.0
1.1196414646,0.951248162233,9.71017799149e-06,-15490607.0888,1.87932944184e-05,0.0,5666949.79123,682.958294362,651.980286464,66575623.7201,1785.06071652,41134658.2856,69359657.1276,4647.63171955,4638.33209435,0.0
1.130884547,1.11152000399,1.02222273788e-05,-11549822.3687,1.78851418199e-05,0.0,5593334.67969,683.236439893,652.65453585,66339872.1522,1798.25541596,43344355.2936,67523194.3475,4694.3017546,4684.41121923,0.0
1.04305303628,0.682070268111,9.48745015962e-06,-53184152.4883,1.72704611544e-05,0.0,5815023.81205,679.137427342,647.063403386,66938721.3513,1682.75832424,39020570.3617,70915199.981,4329.7131536,4320.77993784,0.0
0.973890850358,0.787791558005,9.77852736954e-06,-94711231.1568,1.5334555709e-05,0.0,6034983.09281,682.680565612,642.67170667,67489363.983,1614.7681596,69657771.1043,69893028.4192,4042.62091984,4035.98938991,0.0
1.0250196784,0.916481375303,1.0058583676e-05,-66481360.4547,1.44931261573e-05,0.0,5859938.97672,677.898916322,645.914121288,67054836.917,1659.37481892,46932821.4014,70977146.5214,4254.85668504,4246.47597816,0.0
1.17947030442,0.720789959285,9.79015604068e-06,2986426.62264,2.74141784175e-05,0.0,5363062.97533,686.862073207,655.807536204,65640272.6372,1858.17851819,51578994.2413,66874343.7317,4895.98123365,4884.87657899,0.0
1.19861407543,1.05881331322,1.00614967245e-05,7774281.01643,2.23017612694e-05,0.0,9216564.19671,687.63284877,657.033709777,65509304.5655,1880.58393293,54433665.5576,66648829.6738,4975.44702711,4964.10029116,0.0
1.02666684876,0.808846152248,9.92690996455e-06,-64229725.1437,1.52076594854e-05,0.0,5913097.93825,677.986940947,646.035348459,67228629.5492,1664.31027745,45432983.4144,70861251.2906,4261.6940892,4254.40707824,0.0
1.07503211454,1.11629211199,1.03350539721e-05,-30426745.0381,1.41761024487e-05,0.0,5781369.71945,679.958279318,649.190972026,66877231.4281,1727.24327721,35308959.0037,69262342.7744,4462.45830746,4453.95577837,0.0
1.06342796642,1.0900608063,1.02241891944e-05,-36856919.0942,1.37205765676e-05,0.0,5816818.04058,679.286877996,648.365215613,66974150.2036,1712.20215128,34640962.9816,70101340.0591,4414.28948861,4405.96706884,0.0
1.06222954618,0.990742222821,1.02067171321e-05,-37067917.1165,1.46181655692e-05,0.0,5810495.93803,679.269330781,648.285159651,66948377.4382,1710.39257877,34628708.1638,70026233.7343,4409.31484619,4400.91774142,0.0
1.00245406819,0.928397959111,9.77897932998e-06,-95388789.3017,1.38220817027e-05,0.0,5985013.22718,678.320660703,644.500049898,67382573.9539,1631.70425068,70257409.3959,70942698.7965,4161.18683706,4154.24226295,0.0
1.11273067211,1.11191304898,9.92230125244e-06,-16859849.9982,1.62145127947e-05,0.0,5644236.86772,682.423869921,651.561597762,66488968.6352,1773.93315804,40443686.0041,69185151.9909,4618.94501993,4608.97030917,0.0
1.19068298382,1.01069475208,9.88482934195e-06,5474303.71211,2.25445788565e-05,0.0,7067609.28336,687.305585225,656.500945231,65527111.0962,1870.36870986,52946644.3635,66813107.8212,4942.52506584,4930.87948722,0.0
1.20349109061,0.926331199772,1.03436038395e-05,9860848.92324,2.58416358219e-05,0.0,11160084.0361,687.832831819,657.256226109,65224122.7229,1884.91050973,55766368.7128,66779393.0322,4995.69151712,4983.80224891,0.0
1.11850379616,0.917763694667,9.85161342028e-06,-15348887.112,1.94393782511e-05,0.0,5666657.43167,682.813353835,651.909898089,66565494.6569,1783.71084856,41183297.1962,69302365.8788,4642.90925786,4633.72266654,0.0
1.13511991728,0.940229669172,9.7814582454e-06,-10933570.3883,2.04670474039e-05,0.0,5600137.26887,683.96206656,653.017932621,66373064.1872,1804.69793244,43892054.1269,67686908.5757,4711.88277663,4702.20009934,0.0
1.06123589151,1.12502881097,1.0440796254e-05,-37009190.8596,1.3353124038e-05,0.0,5815536.34497,678.991866456,648.222341108,66970328.2357,1709.27551328,34616241.0081,69995009.5549,4405.19018566,4396.90311681,0.0
1.09386108509,0.968700778556,1.02782541475e-05,-23979027.3963,1.71271454895e-05,0.0,5728429.49289,681.132570762,650.390431552,66733329.5103,1752.33210031,36764601.8362,68923655.6925,4540.61736421,4531.91834175,0.0
1.11865985851,1.03340886263,9.74050329603e-06,-15571036.2604,1.75559966348e-05,0.0,5624921.32392,682.900652362,651.898941409,66435501.4733,1781.65282154,41091847.8633,69258978.0871,4643.55707268,4633.48051289,0.0
1.01230363434,0.825139968262,1.01500014498e-05,-81855190.153,1.52179310626e-05,0.0,5861080.80844,677.721308938,645.101037767,67015342.7201,1641.44907755,58688011.153,70597463.9708,4202.07238615,4193.56307269,0.0
1.14932363943,0.992175143077,9.9501399043e-06,-7522114.96331,2.14957239154e-05,0.0,5581244.55409,684.62907401,653.904912791,66337541.4221,1824.19840438,45788251.8841,68633452.0968,4770.84242727,4761.45242733,0.0
1.06122491874,0.963705654606,9.98663160584e-06,-38411465.5289,1.47486720001e-05,0.0,5819866.88715,679.394107686,648.221841185,66982048.4158,1709.05651503,34697457.5068,69967120.1562,4405.14463769,4396.76320045,0.0
1.20310423254,1.09502857689,9.94860900969e-06,8568818.67736,2.19955382951e-05,0.0,9962927.09636,687.968707984,657.287638379,65377260.2914,1884.9581988,54920933.2653,66754342.9463,4994.08566927,4982.22447254,0.0
0.949909715538,0.985154214589,9.48833373325e-06,-93621962.4537,1.39956066009e-05,0.0,6111184.23673,687.445936335,641.129339987,67693080.8271,1616.32991394,68698879.9311,68918428.1195,3943.0752292,3936.84459624,0.0
1.20756709757,1.01958986446,9.99885367194e-06,10233606.3934,2.39014479748e-05,0.0,11597877.7315,688.211068958,657.515039701,65269117.2367,1890.07033825,56200397.3073,66986969.9659,5012.61102201,5000.6390613,0.0
1.00890014587,1.18226538249,9.77804666587e-06,-87499594.4917,1.17751402012e-05,0.0,5981962.65709,677.935574629,644.92451289,67382628.9561,1640.26080707,63423788.0719,70997352.0207,4187.94450551,4180.90961457,0.0
1.21124038927,0.811048030829,1.02256689004e-05,11367555.4414,2.87922134487e-05,0.0,12624731.643,688.489892917,657.769147971,65157086.4825,1895.14210291,56997802.2529,66147643.1092,5027.85885586,5016.06326967,0.0
1.14087814146,0.810550866711,9.94640052087e-06,-8728187.05077,2.36931278055e-05,0.0,5586864.75098,684.192192563,653.363860241,66354362.1395,1813.0388502,45328781.6221,68171370.9077,4735.7851652,4726.42744114,0.0
1.02981321425,0.961184642954,1.00402415619e-05,-61678159.1649,1.40665869058e-05,0.0,5859106.00198,678.038577248,646.225295502,67059574.2047,1666.1409245,43731145.5426,71025466.8129,4274.75465235,4266.38294109,0.0
1.16915732156,1.05563659482,9.93944665465e-06,977418.377511,2.01773102642e-05,0.0,5440204.27721,685.875205113,655.184097854,65870728.9467,1844.55337431,50521194.1308,67648255.4565,4853.1720418,4842.23584666,0.0
1.00225035568,0.751745954705,1.01012243527e-05,-95059070.8464,1.5617860603e-05,0.0,5884048.34089,678.182238933,644.46199148,67069753.9936,1628.05646567,69979107.5631,70645261.0327,4160.34122643,4151.99874347,0.0
1.23801228328,1.09462265101,1.01468821789e-05,17269559.0061,2.52190966904e-05,0.0,18789591.5857,690.017948881,659.493920728,64966708.319,1925.84390902,61855167.8988,66972015.7389,5138.9889879,5126.88999523,0.0
1.16743449059,0.837496423914,9.81073817166e-06,186161.153882,2.37686024309e-05,0.0,5418964.28463,686.022886792,655.07494364,65808437.3932,1842.6835804,50146875.9309,67712328.9762,4846.02057044,4835.01585457,0.0
1.08843899187,1.01275672109,1.04581800117e-05,-25378456.132,1.64086819546e-05,0.0,5744135.6857,680.647383969,650.018942114,66782689.7832,1745.55814473,36290738.7796,69069213.1222,4518.11025525,4509.59240344,0.0
0.983249489908,1.18075556871,9.91730928068e-06,-95187044.7924,1.15830251366e-05,0.0,6015005.79249,680.395264593,643.268441682,67433330.5003,1611.85993792,70076737.775,70317887.8566,4081.46863261,4074.37496145,0.0
1.16489560931,1.09911898989,9.63233069622e-06,-905701.661999,1.8855556591e-05,0.0,5463194.80991,685.804342256,654.919974697,65950300.69,1839.02170019,49693085.5335,67994816.3417,4835.48167425,4824.41959821,0.0
1.06488288489,1.02345358337,1.02403852154e-05,-36121056.3171,1.4521144412e-05,0.0,5808320.59265,679.383218495,648.460455688,66951173.2578,1714.17611866,34636041.7636,70036446.089,4420.32885518,4411.98391023,0.0
1.06922571874,0.898389965434,1.01342556225e-05,-33383305.1455,1.6037030256e-05,0.0,5790110.21322,679.714333815,648.719934749,66897262.2132,1719.43450142,34876731.1963,69740771.5698,4438.35595849,4429.84970718,0.0
1.04856750362,0.697473872951,9.50255431634e-06,-49084764.8196,1.71747149052e-05,0.0,5813672.90489,679.361140032,647.421630043,66945282.0255,1690.69666066,37189424.1723,70942958.8845,4352.60370753,4343.75242615,0.0
1.05355426302,0.855938007059,1.01237463086e-05,-42026472.2218,1.58147749275e-05,0.0,5793259.60771,679.05206787,647.784573015,66892532.4014,1697.30739035,35130361.7015,69978057.7129,4373.3037458,4364.51851559,0.0
1.10841276892,0.743511910728,1.03163437907e-05,-17156559.6465,2.11627717253e-05,0.0,5636314.84901,682.070732633,651.301849637,66459671.798,1769.77322528,40016419.5264,68946356.5632,4601.02140379,4591.60766948,0.0
1.02150739811,1.12681916396,1.01392867759e-05,-69146368.7137,1.25598448317e-05,0.0,5877587.16595,677.658797085,645.692103583,67101533.5984,1654.55723921,48830724.0697,70735854.0982,4240.27720955,4231.95285483,0.0
1.0725976875,1.00950513361,9.8379556181e-06,-33335984.2015,1.48458790232e-05,0.0,5811095.36278,680.060335431,648.931740864,66972561.8851,1724.47322256,34886518.8287,69942510.8101,4452.35300081,4443.98486171,0.0
1.11779991325,0.88385124641,9.94478173229e-06,-15284181.8339,1.96903224933e-05,0.0,5605127.47258,682.798879127,651.841830693,66362005.9862,1780.71549175,41139018.6963,69038377.9936,4639.9874399,4629.92585917,0.0
1.13755751926,0.950752714876,1.03261250877e-05,-10068971.2573,2.1579619047e-05,0.0,5599894.37117,683.699791642,653.163020791,66387235.8566,1809.1541206,44180884.6048,67967387.3195,4722.00126245,4712.82574219,0.0
1.22374893863,1.08538226397,9.9903580137e-06,13496129.1269,2.39156812387e-05,0.0,14788141.7401,689.244177169,658.593227313,65105221.1161,1909.2210985,58854104.7407,66510576.4116,5079.78184425,5067.60910675,0.0
1.12109136901,1.01033461243,9.88822724638e-06,-14565040.5642,1.82856591806e-05,0.0,5607464.47351,682.982873825,652.056030043,66373721.9086,1784.83346089,41547690.5313,68451983.9749,4653.65027276,4643.53154775,0.0
1.19517640091,0.66186806794,9.56191229985e-06,6282474.49108,3.06239061161e-05,0.0,7893142.73461,688.120279154,656.790684132,65353450.1602,1876.88746505,53568084.8207,66662322.503,4961.17724018,4949.43511453,0.0
1.15686936666,1.08746429188,9.87810524738e-06,-5095496.77926,2.03143367149e-05,0.0,5562204.98226,685.123154013,654.408245001,66279596.4962,1833.267873,47117834.1356,68644686.5171,4802.16474101,4792.55851193,0.0
1.03544202041,0.829328966101,1.04632717159e-05,-53079924.0337,1.55183256789e-05,0.0,5813488.85571,677.881210276,646.549771415,66934949.9186,1673.12460961,38836613.1033,70804166.5632,4298.11982672,4289.48425986,0.0
1.16522810792,0.958043099513,1.01668849926e-05,196715.303991,2.17918097387e-05,0.0,5425994.35369,685.57762027,654.93195447,65817835.2647,1839.54727719,49949545.1777,67566079.2488,4836.86187598,4825.92256602,0.0
1.116179508,0.994353852144,9.677469541e-06,-16369995.3898,1.77504470214e-05,0.0,5640767.90752,682.832852106,651.7689548,66482276.5082,1778.88269825,40667589.61,69356890.5075,4633.26113771,4623.32468611,0.0
1.06583501365,0.995270494809,1.02769979347e-05,-35555419.5791,1.49162876489e-05,0.0,5802499.51555,679.422584909,648.522803808,66936195.4938,1715.44060639,34652590.8758,69927045.3518,4424.28114166,4415.92144224,0.0
0.9528990073,0.894848279248,9.86779971658e-06,-93647494.8547,1.44664202209e-05,0.0,6085244.50195,685.979174703,641.319729612,67624997.7683,1613.14313366,68721469.9683,68942166.9062,3955.4837793,3949.21310941,0.0
1.22350506285,0.92427159277,9.50647521208e-06,13073330.5826,2.63023809916e-05,0.0,14443475.3122,689.608772791,658.585591727,65174875.096,1910.11846894,58537999.9753,66437668.0235,5078.76951589,5066.70536376,0.0
1.01287441986,0.894625357362,1.03516112134e-05,-78521534.5358,1.42795396251e-05,0.0,5931783.25491,677.313449701,645.160303279,67245828.8361,1645.72036057,55990617.0596,70705892.9371,4204.44171684,4197.35103319,0.0
0.972346433092,1.02867083721,1.00418757233e-05,-94369045.1841,1.35838819458e-05,0.0,5990455.01079,682.60796452,642.557080439,67352578.8976,1612.29141881,69356759.5337,69588649.0705,4036.21004376,4028.73721448,0.0
1.07187282671,1.12799100561,1.00487758517e-05,-32583920.6011,1.36496107492e-05,0.0,5801641.44812,679.803576319,648.863527468,66936468.283,1722.74842576,35054800.1779,69699818.1217,4449.34410367,4440.79776799,0.0
1.09371714526,1.01842504018,9.87781132018e-06,-25227380.5512,1.6224675136e-05,0.0,5749652.07835,681.348784256,650.353756913,66807436.6293,1752.13430166,36498726.1118,69244484.7548,4540.01986997,4531.32310504,0.0
0.962109696263,0.764677324772,1.00514496356e-05,-93957867.7684,1.55186914904e-05,0.0,6050137.59779,684.316485012,641.911417078,67535887.4541,1614.03975651,68994737.9693,69220181.0552,3993.71734919,3987.322771,0.0
1.14845362524,0.868204829168,1.01839975061e-05,-6138960.23874,2.38184528588e-05,0.0,5561189.54719,684.503303447,653.877598336,66262276.9189,1822.82335564,46596946.0629,68714801.8021,4767.23099837,4757.85785442,0.0
1.1563461921,0.871550589348,9.98363148947e-06,-3714692.41467,2.24028700377e-05,0.0,5451240.23343,685.264159771,654.388512562,65912320.7617,1828.89460373,47757441.9037,68148361.1365,4799.99304341,4789.09546376,0.0
1.15802528105,0.759606127524,1.03080028594e-05,-2313629.74418,2.50359871556e-05,0.0,5462782.17565,685.163489956,654.497927935,65919263.5268,1832.5866069,48436372.4062,67798546.8421,4806.96294164,4796.65445289,0.0
1.03768379382,0.976543895918,9.70760474672e-06,-56712021.2496,1.40511547394e-05,0.0,5901656.99221,678.530040207,646.752748281,67210459.0963,1678.89156924,40883095.0531,71144608.5307,4307.42542815,4299.98162536,0.0
1.19236282277,1.08390807559,1.01859607112e-05,6281486.52186,2.16847697121e-05,0.0,7756836.12562,687.209143332,656.633126609,65465585.2707,1871.9560481,53215648.4638,66573873.3592,4949.49807732,4937.84129099,0.0
1.26336244551,0.944721257701,9.97973294799e-06,22060435.4855,3.1192378402e-05,0.0,24019830.7565,691.871372403,661.06519876,64532887.8424,1955.29980778,65620625.5408,66498272.4631,5244.21751131,5231.56539939,0.0
1.02769369323,0.868870622065,9.97791936889e-06,-63858116.0501,1.48367287267e-05,0.0,5863406.70349,678.058719058,646.083598468,67066034.2089,1663.44073598,45147898.7019,70915723.7015,4265.9565206,4257.64685956,0.0
1.12977309832,0.963508158652,9.90385743352e-06,-12157203.6579,1.9694521427e-05,0.0,5616486.3642,683.514833432,652.659154724,66418174.0025,1797.8000926,43036774.6812,67462998.0768,4689.68813113,4680.12035228,0.0
1.15970995266,1.11423392711,1.00951236448e-05,-1690680.95313,1.88161501767e-05,0.0,5475440.50798,685.200137158,654.598465111,65968441.0304,1833.02870813,48926294.7669,67727865.3209,4813.95601349,4803.20363131,0.0
1.15567469888,0.724304879924,9.61635970206e-06,-4983342.27536,2.66517352179e-05,0.0,5541026.28949,685.410339725,654.341105989,66226243.5876,1832.1447875,47489812.8623,68708160.9096,4797.20567505,4787.59508654,0.0
1.02141378611,1.0076546011,1.00056897948e-05,-70075737.2852,1.33885215854e-05,0.0,5932445.28767,677.733380559,645.707859872,67276264.5839,1657.21241051,49520298.4074,70803318.5068,4239.88862614,4232.67655344,0.0
1.04459562672,0.867999810934,1.00072623843e-05,-49253719.2294,1.53609372083e-05,0.0,5821912.36497,678.681885406,647.162298071,66969128.4367,1685.81336624,37177279.5643,71054192.6318,4336.11644651,4327.50835477,0.0
1.1149978685,1.01033845887,1.0070460859e-05,-15926210.1114,1.7835898387e-05,0.0,5650357.06046,682.430491016,651.673973006,66509112.4643,1778.05579971,40784247.1538,69434941.4048,4628.35615214,4618.83167257,0.0
1.02458444721,0.860807842438,1.02433922172e-05,-65335695.2997,1.49149216363e-05,0.0,5851203.90419,677.716001544,645.878749431,67029618.2881,1658.88124931,46129578.8779,70827452.4037,4253.05004037,4244.67632484,0.0
1.16424427441,1.0004402015,9.69122488285e-06,-2240343.19625,2.22185264033e-05,0.0,5532988.30959,685.822875621,654.95092877,66192023.8685,1842.36455385,49016525.5166,68383028.9031,4832.77798308,4823.0273608,0.0
1.20049738953,0.940441664477,9.71306202111e-06,8771398.36672,2.42705759697e-05,0.0,10195472.6394,687.994287704,657.159921481,65569692.2209,1883.51136187,55233491.5549,66842133.447,4983.26466394,4972.07792921,0.0
1.13782761124,0.775735040514,1.02051715632e-05,-9947278.39399,2.4231427752e-05,0.0,5583802.47417,683.900016271,653.186652895,66328497.3622,1809.41135334,44286117.2596,67918523.2582,4723.12241426,4713.83700546,0.0
1.14059597623,0.909551669903,9.63476372559e-06,-9936642.0995,2.12468561648e-05,0.0,5593009.51698,684.395366113,653.370178434,66363385.2394,1812.10663929,44611533.6767,68007771.6813,4734.61389733,4724.94537849,0.0
1.14769863924,1.01386530061,9.99937947755e-06,-7445649.62266,2.04932730528e-05,0.0,5534563.63508,684.424929938,653.692150422,66178907.1911,1819.78945652,45745565.9323,68599527.0015,4764.09705149,4753.89485717,0.0
1.008270835,0.719133006544,1.01263212501e-05,-86374590.9064,1.59879453696e-05,0.0,5866258.27598,677.860360248,644.847460875,67024653.3011,1636.11904474,62445260.9108,70662581.2518,4185.33223608,4176.88906333,0.0
1.07227845086,1.03448266544,1.00784677512e-05,-32233790.7337,1.46574994578e-05,0.0,5793585.96132,679.828386749,648.878293349,66913219.8168,1723.35408871,35095640.7732,69628239.7602,4451.02784952,4442.47366168,0.0
1.10626156153,0.900046778274,1.02662513019e-05,-17937037.2174,1.85397187784e-05,0.0,5661164.80644,681.897096063,651.179131341,66531656.8071,1766.80995886,39673457.1664,68855969.2282,4592.09174191,4582.71357032,0.0
0.930558922204,0.853203815755,9.84307089649e-06,-92579048.8383,1.50137837408e-05,0.0,6130825.81125,689.519741344,639.879233467,67732372.3643,1609.88570601,67781025.3716,67988734.1807,3862.75008607,3856.80599896,0.0
0.988358720834,0.974178961407,1.01487514619e-05,-95055977.6156,1.39179795445e-05,0.0,5931638.57986,679.651060014,643.581349728,67193601.4511,1611.44895109,69961684.3823,70203960.5004,4102.67705018,4094.63678909,0.0
1.23841921044,1.05173699358,9.51416810835e-06,16695578.7825,2.50612310826e-05,0.0,18161826.0896,690.381544883,659.525084586,65078090.6175,1927.50560879,61517609.7581,66971607.361,5140.67814254,5128.58958335,0.0
1.04650412285,0.827473201125,1.04275281251e-05,-44767976.3822,1.55726640373e-05,0.0,5811049.91054,678.388401248,647.283240457,66936910.2394,1688.74014872,35727691.904,70330011.5965,4344.03861395,4335.54569269,0.0
1.03117718576,1.05043691734,1.00303991376e-05,-60489748.8313,1.32703915524e-05,0.0,5861991.72544,678.057790371,646.312985251,67071068.3219,1667.90389746,42989790.8424,70951430.1261,4280.41649809,4272.02296123,0.0
1.1706521341,1.02223893802,1.01941578596e-05,1884306.16097,2.11603325353e-05,0.0,5428717.41495,685.811639241,655.266126963,65815598.7529,1846.62419238,50821178.8703,66886706.6076,4859.37700865,4848.57023786,0.0
1.11872661294,0.981174184205,9.63844271679e-06,-15626660.8474,1.81202393518e-05,0.0,5646143.28621,682.984224504,651.912695403,66496598.9342,1782.76710944,41014944.6185,69462343.4646,4643.83417031,4634.04990181,0.0
1.07352876423,0.985432392076,1.00936452989e-05,-32003217.6699,1.53219439514e-05,0.0,5796708.74232,679.898520486,648.954053719,66935291.7424,1725.70675468,35052536.2516,69625955.1013,4456.21790032,4447.83538293,0.0
1.05351170104,0.746438373173,9.32501056413e-06,-47345167.2552,1.68509897575e-05,0.0,5811284.53556,679.703609507,647.724121206,66944477.8299,1697.17757333,36682074.8809,70577395.9289,4373.12707102,4364.19409861,0.0
1.17228415838,0.709101035696,9.86986788686e-06,1675578.4614,2.71922046232e-05,0.0,5420822.34222,686.319416352,655.384688536,65812777.2392,1850.18657674,50950300.6466,67527077.0321,4866.15154144,4855.58596076,0.0
1.15608027651,0.894562482299,9.84297601521e-06,-5517961.14427,2.34879706505e-05,0.0,5548292.43767,685.205175703,654.362143549,66235350.139,1832.65619613,46948959.196,68615204.2567,4798.88922779,4789.29598763,0.0
0.992759326903,1.02464547737,1.02629539964e-05,-95225453.8295,1.34439401251e-05,0.0,5919011.71542,678.74738151,643.861247636,67166224.5473,1615.41267085,70110909.0102,70339339.8587,4120.94396597,4112.83321086,0.0
1.02993807656,0.932604990208,1.05109988901e-05,-58978212.714,1.44642976848e-05,0.0,5812014.07877,677.611328616,646.209202635,66921816.4597,1664.7242227,41968696.2459,70525048.091,4275.2729558,4266.38751832,0.0
1.05959807278,1.06718050216,9.83055298444e-06,-39017836.4141,1.35570211378e-05,0.0,5836846.46903,679.369682544,648.118536619,67027176.0161,1706.6347234,34777763.1601,69940498.7977,4398.39160011,4390.03580757,0.0
1.10679684338,0.902545938836,1.00518909243e-05,-20396927.3595,1.88173889871e-05,0.0,5697967.81678,682.10227413,651.240985958,66657691.0193,1769.41021048,38260459.2143,68753605.7482,4594.31369687,4585.41070322,0.0
1.07942245355,0.718678572732,9.9252671384e-06,-29520023.2923,1.89428787424e-05,0.0,5769676.06353,680.66054818,649.481016595,66851602.2153,1733.69910914,35572204.4274,69325404.8443,4480.68260469,4472.25203353,0.0
1.10706908149,0.953369437093,1.00306744662e-05,-20397779.5569,1.81974678947e-05,0.0,5701977.27617,682.115965698,651.258004132,66670090.7898,1769.71320963,38285461.1946,68779892.9528,4595.44375727,4586.5364526,0.0
0.992413370329,0.968410257307,1.00202801078e-05,-95282235.0987,1.38562585118e-05,0.0,5923708.42289,679.258559516,643.842687468,67174883.2162,1614.85430235,70160816.166,70412595.3178,4119.50790024,4111.32258347,0.0
1.16064270555,0.792023370817,1.00754198321e-05,-2405334.67616,2.42354779948e-05,0.0,5428818.27058,685.509572862,654.65288631,65821121.5731,1834.60824002,48324053.1342,67739795.2447,4817.82787074,4806.96829579,0.0
1.0602544818,1.13417214304,1.02224313662e-05,-38321695.7331,1.31389882863e-05,0.0,5826978.07527,679.097928897,648.157204638,66999694.3753,1707.93843721,34699375.0147,69924446.3918,4401.11635395,4392.84297958,0.0
1.06490379722,0.895497821847,9.93576212417e-06,-36906091.8612,1.56379892381e-05,0.0,5808642.24003,679.657546469,648.459581382,66953497.2874,1713.96608463,34654835.764,70146138.3139,4420.41566226,4411.97679325,0.0
1.06922467602,1.13547113874,9.92898780699e-06,-35026415.528,1.33486176151e-05,0.0,5813338.20234,679.804058326,648.740916183,66965217.7787,1719.45120035,34741742.6582,70057555.7409,4438.35163016,4429.84510231,0.0
1.07689824814,0.730382721368,9.67245870039e-06,-32013780.7725,1.8346135337e-05,0.0,5788502.34598,680.50381497,649.179559322,66907874.6863,1730.32420112,35113673.8447,69734661.1447,4470.20462803,4461.76999216,0.0
1.06809791893,1.18930300176,9.87521831163e-06,-35741730.1992,1.27976139862e-05,0.0,5821104.91615,679.762517924,648.66714674,66996890.5949,1717.94487878,34711093.1105,70186434.45,4433.67446148,4425.18559832,0.0
1.2366279327,1.1688119045,1.00677900121e-05,16796986.4317,2.35443482309e-05,0.0,18287400.0376,689.838140151,659.361224516,65044150.8845,1924.29686427,61530088.9041,66990116.2619,5133.24254864,5121.18887122,0.0
0.962688989822,0.815801497283,1.02392152981e-05,-93865576.7394,1.50306588256e-05,0.0,6027931.92915,683.799025211,641.942999054,67468855.442,1611.98421688,68913487.0788,69138945.1154,3996.12199675,3989.42717702,0.0
0.979564297153,0.727989698441,1.00718690578e-05,-94738036.2659,1.55737243741e-05,0.0,5994493.34658,681.341257177,643.030708628,67380273.1439,1614.03813348,69681488.3172,69918817.1077,4066.17139748,4059.20646475,0.0
1.15366084472,0.82312686366,9.87583381916e-06,-5871951.27103,2.43001679785e-05,0.0,5509045.66008,685.134509668,654.197931542,66114835.0802,1828.04674275,46546594.717,68574193.5841,4788.84616643,4778.74799798,0.0
1.04533356398,1.02625461902,9.70737250106e-06,-50029231.8522,1.36764672221e-05,0.0,5836366.56034,678.878880466,647.196751239,67012581.4931,1686.17246299,37594886.1809,71118686.8083,4339.17962408,4330.38298793,0.0
1.12237573454,1.06134867175,9.91730173464e-06,-14279887.1277,1.7741148902e-05,0.0,5657397.09797,682.959474003,652.159201928,66540516.014,1788.48831933,41723416.7392,68811034.0488,4658.98167408,4649.63611524,0.0
1.06799109404,1.11962622154,1.00120337095e-05,-35249976.8918,1.34721720142e-05,0.0,5812172.23627,679.680897243,648.66075444,66960965.8881,1717.84861335,34709691.0263,70060984.6083,4433.23103136,4424.74384217,0.0
1.20559825251,0.906657718361,1.01420769506e-05,10002021.732,2.60991638788e-05,0.0,11335460.7927,688.094231215,657.390720961,65228274.7786,1887.75800776,55939465.5942,66860351.4852,5004.43834617,4992.53015282,0.0
1.07694506312,1.00604536166,1.00587763404e-05,-30665716.2522,1.5282805299e-05,0.0,5786717.35178,680.303199177,649.311489155,66898147.0223,1730.17961169,35364220.9042,69314320.5238,4470.39895701,4461.96359608,0.0
0.979688646414,1.05599212143,1.03361155646e-05,-94842208.1549,1.31835774486e-05,0.0,6011614.15032,680.412114317,643.041358641,67443516.3353,1611.73111459,69773472.2793,70009618.0881,4066.68757126,4060.06182841,0.0
1.11463780565,0.886762575185,9.98066021402e-06,-16256574.6915,1.94288726174e-05,0.0,5665979.23834,682.52954375,651.673895954,66555303.7734,1778.64988616,40666267.1183,69304107.6915,4626.86153125,4617.64162344,0.0
1.10104319217,0.944484507739,9.71639045821e-06,-22866831.0373,1.74160169847e-05,0.0,5727300.37925,681.987318814,650.880668497,66740761.2506,1761.57653535,37294346.3483,69084173.605,4570.4302907,4561.51902339,0.0
1.0084977118,0.934820736662,1.00887089127e-05,-86534701.0581,1.426747894e-05,0.0,5879146.73329,677.829750392,644.862993049,67063972.1366,1636.27797834,62601504.7719,70700325.1789,4186.27400168,4177.8271135,0.0
1.12015898847,1.03838904315,9.60440359285e-06,-15338214.1003,1.74100389966e-05,0.0,5648290.76164,683.06158012,652.001087019,66504350.684,1784.55133951,41220706.7171,69341358.2012,4649.77996114,4639.97141162,0.0
1.07053361006,0.903497622415,9.977151535e-06,-34213358.0305,1.59003109251e-05,0.0,5793180.46616,679.924144053,648.815128513,66906708.2908,1721.33721809,34796529.9128,69840408.6618,4443.78501536,4435.25794791,0.0
1.0417154668,0.955174035938,9.92495787426e-06,-51100589.0558,1.43246230537e-05,0.0,5831420.60013,678.560636132,646.95713245,66993705.8836,1681.45621146,38038982.3013,70946340.9684,4324.16090269,4315.42370435,0.0
1.22510953678,1.04348678179,9.87677142267e-06,14028275.7121,2.45410916661e-05,0.0,15397634.5315,689.372762438,658.693460753,65195996.3269,1911.83774877,59280957.1067,66658329.9479,5085.42968717,5073.63947805,0.0
1.09196273504,1.06740908509,9.88803134963e-06,-25786793.8752,1.54644799895e-05,0.0,5758066.73829,681.233353203,650.254084601,66830470.0154,1749.80411472,36355644.4684,69312516.4414,4532.73731315,4524.06804474,0.0
1.12450181152,0.71756767068,1.02188185469e-05,-12976850.4558,2.3192658014e-05,0.0,5575039.69006,683.155324749,652.299306137,66272684.2788,1790.54970511,42399005.162,67401953.8346,4667.80701962,4658.02440287,0.0
0.935653819362,0.81480213944,9.88284081346e-06,-92950377.3077,1.44790349054e-05,0.0,6123163.82762,688.161749743,640.208521514,67707572.3028,1607.44499901,68107668.7585,68320246.4563,3883.89900417,3877.85777219,0.0
1.19687578571,1.01342365676,1.05110871385e-05,9026340.93231,2.37957126324e-05,0.0,10368251.7644,687.22190523,656.905834657,65487994.0767,1878.47887407,55171398.8509,66704206.6591,4968.23138648,4957.23935736,0.0
1.05426469809,0.959202647318,9.75050912857e-06,-44892228.2279,1.46452121007e-05,0.0,5810261.44515,679.306708719,647.77337004,66940641.933,1698.1830493,35797823.5108,70507915.5303,4376.25276177,4367.30721925,0.0
1.08297988575,0.985847592728,9.77267776988e-06,-29254019.7894,1.57513515855e-05,0.0,5781313.23436,680.880270082,649.720089844,66898258.7345,1738.11555586,35725666.9587,69390389.4701,4495.44950575,4486.9204648,0.0
1.10058664039,0.898229481366,9.82941401209e-06,-22849143.3657,1.81040259407e-05,0.0,5726061.18829,681.904677451,650.855869973,66742829.4494,1761.35800808,37247922.4371,68980616.0404,4568.53514426,4559.73026082,0.0
1.10747016943,1.06938508625,9.912244269e-06,-18440247.8558,1.63039818995e-05,0.0,5658629.34922,682.172872447,651.256704833,66522403.366,1767.18324796,39538006.9229,68890366.7354,4597.1086733,4587.22471952,0.0
1.00962175789,0.849743893786,9.77071316458e-06,-86595219.4578,1.45447271709e-05,0.0,5964761.81537,678.022276675,644.961520144,67332651.8344,1641.4051792,62657357.5744,70978536.0622,4190.939917,4183.89485989,0.0
1.03487740794,1.05406570046,1.02357350388e-05,-54866171.5071,1.32481203855e-05,0.0,5845166.742,677.990380283,646.543393442,67023764.303,1672.60534778,39767753.4052,71026251.7138,4295.77612036,4287.23610883,0.0
1.01364308572,0.830705243826,1.03676730665e-05,-77413923.0107,1.47680729325e-05,0.0,5926459.84117,677.322856343,645.205049984,67230881.8757,1646.79316281,55104083.7703,70662884.2725,4207.63244882,4200.53089984,0.0
1.11690020093,0.835005834171,1.03577798532e-05,-15039756.8894,2.05972021932e-05,0.0,5616266.73276,682.464665536,651.790465802,66395434.0447,1780.87275119,41206372.6179,68787951.3044,4636.25273406,4626.69622622,0.0
1.09918871493,1.13442476344,1.04346996085e-05,-20497257.6765,1.53493325377e-05,0.0,5658922.55385,681.332303986,650.74512986,66501836.038,1756.21831648,38373284.8147,68396171.9296,4562.73235567,4552.89814446,0.0
1.12318280088,0.866207637837,9.85096208999e-06,-13988700.1331,2.03576907406e-05,0.0,5644082.96508,683.143228565,652.211943186,66498948.6176,1789.81909085,41835756.5163,68731365.2123,4662.33180645,4652.97393018,0.0
1.1036414361,0.789055732172,9.70686133665e-06,-20728960.2919,1.96149612269e-05,0.0,5635307.04317,682.294646254,651.034679921,66442862.1343,1761.95972252,38454367.7036,68470658.8325,4581.21560125,4571.11428504,0.0
1.14231053604,1.06802160875,1.0071867177e-05,-8878285.13586,1.92599786756e-05,0.0,5556079.19134,684.004216049,653.331799896,66237298.8655,1812.89765936,44987633.5606,68276748.9411,4741.7310351,4731.61959937,0.0
1.05664402801,0.992283628151,9.92665523952e-06,-41835466.2168,1.43463611633e-05,0.0,5816265.01678,679.203602385,647.904065945,66963342.3479,1702.07683148,35115457.958,70112971.8891,4386.12936027,4377.47249377,0.0
0.908338894252,0.850002689331,1.01801391115e-05,-91441794.7529,1.38581535405e-05,0.0,6110545.63168,691.089878692,638.429395168,67621507.3295,1595.06314732,66780091.3637,67621507.3295,3770.51475004,3763.74212761,0.0
0.994880558679,0.748670662342,9.40000948592e-06,-95604696.8807,1.58096549894e-05,0.0,5996169.10238,680.547304367,644.021470202,67402869.7901,1621.98972952,70444420.0538,70686755.4511,4129.74919908,4122.73319511,0.0
1.08629636857,0.96603254184,1.03498515198e-05,-26425749.1942,1.67143382318e-05,0.0,5751385.0038,680.659063995,649.917905546,66800063.0896,1742.81033568,36051577.3616,69164535.4666,4509.21622593,4500.7330428,0.0
1.16310623608,0.86607334536,1.03087692573e-05,10357.6217493,2.35621703922e-05,0.0,5454438.24869,685.373870391,654.808839985,65896289.4909,1838.27681888,49780454.6155,67612996.7453,4828.05398597,4817.66003633,0.0
1.23962275858,0.955191067416,9.59187645028e-06,16996705.3228,2.71479852046e-05,0.0,18520855.3234,690.465678584,659.562729844,64974027.0237,1928.65745451,61694497.82,66953548.2152,5145.67407087,5133.44872241,0.0
1.15713722029,1.0220639022,1.04891041897e-05,-4991271.34873,2.24186569707e-05,0.0,5411973.77764,685.019830537,654.4219126,65785932.0099,1829.76259551,46646034.3251,67874699.7997,4803.27660142,4792.18170533,0.0
1.07555451182,0.982389027397,1.02109195259e-05,-31768417.5133,1.57591571045e-05,0.0,5789046.02833,680.129648613,649.226335384,66917558.4307,1728.98661418,35020181.8427,69414541.2251,4464.62677856,4456.40543149,0.0
1.09986660915,1.04845215086,9.85436626607e-06,-23057072.6101,1.61846644051e-05,0.0,5738336.54688,681.765624477,650.803168592,66779878.0279,1760.27869323,37177643.9392,69128999.6252,4565.54629458,4556.75275767,0.0
1.13812427622,1.08457497504,1.03156757367e-05,-9993912.93989,1.94836669247e-05,0.0,5609931.29857,683.670105302,653.195395578,66418457.5792,1809.74624611,44277222.3052,68031004.1418,4724.35387059,4715.16935461,0.0
1.19111270468,0.754171076327,9.97231630624e-06,5880094.80078,2.81872812879e-05,0.0,7426587.63406,687.514613564,656.528450257,65380893.0658,1871.24495694,53092723.1301,66527832.08,4944.30883713,4932.64869215,0.0
1.06814323985,1.12868243582,9.9477996643e-06,-33784337.9775,1.33984273785e-05,0.0,5806674.9387,679.713945034,648.665186118,66939176.4584,1717.22397238,34874777.6422,69965336.894,4433.86258862,4425.1862633,0.0
1.19354200062,0.926465752027,9.85289487467e-06,6084942.71236,2.42834720501e-05,0.0,7636857.01549,687.586903768,656.699985454,65457300.5694,1874.0051169,53300065.7001,66680918.9512,4954.39284457,4942.70759983,0.0
1.05099758404,1.01609304575,1.01031908931e-05,-44166758.4095,1.40874730176e-05,0.0,5813646.89817,678.798327771,647.561818011,66950639.9284,1693.96575304,35586715.2262,70464774.7436,4362.69097135,4353.94722313,0.0
1.12979032138,1.01470007542,9.50839314265e-06,-12174555.8454,1.87085598075e-05,0.0,5671187.00061,683.677605178,652.6613069,66595506.0092,1798.91094375,43140357.6786,68515699.9427,4689.75962405,4680.597967,0.0
1.04030411255,1.01265834827,1.00078627262e-05,-51476446.6959,1.37311487131e-05,0.0,5835272.36361,678.42321346,646.884416081,67004132.121,1679.54873472,38165200.8219,70811627.324,4318.3023712,4309.58831459,0.0
1.20766588671,1.12876054797,9.80700978546e-06,10483104.1939,2.16101436913e-05,0.0,11849607.2662,688.158720947,657.544955225,65563655.2631,1891.94305896,56517085.2548,67258752.0347,5013.02109573,5001.83931881,0.0
1.08987434681,0.836598875511,9.8031152924e-06,-26489733.5402,1.7952294202e-05,0.0,5753183.87161,681.313296581,650.154093333,66809522.1838,1747.40615997,36198976.3707,69350073.791,4524.06841361,4515.43172108,0.0
1.12523022241,0.775716346697,9.89291405542e-06,-11591183.9182,2.05972397745e-05,0.0,5583215.74812,683.316282039,652.34507672,66285763.7263,1790.21392435,43261265.0505,67846505.7743,4670.83065322,4660.70706441,0.0
1.01417950872,1.16526494146,9.99547955152e-06,-76077786.4102,1.20264448381e-05,0.0,5909333.03435,677.722829595,645.220366091,67163708.1498,1645.0744886,54088848.3176,70676074.2006,4209.8591407,4201.73593845,0.0
1.18040961612,1.05441157956,1.03840407251e-05,3962522.07559,2.15094084965e-05,0.0,5779049.79164,686.273805123,655.838284951,65670385.3553,1858.45218902,51851288.2873,66933937.3135,4899.88031651,4888.85162804,0.0
1.19768949315,0.82652124984,1.02134285776e-05,8450285.16034,2.7143191686e-05,0.0,9898452.68849,687.650060532,656.967466888,65391659.0855,1879.45647545,54904665.292,66574919.1144,4971.60908607,4960.28550786,0.0
1.08565068771,1.03372036325,1.00026903447e-05,-27588900.5557,1.5495951066e-05,0.0,5767891.51364,680.851686895,649.891847696,66854039.8269,1741.57428199,35919279.9683,69327875.3378,4506.53600468,4497.96536883,0.0
0.981537968291,1.16114997642,9.9791763236e-06,-94948026.7967,1.19438119127e-05,0.0,6014039.35866,680.952849597,643.157329241,67436632.9057,1613.71021444,69866304.5758,70105881.7589,4074.36410638,4067.28851273,0.0
1.0830838991,1.27276041492,1.05436484528e-05,-26970196.6446,1.32711147398e-05,0.0,5770966.49945,680.228351096,649.720489557,66858343.4053,1738.36156045,35894255.0005,69173534.1719,4495.88126516,4487.44691443,0.0
1.13943667102,1.09681134945,9.88957706099e-06,-8928077.34155,1.85571278807e-05,0.0,5593937.04402,684.031534101,653.280249189,66363685.7393,1809.73489589,45249268.5505,68183107.4676,4729.8016214,4720.05038618,0.0
1.11753057675,1.05374275831,9.89153072912e-06,-15673877.7266,1.7406812374e-05,0.0,5674009.47742,682.667341346,651.843723905,66584063.5424,1782.25882795,40997348.896,69404100.9866,4638.86942409,4629.60355297,0.0
1.09933093702,1.02774729775,1.00475245518e-05,-22831071.1818,1.66831190577e-05,0.0,5727090.81361,681.625303524,650.778456812,66735110.9428,1759.44218178,37182950.1546,68774908.4559,4563.32271957,4554.53697125,0.0
0.92361454805,0.851102519306,1.0532507365e-05,-91958374.7624,1.44723707007e-05,0.0,6083684.87603,688.683257533,639.416647423,67573988.6641,1600.39390652,67234854.1937,67573988.6641,3833.92398896,3827.47369473,0.0
0.979236357415,1.01936691177,9.74228519111e-06,-94856707.2095,1.34527413893e-05,0.0,6027323.39284,682.174616229,643.013157272,67476068.6155,1617.16699278,69785922.9882,70024766.2766,4064.81011963,4057.93237168,0.0
1.01232356628,0.782802324267,1.01934131116e-05,-81410233.1256,1.55357045143e-05,0.0,5857173.22142,677.684046429,645.105625191,67004041.1747,1641.51296868,58319758.4818,70607952.275,4202.15512363,4193.64548276,0.0
1.18245411971,0.867766884419,1.03431857587e-05,4488966.58575,2.50874581515e-05,0.0,6123149.12783,686.554888472,655.975239388,65614252.4183,1861.53897975,52178885.7392,66838707.6746,4908.36705092,4897.40862791,0.0
0.994216311443,1.0051164363,1.01244811023e-05,-95309978.2113,1.37190956069e-05,0.0,5919128.17337,678.919937268,643.955850476,67167230.8668,1617.32938075,70185320.3314,70443236.1068,4126.9919088,4118.85775909,0.0
1.05697489491,0.850949902901,9.95983522877e-06,-41491137.0753,1.58206782918e-05,0.0,5804976.53574,679.239147438,647.912590826,66930360.9454,1702.6287354,35032267.5647,69897484.1195,4387.50278877,4378.8405973,0.0
1.07019899726,1.02943881226,9.49207440555e-06,-35621235.1615,1.40826474117e-05,0.0,5824748.44126,680.211247685,648.80268188,67004583.1074,1720.84110728,34732275.9742,70353425.4738,4442.39603763,4433.87545885,0.0
1.0635105903,0.992477995519,9.9409982767e-06,-37553506.2266,1.45422462856e-05,0.0,5817963.22743,679.540766775,648.369701967,66979537.5103,1712.06702819,34677720.957,70091723.2831,4414.63246034,4406.21535985,0.0
1.10603852084,1.09635875645,9.846969236e-06,-18541433.602,1.59734792554e-05,0.0,5741492.17498,682.031766071,651.200776014,66785593.8472,1768.49239335,39535671.4848,69004372.3129,4591.16590001,4582.50511807,0.0
1.07722752894,0.839653340563,9.61995886693e-06,-32078005.9619,1.69144753709e-05,0.0,5797229.90738,680.511362658,649.199982004,66934515.3955,1730.66699363,35128047.4868,69791570.5583,4471.57147263,4463.13023422,0.0
1.07591849158,0.902248140907,1.02437644771e-05,-31458249.5054,1.67236202307e-05,0.0,5781879.89139,680.158720209,649.252602161,66896098.513,1729.51590665,35044273.919,69203612.035,4466.13765855,4457.91078523,0.0
1.16166466796,0.930151658887,9.88844331941e-06,-2557664.85017,2.16812352119e-05,0.0,5450133.26082,685.594951005,654.721374122,65916967.7925,1835.75997478,48404334.1835,67736638.6202,4822.0700367,4811.16649926,0.0
1.25988055987,0.966658752102,9.70856750979e-06,21144923.5008,2.96505622183e-05,0.0,22929612.8575,691.764431552,660.821636049,64582275.7515,1951.1663589,64952503.886,65767016.884,5229.76420402,5216.93766235,0.0
1.15029047447,1.11176220602,1.01546792341e-05,-6757468.99485,1.98294660304e-05,0.0,5578862.44689,684.525354078,653.997917873,66334586.5621,1825.18365591,46113894.3274,68731096.0948,4774.85575953,4765.45192925,0.0
1.09831430251,0.967681357136,1.01746222014e-05,-22861890.2918,1.74541826375e-05,0.0,5719389.06195,681.507062328,650.713363738,66713973.8821,1758.15500667,37170433.7311,68704756.4031,4559.10266972,4550.33368578,0.0
0.984853240929,0.970928298705,1.03433116606e-05,-94868630.5822,1.3793302085e-05,0.0,5932790.5739,679.643656428,643.355094943,67193799.3093,1608.92104648,69796776.7896,70037130.8788,4088.1258031,4080.14151807,0.0
1.13105292632,1.18928573195,1.01707453741e-05,-11611686.2208,1.68516063365e-05,0.0,5599205.04754,683.345108589,652.743589609,66356703.755,1798.41043912,43312402.9871,67529948.2838,4695.00069715,4685.10730849,0.0
1.13569781674,0.897730856521,9.85229962887e-06,-10639734.3425,2.12283943808e-05,0.0,5591294.092,683.899646598,653.043861079,66342281.0244,1805.45697278,44066071.7322,67736706.0014,4714.28163729,4704.58936047,0.0
1.08312149718,0.958132867138,9.47828115755e-06,-29628092.5845,1.56674676842e-05,0.0,5793564.42384,680.91147773,649.593367107,66925315.5,1738.09379546,35666000.077,69486173.3098,4496.03733479,4487.40938342,0.0
1.14059110023,0.692321495978,1.06579122548e-05,-8353544.47022,2.69959449538e-05,0.0,5547685.23181,683.763680665,653.304956926,66198770.256,1813.12790667,44904405.6539,68133429.7496,4734.59365705,4725.36994512,0.0
0.960851898018,0.822388159888,9.85314100759e-06,-93956267.5653,1.52219095815e-05,0.0,6063378.33544,685.045210861,641.831806094,67571544.9117,1615.8386954,68993361.931,69218246.0536,3988.49622867,3982.12104058,0.0
1.09593200911,0.90012437478,9.78907694646e-06,-24486138.5068,1.76340094023e-05,0.0,5741395.33375,681.598931884,650.502665093,66781985.7155,1755.2806702,36708722.1112,69213008.0029,4549.21376982,4540.48213033,0.0
1.0884997913,1.00630188708,1.00793435186e-05,-26355407.8805,1.6115251843e-05,0.0,5754857.47888,680.953258473,650.05557892,66818450.656,1745.31909018,36126190.6458,69263211.6585,4518.36263369,4509.74753472,0.0
1.20797306068,1.1083730288,9.99725696724e-06,10661149.4784,2.224729134e-05,0.0,12022697.6957,688.079282723,657.560879345,65544792.7406,1892.4133735,56624775.3252,67210720.6078,5014.29617488,5003.17117983,0.0
1.12446715861,1.19172458378,9.66465590791e-06,-14029359.04,1.59346209242e-05,0.0,5667614.69672,683.1948307,652.295518627,66579454.0036,1790.89588582,41925983.2082,68839224.9162,4667.66317539,4658.18290349,0.0
1.13359735395,0.774462854927,1.04304233228e-05,-10860459.0432,2.41782353178e-05,0.0,5592990.47232,683.498130979,652.927472982,66363229.653,1804.23212198,43715184.1893,67735486.4006,4705.56261625,4696.44985241,0.0
1.18847836848,0.868638447663,1.02792766818e-05,5945142.56805,2.55721534331e-05,0.0,7416851.51492,687.048655413,656.375267857,65409435.1392,1867.67482093,52931287.8853,66566340.1427,4933.37370756,4921.88278873,0.0
1.10688367634,0.910366848123,1.01681491901e-05,-18286092.7384,1.85467156944e-05,0.0,5668455.73507,681.989966739,651.221782276,66559417.3356,1767.81063511,39614736.1242,68864363.0335,4594.67414049,4585.38319808,0.0
0.939242518482,0.900467862774,9.92873113078e-06,-93093965.6522,1.39910471286e-05,0.0,6116234.66184,687.526825184,640.439586906,67694721.7997,1608.06917581,68234085.5782,68448307.2108,3898.79569422,3892.70702307,0.0
1.08869994958,0.844277822747,9.86746598201e-06,-26897013.9008,1.78715114993e-05,0.0,5751783.80283,681.199959465,650.082668236,66806136.0416,1745.72432762,36065165.3677,69317636.5595,4519.19349071,4510.57526453,0.0
1.08809729891,0.880474901068,1.0017196585e-05,-26652459.6664,1.74840435782e-05,0.0,5749778.63658,681.03821283,650.03970006,66801610.2569,1744.90037556,36066344.4201,69269758.2294,4516.69188778,4508.08307582,0.0
1.03607101582,0.958016144189,9.98079335591e-06,-56733196.304,1.42516788102e-05,0.0,5847688.24211,678.313196774,646.621443053,67033413.7948,1674.44772618,40779041.3456,70990378.9905,4300.73078667,4292.25875151,0.0
1.15684292711,0.786946681426,9.92129497785e-06,-3358617.89056,2.37779003839e-05,0.0,5485055.95998,685.322039723,654.433363831,66009309.079,1831.08879472,48143767.1269,68240498.8788,4802.05499043,4791.67544874,0.0
1.1097701657,1.02260105161,1.0054555206e-05,-17319894.0887,1.72503607091e-05,0.0,5640030.3586,682.216308098,651.383061448,66457414.5118,1770.18286426,40018993.4658,69014713.2617,4606.65595782,4596.73324966,0.0
1.06171015985,1.05379020084,9.77692106455e-06,-40011803.9725,1.38404385589e-05,0.0,5814053.24773,679.576936978,648.249341138,66965026.6461,1708.7349846,34882532.8095,69856605.1671,4407.15887354,4398.42032739,0.0
1.05866639366,1.1464065151,9.95605092861e-06,-39810920.4582,1.27943925318e-05,0.0,5838113.04737,679.200367565,648.047688602,67033401.6038,1705.50837102,34864112.233,69802389.7851,4394.52420008,4386.18260983,0.0
1.10508009665,0.723339673156,1.04900676371e-05,-18020621.7881,2.13097850449e-05,0.0,5638251.46744,681.786385822,651.100300008,66445745.4985,1765.71834387,39700823.6752,68703626.8146,4587.18748119,4577.82767481,0.0
1.10811841066,0.780521614181,9.56543813639e-06,-19191991.322,1.96013381842e-05,0.0,5679986.62566,682.577954163,651.325956937,66590633.286,1769.83181696,39255833.2865,68747156.1697,4599.79952265,4590.38861946,0.0
1.07450036179,0.935630288733,9.63108518866e-06,-33231222.8095,1.56390550206e-05,0.0,5809861.54096,680.341096269,649.049631249,66968886.7632,1727.02456404,34964913.8355,69996518.6591,4460.25100179,4451.85346956,0.0
0.989274675536,0.834081305436,1.01231816657e-05,-95073108.1916,1.497919472e-05,0.0,5923009.23974,679.643556082,643.639617205,67168887.0214,1611.98196864,69976698.7903,70222427.8307,4106.47917815,4098.42446459,0.0
0.955549962183,0.713381674204,9.99942880208e-06,-93695612.7797,1.57946023475e-05,0.0,6065621.06159,685.340105034,641.489563419,67569999.7617,1612.70546651,68763875.1042,68986152.0127,3966.48789302,3960.18177561,0.0
1.14680522442,1.07324625596,1.00052930486e-05,-7970215.71947,1.99522567396e-05,0.0,5587511.64059,684.369829497,653.710781834,66347703.4521,1820.53716581,45600543.8492,68544025.3777,4760.38848657,4750.93388498,0.0
1.04868140725,0.806206911987,9.87339738199e-06,-45096594.1119,1.57594353212e-05,0.0,5834104.62562,678.911801407,647.419868017,67000749.5334,1691.8157775,35889603.1479,70457658.8671,4353.07652149,4344.70993054,0.0
1.15316778302,1.30410617218,1.0172102114e-05,-6038250.62435,1.7490101229e-05,0.0,5582597.48283,684.612232427,654.175517094,66351433.965,1828.6376321,46570712.3118,68665258.3111,4786.79946732,4777.34942009,0.0
1.05338472575,1.14636008277,1.02557802578e-05,-42276456.0954,1.28400237064e-05,0.0,5824585.42473,678.72380049,647.699164508,66992429.568,1697.91432798,35201986.5501,70434474.0502,4372.59999659,4364.08745886,0.0
1.12125635405,0.986765758309,9.87518387398e-06,-14563840.952,1.86274195405e-05,0.0,5605193.53361,683.015702162,652.066733743,66367095.4461,1785.07615321,41599029.9549,68435379.4369,4654.33512566,4644.21353294,0.0
1.12637135058,0.942825193329,1.00278455874e-05,-13248788.9443,2.03079165783e-05,0.0,5650192.46416,683.184761385,652.443864791,66536824.0461,1794.77482133,42453694.4757,68228788.5538,4675.56747626,4666.56955415,0.0
1.13629750393,0.611129058404,1.00563453797e-05,-11610281.0059,2.71949374582e-05,0.0,5482191.94362,684.219082291,653.070832852,66014091.7578,1805.01479982,43400935.4122,67433335.5064,4716.77093881,4706.274282,0.0
1.03956298919,0.935554220976,9.66184848012e-06,-54538944.1174,1.45687136293e-05,0.0,5834498.00928,678.711898999,646.825626229,66994411.6895,1677.96029859,39694239.7126,71313225.4967,4315.22596813,4306.35090667,0.0
1.13335551406,0.81174116565,9.90956140625e-06,-10927402.5146,2.27391864324e-05,0.0,5616414.68241,683.778541896,652.915449532,66432829.4313,1803.48133077,43966600.9095,67716644.997,4704.55873886,4695.34778511,0.0
1.11155944285,1.07390705777,9.75755856339e-06,-17581775.2618,1.63391303757e-05,0.0,5659847.72301,682.496152528,651.508560149,66534087.9721,1772.80927506,39976227.3706,69100522.8205,4614.08324727,4604.22518404,0.0
0.974083285047,0.864442571185,9.4803586813e-06,-94579957.0394,1.50082914473e-05,0.0,6020438.61937,683.845505561,642.678001904,67440386.8422,1618.59726743,69542321.5884,69776944.6438,4043.41971623,4036.23896085,0.0
1.13652415821,0.772100748082,1.01990440656e-05,-10592043.7734,2.43155400404e-05,0.0,5594060.14584,683.827635905,653.116591765,66365079.2332,1808.06357541,43950333.6241,67850930.24,4717.71178073,4708.55265301,0.0
1.01590660931,0.848902096685,1.02550641519e-05,-73598895.3835,1.48469410406e-05,0.0,5872781.85533,677.581883206,645.332130381,67072904.4317,1647.43714731,52111730.2552,70668601.3982,4217.02833525,4208.87814458,0.0
1.04701573874,1.05473950648,1.00635735033e-05,-47839111.0997,1.36712562055e-05,0.0,5825910.63013,678.674231234,647.314460407,66987390.0205,1688.90229239,36725573.2629,70541131.0189,4346.16233151,4337.5150624,0.0
1.08475889015,0.691437174328,9.71834985881e-06,-27908055.3717,1.90980038548e-05,0.0,5718700.34375,681.209368073,649.825880839,66690973.1782,1738.81372379,35900150.203,69132594.8724,4502.83415301,4493.53324023,0.0
1.15689159859,1.16593782289,9.83140874488e-06,-5418601.58389,1.90289045014e-05,0.0,5571612.63277,685.111326058,654.411604252,66307129.1334,1833.37372422,47021923.217,68686510.276,4802.25702575,4792.65060298,0.0
1.16110109126,0.960436465398,1.00824746309e-05,-1024611.08094,2.13181459298e-05,0.0,5447044.20258,685.382862274,654.678269411,65876730.7695,1834.50968817,49314699.9072,67696506.6611,4819.73062982,4808.86506391,0.0
0.992613487815,0.950230264412,9.91358580912e-06,-95310179.1807,1.40508188972e-05,0.0,5926666.40947,679.495188857,643.852806836,67181547.23,1615.14389038,70185409.9895,70433954.0301,4120.33858792,4112.15003462,0.0
1.17094496832,0.834805443,9.92232640292e-06,1157431.14644,2.41210547626e-05,0.0,5408022.28337,686.157632192,655.29801675,65768185.9096,1847.32428015,50565473.3935,67495508.0783,4860.5925635,4849.62913253,0.0
1.22607246136,0.950208232451,1.03107195881e-05,14727000.4444,2.74139724226e-05,0.0,16110395.1991,689.23629651,658.758665696,65143052.1368,1913.29711275,59868698.1988,66675979.0407,5089.42678711,5077.91678579,0.0
1.18585193984,0.802708533821,1.00457973623e-05,5125867.16531,2.65575169719e-05,0.0,6748706.00754,686.963274044,656.198435881,65662591.8047,1866.4634774,52799065.1352,66926121.7144,4922.47140228,4911.68359378,0.0
1.08490326556,0.731846169306,9.79011856892e-06,-28439829.0741,1.90824368246e-05,0.0,5757547.35648,681.105110347,649.856396304,66816484.142,1740.85467843,35793707.4101,69320116.0619,4503.43345534,4494.8742858,0.0
1.20802770737,0.975575055676,1.02598314267e-05,10627798.9587,2.51340077959e-05,0.0,11908572.9219,688.112504964,657.531640852,65206503.3045,1890.38616183,56403918.7788,66586937.1323,5014.52301329,5002.56946436,0.0
1.08290211443,0.67408610949,9.56701816572e-06,-29673212.8873,1.96124579429e-05,0.0,5771442.12169,680.970624071,649.579936525,66862059.9439,1738.22926224,35661323.9759,69383977.6633,4495.126677,4486.57462293,0.0
1.22240169636,0.877783010083,1.01048444663e-05,13556865.4938,2.79803270674e-05,0.0,14857340.0349,689.225653662,658.511416223,65070908.4575,1908.39799424,58863224.8839,66468660.4372,5074.18944159,5062.29425282,0.0
1.25407545,0.888170453392,1.01995600971e-05,20564880.0889,3.18809016003e-05,0.0,22406247.0383,691.196967037,660.451959571,64557279.8931,1944.00383649,64482811.4257,65284444.3612,5205.66719295,5193.07030277,0.0
0.949344240058,1.22626285432,9.9896384493e-06,-93536855.7458,1.15833416547e-05,0.0,6105351.50917,685.92442385,641.090033451,67680040.7566,1610.38278188,68623943.182,68843259.1818,3940.72794048,3934.50486868,0.0
1.01371817897,0.967210589138,1.0018784495e-05,-79341610.753,1.36984611077e-05,0.0,5943693.80584,677.646588003,645.203335572,67274448.6308,1646.56848705,56658557.7271,71293999.5899,4207.9441609,4200.75308283,0.0
0.991424970026,1.07699682118,1.02564312239e-05,-95184782.6797,1.29310331754e-05,0.0,5925978.72884,678.895360744,643.777061867,67185615.9642,1613.66551449,70075078.5693,70324300.3436,4115.40505058,4107.3156971,0.0
1.0617673145,1.07359131285,1.0096222711e-05,-37748302.0738,1.36549605146e-05,0.0,5821439.89737,679.293688066,648.2558578,66989588.474,1709.71562366,34667158.6802,70019130.7073,4407.39612249,4399.00622788,0.0
1.04289797161,0.918512420571,9.86304669014e-06,-50767859.7006,1.46976298829e-05,0.0,5828755.6884,678.66880826,647.022890803,66987005.6737,1683.04786946,37918898.6565,70998269.1773,4329.06948015,4320.31270914,0.0
1.09839095806,0.905684717927,9.78802976758e-06,-22984992.7,1.72744060389e-05,0.0,5694428.57234,681.807191909,650.6701164,66624628.7639,1756.52501722,37145632.2911,68979260.0631,4559.42086691,4549.89240514,0.0
1.0967116355,1.06349425732,1.00163715886e-05,-23822858.5195,1.59670464567e-05,0.0,5738673.1923,681.444688792,650.58177082,66780985.1599,1755.99609868,36876255.9526,69069648.2222,4552.44999896,4543.7062198,0.0
1.11382209829,0.909009533179,1.02802379298e-05,-15991823.8855,1.91826175436e-05,0.0,5637352.86928,682.281721888,651.596621471,66453960.1918,1776.88565537,40613324.6757,69360100.4162,4623.47553,4613.97019923,0.0
1.16688768347,0.867337853911,1.02871127457e-05,947919.414814,2.3734609089e-05,0.0,5434525.54238,685.620732678,655.043472279,65832255.6722,1842.6936239,50344804.4987,67429828.1482,4843.75077408,4833.19930028,0.0
1.21187752794,0.870195910481,9.58846329763e-06,10901361.194,2.64903994247e-05,0.0,12212757.8252,688.799183349,657.792707966,65297888.0605,1896.36950901,56770207.8462,66839479.0942,5030.50361848,5018.66079926,0.0
1.08228346087,0.994843087363,1.03334112952e-05,-27875757.7887,1.60817433584e-05,0.0,5764905.99,680.44882249,649.679733638,66835138.8641,1737.54015874,35776424.7588,69207843.881,4492.55864607,4484.1373761,0.0
1.15052955945,0.848825166908,9.67373894669e-06,-6125545.35285,2.31731200333e-05,0.0,5543425.03623,684.979192717,653.984966042,66220315.1654,1824.2630628,46884775.4401,68793638.6976,4775.84820128,4765.92453447,0.0
1.12861207207,0.70933911975,9.9506933553e-06,-12297041.841,2.35506732892e-05,0.0,5573901.46748,683.481429171,652.496605074,66288353.0328,1795.73222334,43115460.0766,67225579.097,4684.86871116,4675.01706794,0.0
1.1743420979,0.779696184665,1.04915746879e-05,3033916.64926,2.64276324107e-05,0.0,5364787.55067,686.038684542,655.474812487,65594905.5484,1851.30170745,51388706.4036,66805456.8899,4874.69404838,4863.80118946,0.0
1.07904441531,1.0541884715,9.88837929336e-06,-30408315.7431,1.47333639039e-05,0.0,5795878.22952,680.345514614,649.324498234,66938884.1538,1732.9032138,35464754.4128,69383832.9597,4479.11336795,4470.64546644,0.0
1.12342660073,1.01033308713,9.81904942027e-06,-13949958.5562,1.83976536769e-05,0.0,5649090.52617,683.117926884,652.225766295,66524101.4799,1789.6806318,41904280.5657,68711198.6264,4663.34381963,4653.88065758,0.0
1.0644117511,0.867073642039,9.86673626621e-06,-37417256.8417,1.58850446122e-05,0.0,5810668.69481,679.695057281,648.428041823,66957696.3262,1713.33074816,34670130.9744,70113220.6916,4418.37317882,4409.94328579,0.0
1.07417586742,0.992118227156,1.03796217941e-05,-30531178.0981,1.55957956491e-05,0.0,5773026.93469,679.927806651,649.133998733,66851191.6356,1726.21101851,35235041.4014,69224366.8828,4458.90402566,4450.41485904,0.0
1.18103960407,1.03351116561,9.394126977e-06,2548593.12917,2.0725781006e-05,0.0,5413895.46097,686.951816334,655.915148538,65819251.0915,1859.64708052,51564921.4827,67059742.1313,4902.49539649,4891.25028729,0.0
1.04398814222,1.00904669117,1.00054899812e-05,-49712328.7508,1.40229201318e-05,0.0,5831934.25977,678.588877148,647.112540569,66998480.3154,1684.91072989,37355575.71,71016568.7528,4333.59477836,4324.99650943,0.0
1.21279170961,0.770639461364,1.01690262619e-05,11652400.2215,2.99615877112e-05,0.0,12902073.3503,688.678157891,657.874223975,65111683.3575,1897.1066579,57238128.9099,66125255.3814,5034.29838659,5022.44672946,0.0
1.06222954618,0.990742222821,1.02067171321e-05,-37067041.5713,1.46182075781e-05,0.0,5810522.60926,679.270051197,648.285537718,66948222.7272,1710.39375667,34627064.452,70026013.0342,4409.31484619,4400.91774142,0.0
1.07053361006,0.903497622415,9.977151535e-06,-34207167.7833,1.59002748729e-05,0.0,5793185.84603,679.924118104,648.815113104,66906702.5448,1721.33720267,34793775.4307,69840530.872,4443.78501536,4435.25794791,0.0
1.08290211443,0.67408610949,9.56701816572e-06,-28897299.6888,1.92546004938e-05,0.0,5730922.60287,681.029409323,649.567551343,66722451.5038,1736.30748234,35765779.6837,69187691.398,4495.126677,4485.81554122,0.0
1.11393783682,1.14540775929,1.03478177878e-05,-15937476.7419,1.62060749932e-05,0.0,5653078.16748,682.12287535,651.601175984,66504024.692,1776.79309468,40734636.229,69349034.155,4623.95596064,4614.44962019,0.0
1.10324196629,0.968201379526,1.04122611339e-05,-18794924.8922,1.78397744795e-05,0.0,5619348.59179,681.642172404,650.975828128,66394233.8487,1760.88315552,39301698.1998,68925630.1075,4579.55740207,4569.4638604,0.0
1.15574878923,1.12652032944,9.91127890058e-06,-5552827.28287,1.96063915835e-05,0.0,5568497.06574,685.016892677,654.339649448,66299371.4941,1831.93114922,46924007.9702,68662609.5929,4797.51322409,4787.92536793,0.0
1.10523621829,0.658605900541,9.66462794347e-06,-20258245.4042,2.20806833944e-05,0.0,5615048.47275,682.514553911,651.129630962,66382055.7609,1764.23347957,38652237.5906,68513030.0128,4587.83554212,4577.70618478,0.0
1.08746912046,0.712432078729,1.01867524334e-05,-26305969.1532,1.9903241453e-05,0.0,5731916.47117,680.948238996,649.989526649,66748374.9547,1744.21198128,36081333.564,69152197.928,4514.08431903,4505.48531559,0.0
0.91808632708,0.885196836935,9.81127065682e-06,-92105409.401,1.43765085034e-05,0.0,6165121.78286,690.940629498,639.07630027,67814142.3498,1605.25659446,67364175.6425,67814142.3498,3810.97634371,3805.19684971,0.0
1.20630107112,1.34675585039,9.89911997518e-06,9700785.29232,1.85810782828e-05,0.0,11074479.8269,687.993278954,657.451691593,65418143.8105,1888.23738146,55857196.8229,67046756.6255,5007.35574622,4995.4074666,0.0
0.970610193892,0.945052791891,1.02904165137e-05,-94278382.9623,1.41919691442e-05,0.0,6027278.20343,682.430972125,642.456708536,67484714.0408,1613.69388606,69276999.0609,69507622.9822,4029.00291485,4022.49291205,0.0
1.12223235117,0.871523407179,9.64007565144e-06,-14595697.7367,1.98839312698e-05,0.0,5624891.48729,683.262234447,652.138213022,66437448.6786,1787.38108792,41611458.7901,68932716.6315,4658.38648971,4648.54275113,0.0
1.1550328385,0.986153904898,1.00341091283e-05,-5711283.88134,2.21958937461e-05,0.0,5556366.64582,684.970239312,654.293944507,66270278.791,1831.38304066,46768749.621,68584734.6044,4794.54131261,4785.05956649,0.0
1.00227571556,1.04256617399,9.97416515691e-06,-95924993.1718,1.32189836943e-05,0.0,5905873.72634,678.309893417,644.468029529,67134542.9736,1627.8743276,70726414.1121,70726414.1121,4160.44649529,4152.10105994,0.0
1.12905841217,0.961996897141,9.92593679474e-06,-12269995.1498,1.9624646679e-05,0.0,5599042.64558,683.37426413,652.526778443,66365964.8868,1796.00774935,43044442.1312,67320669.0018,4686.72146892,4676.86227267,0.0
1.05491452286,0.975899861815,1.00686131197e-05,-40455369.2083,1.45083093539e-05,0.0,5821793.0171,678.956660962,647.789819154,66977759.9146,1699.85251344,34905098.0459,69916541.9572,4378.95018439,4370.48578478,0.0
1.12060504937,1.03321383541,9.96413904613e-06,-14547155.3593,1.79722004068e-05,0.0,5607888.12177,682.888108751,652.023742969,66376196.1863,1784.16221069,41538384.396,68417285.4386,4651.63155993,4641.52128613,0.0
1.06661328792,0.876952431134,1.01218681283e-05,-34618519.4203,1.61049778965e-05,0.0,5795972.15391,679.607033839,648.572122775,66910065.8107,1716.02292139,34732081.0617,69964079.1504,4427.51175816,4419.04644194,0.0
1.15335233992,0.90481583203,1.03215779254e-05,-4422912.74004,2.38135272349e-05,0.0,5538710.72909,684.775265892,654.230601197,66199528.8845,1828.95439511,47441479.4104,68458836.4758,4787.56556301,4778.09890375,0.0
1.05782492206,0.966804651031,1.01267685352e-05,-39455602.8963,1.46029171921e-05,0.0,5822815.04376,679.099105556,647.997014182,66987353.2802,1704.53932327,34777359.9691,69741948.4949,4391.03125147,4382.70274947,0.0
0.974543125122,0.944244928699,9.62139751169e-06,-94663251.875,1.41808414083e-05,0.0,6034115.31507,683.229916455,642.711070675,67485460.4497,1617.33978895,69615558.3308,69850169.2946,4045.32851238,4038.43527613,0.0
1.16986281011,1.03786449162,1.04036480229e-05,1782881.79983,2.10077313568e-05,0.0,5420132.30017,685.629554187,655.206094393,65782005.4576,1845.46435941,50637833.9788,67056037.3789,4856.10052477,4845.27379376,0.0
1.17663925862,1.12420761117,9.78315745241e-06,2076268.34381,1.9382238855e-05,0.0,5428477.42161,686.386414408,655.639571099,65855202.0214,1854.03802967,51132351.6992,67082773.6607,4884.22956253,4873.16246358,0.0
1.17484763895,0.790466113008,1.01727584783e-05,2647099.69216,2.58541092368e-05,0.0,5379561.40234,686.263479888,655.517943091,65679905.3832,1852.13818648,51324186.9366,66912396.9214,4876.79254928,4865.86432981,0.0
1.19626162998,1.18079556174,1.01050328887e-05,8406340.8785,2.02396798483e-05,0.0,9831640.0778,687.341370238,656.89089819,65616810.3185,1877.55161584,54873402.3813,66778645.4363,4965.68202605,4954.58489081,0.0
1.08385103923,0.728684715949,9.61960274904e-06,-28928247.4,1.87923742581e-05,0.0,5768614.24239,680.967052967,649.644350706,66851807.5082,1739.25837024,35743660.4339,69395673.8433,4499.06566384,4490.42607122,0.0
1.10774558915,1.01703989291,1.03140389812e-05,-17696197.7053,1.75626690192e-05,0.0,5612698.05019,681.944554199,651.243051237,66380524.7982,1766.67513406,39732207.9954,68866616.4155,4598.25194056,4588.07987429,0.0
1.12672840548,0.890322357203,1.00932988014e-05,-12546972.013,2.05639781818e-05,0.0,5590438.38023,683.249837851,652.447258892,66339575.7945,1793.04809099,42815440.5656,67191018.3591,4677.04961115,4667.22981823,0.0
1.10554693753,1.01095080131,9.88886395358e-06,-18585703.5844,1.70971307913e-05,0.0,5735053.2245,682.01279326,651.171376671,66765244.9224,1767.90951949,39525057.4294,68963406.4548,4589.12533769,4580.47122552,0.0
1.13173125949,1.04400607556,1.0185939456e-05,-11388782.857,1.88984278343e-05,0.0,5585729.54485,683.349131731,652.710860098,66316691.7347,1799.42345777,43456685.3072,67556232.701,4697.81645814,4687.91157134,0.0
1.10768368006,0.981457725621,1.00953068338e-05,-18043252.2841,1.75918714121e-05,0.0,5646792.28571,682.097455793,651.264633543,66481371.96,1767.72889279,39581733.5718,68890014.1891,4597.99495593,4588.20483075,0.0
1.09056852661,0.854977217758,1.02534216789e-05,-25106890.5603,1.81845838222e-05,0.0,5730892.96577,680.976420923,650.15034696,66736312.6576,1748.13222326,36391527.8018,69036767.5399,4526.94995396,4518.3025113,0.0
1.06091104434,1.02155547798,9.91814534347e-06,-38091253.9416,1.38915523855e-05,0.0,5795719.16963,679.426487533,648.185263114,66893534.9618,1706.75457245,34645964.4385,69904022.6457,4403.84174506,4394.75454446,0.0
1.18713128961,0.868515042009,9.60543913771e-06,4761456.08543,2.45219197957e-05,0.0,6470397.0267,687.25763349,656.282615027,65747225.0273,1868.0337929,52790754.8224,67060569.8726,4927.78198317,4916.85654158,0.0
1.20955352575,1.07251902968,1.0228719315e-05,10899765.0129,2.32127566342e-05,0.0,12162895.0897,688.144169598,657.645775943,65297078.8995,1892.60557044,56665323.346,66344402.7196,5020.85668539,5009.07168337,0.0
1.13418781605,1.03608264138,1.00107009627e-05,-10492278.3817,1.94271438749e-05,0.0,5627427.07599,683.651143744,652.966206852,66471838.1743,1804.29426816,44259884.2924,67861810.6514,4708.01362442,4698.78937711,0.0
1.06220797089,0.88083246085,1.00386599437e-05,-37755239.6241,1.56844981384e-05,0.0,5810339.84851,679.439331667,648.284791624,66955683.0873,1710.42837849,34661116.4307,70003143.5033,4409.22528716,4400.82979995,0.0
0.976165419459,0.753558672116,1.03439026535e-05,-94646769.1455,1.54963137885e-05,0.0,6005729.39791,680.984338075,642.814819456,67419064.0017,1610.9507598,69601400.2466,69836061.6711,4052.06265617,4045.48257992,0.0
1.19767713908,0.982079904987,9.72901350475e-06,7508796.65809,2.31909775942e-05,0.0,8840251.22444,687.832456158,656.996033463,65583247.9391,1879.8139461,54179963.6651,66683718.3082,4971.55780432,4960.23045573,0.0
1.02448704637,1.04596414958,1.01922596982e-05,-65945862.3155,1.33204336413e-05,0.0,5863924.51754,677.691989685,645.870125797,67067691.4133,1658.61778279,46555680.9382,70920266.3013,4252.64572948,4244.27357824,0.0
1.0349510488,0.989600251865,9.84930275913e-06,-57511883.8066,1.38734967383e-05,0.0,5903460.99636,678.283211126,646.566448691,67213291.6113,1675.26783977,41273856.3139,71107858.2858,4296.08180357,4288.67594401,0.0
1.14836522329,0.679221890758,9.85084145115e-06,-7514804.45308,2.64914353068e-05,0.0,5498080.791,684.896985332,653.8155853,66062280.147,1821.17541835,45819651.7336,68498205.9127,4766.86404188,4756.64878564,0.0
1.10377283423,1.16637510783,1.00900700139e-05,-21490332.5676,1.53224825477e-05,0.0,5722022.45077,681.800237595,651.062287865,66729143.084,1765.09872998,37777964.0197,68681686.5272,4581.76103489,4572.90598389,0.0
1.15406795226,1.11797183664,9.86377685876e-06,-5140667.1478,1.95461180249e-05,0.0,5575839.242,684.921122945,654.23598863,66318584.475,1829.56603025,47350566.7199,68767622.1431,4790.53606983,4780.97934996,0.0
1.08382754568,1.04988710581,9.78935550216e-06,-28903207.7788,1.50358387581e-05,0.0,5783022.16111,680.898088805,649.78297786,66905093.1629,1739.18350779,35764910.675,69396625.2106,4498.96814212,4490.42572669,0.0
1.21701007791,0.880492902077,9.80478554369e-06,12161948.9281,2.69871418442e-05,0.0,13448663.8665,689.034781262,658.153707922,65193440.9987,1902.3025656,57729639.6956,66265461.108,5051.8088334,5039.92747821,0.0
1.20053647407,0.984941627056,9.74718281744e-06,8816994.55024,2.35136816455e-05,0.0,10267665.8416,687.942500679,657.160560243,65576072.0367,1883.44515366,55266635.534,66859897.0096,4983.42690386,4972.23830551,0.0
1.13192563936,1.01331228464,1.02664006471e-05,-11197136.692,1.94770546816e-05,0.0,5577878.00469,683.327977017,652.721636011,66294701.3697,1799.68177202,43538820.1979,67587150.9901,4698.62332898,4688.71514636,0.0
1.08006684164,0.721542354872,1.01820529569e-05,-28918731.715,1.90617175405e-05,0.0,5754347.81503,680.540274103,649.538816469,66805830.3735,1734.49210558,35598859.3858,69205244.437,4483.35745965,4474.8736916,0.0
1.07455083361,0.870583807758,9.90676099815e-06,-32232968.1207,1.65475977699e-05,0.0,5794598.22246,680.138535461,649.023347669,66926689.5499,1727.13832025,35058498.8824,69709822.3421,4460.46051032,4452.0621978,0.0
1.17380337334,1.0232817477,9.87026027821e-06,1844950.38645,2.09362247099e-05,0.0,5422945.10789,686.219742576,655.465115285,65817077.2362,1850.47210264,51003623.1327,67074798.191,4872.45780273,4861.44302022,0.0
1.06418850786,0.847123865319,1.00163167085e-05,-36899319.4357,1.61603486951e-05,0.0,5804260.48069,679.57501459,648.412708933,66939915.8123,1713.06218585,34637655.9102,70099790.6262,4417.44649613,4409.01880622,0.0
1.08232940813,0.956928277524,1.02424156523e-05,-27959244.4144,1.63217147261e-05,0.0,5761343.17069,680.529071071,649.683094449,66831676.8309,1737.27191133,35750255.8592,69226357.4198,4492.74937315,4484.23045013,0.0
1.0746020754,0.82443961442,1.01908245074e-05,-32217481.0158,1.75497602757e-05,0.0,5782423.77352,680.141065177,649.155634137,66894845.3939,1727.86357987,34962512.7098,69478876.1531,4460.67321499,4452.46632132,0.0
1.09676868656,1.2479378924,9.93017773992e-06,-23852739.7448,1.3829522458e-05,0.0,5756524.31394,681.427443858,650.577099986,66831061.9176,1756.09686153,36917586.8719,69178511.5593,4552.68681791,4543.94139708,0.0
1.09075383575,0.889506523003,9.76562614048e-06,-26302779.6182,1.73213948221e-05,0.0,5756308.2627,681.35799946,650.203415054,66819740.9634,1748.51637946,36264807.4651,69370904.1469,4527.7191722,4519.06872103,0.0
0.972227964221,1.05584465428,1.0029257374e-05,-94373370.4746,1.33191938025e-05,0.0,5992999.76107,682.644342241,642.549579299,67360167.4808,1612.36278129,69360563.5123,69592369.0534,4035.71827948,4028.24725826,0.0
1.16062167887,1.18105620441,1.00641510861e-05,-2591789.48024,1.78527009025e-05,0.0,5474486.98814,685.259264426,654.653532949,65962826.2201,1834.05891919,48278145.4903,67729086.132,4817.74058899,4806.88138912,0.0
0.925110882632,1.16456921074,9.95167206292e-06,-92294621.5605,1.21062401751e-05,0.0,6109752.99546,689.684780428,639.514424912,67638335.9379,1603.82184688,67530607.6786,67735652.007,3840.13527381,3833.36744986,0.0
1.0205728107,1.01462937747,1.00484185321e-05,-70685696.1374,1.356526641e-05,0.0,5876161.56115,677.787858359,645.638197571,67093179.5309,1653.36464931,49953203.045,70977707.3844,4236.39773722,4228.08835133,0.0
1.00658224668,1.19582437283,1.00112022875e-05,-89441878.787,1.18424843795e-05,0.0,5903844.03071,677.89527799,644.740386514,67135589.7355,1633.51363969,65082036.7997,70857409.811,4178.32290597,4169.90736565,0.0
1.17156740212,0.785762612354,9.59145246703e-06,688574.42759,2.48716450987e-05,0.0,5432862.70627,686.418304769,655.342975873,65867670.7341,1848.98283449,50480336.1988,67705817.4277,4863.1762862,4852.4097131,0.0
1.17161552416,0.90895533925,1.03721463565e-05,2165208.63496,2.33879264918e-05,0.0,5400261.54138,685.847658518,655.317509822,65722581.1445,1847.86965719,50873395.7786,66974607.334,4863.37604079,4852.53144536,0.0
1.17630553564,0.840858882843,9.94615557928e-06,2426167.51533,2.45907046877e-05,0.0,5385463.35511,686.466461328,655.610634097,65707866.7296,1853.9039655,51198941.2694,66937058.8937,4882.84427844,4871.78315877,0.0
1.11012762234,0.913867833117,9.92993470875e-06,-17460421.324,1.85181052142e-05,0.0,5635548.7883,682.382741505,651.409752465,66457084.607,1770.78275714,39926732.7378,68994626.1142,4608.13976033,4598.21088622,0.0
1.19080785875,0.868699495457,1.03126575443e-05,6490861.44735,2.58176170358e-05,0.0,7932347.03909,687.192948248,656.536523624,65375682.6255,1870.44772446,53280434.3858,66447120.7472,4943.04342167,4931.50977528,0.0
1.11323703416,1.02833021222,9.82383289909e-06,-18652964.1161,1.74539085222e-05,0.0,5693006.31748,682.556339652,651.62753824,66659207.3125,1777.26084824,39367487.2062,69072461.4791,4621.0469288,4611.93967102,0.0
1.1643056869,0.808213967239,1.00277525871e-05,-214033.074231,2.43115421418e-05,0.0,5415984.34858,685.723930655,654.876018909,65781400.2707,1838.69403832,49808951.6815,67631960.4813,4833.03290632,4822.08430295,0.0
1.17980715518,1.10645657843,9.68538262734e-06,2996587.63996,1.96765276257e-05,0.0,5445274.24337,686.609364293,655.843174685,65908110.8408,1858.78929419,51733254.5434,67201057.2251,4897.37950115,4886.59502224,0.0
1.14425007735,1.1520481331,9.83042358175e-06,-7828259.05773,1.80632009775e-05,0.0,5592437.3818,684.26715425,653.539638077,66371628.4901,1816.15054575,45907268.0056,68510361.2151,4749.78207108,4740.05628772,0.0
1.00309647287,1.06465070612,1.01860733321e-05,-92082355.9989,1.27547721707e-05,0.0,5970180.41168,677.629001381,644.54838505,67347441.7364,1632.42184306,67352851.9125,70874688.8869,4163.85345888,4156.90287402,0.0
1.12440830097,1.07676286876,1.00276401083e-05,-13306243.1683,1.76483108192e-05,0.0,5618284.07046,683.045486309,652.293444457,66419149.1624,1789.88998427,42384179.9039,67640142.2484,4667.41885733,4657.63731651,0.0
1.06737536647,0.911945103222,1.00542818018e-05,-35312761.9334,1.5660076069e-05,0.0,5798847.21794,679.69814143,648.620550411,66919322.3721,1717.19444612,34681148.7749,70017717.4293,4430.67514622,4422.19760296,0.0
1.19232747301,1.0546498877,1.00605670311e-05,6078371.70328,2.20369856523e-05,0.0,7591498.2266,687.293923482,656.625437983,65473828.9226,1872.10131173,53167226.7597,66649690.5281,4949.35134046,4937.6952079,0.0
1.18089598049,1.16137071024,1.033702335e-05,4544780.75834,1.97786190623e-05,0.0,6164805.89584,686.231425737,655.874344254,65761851.5643,1859.19439293,52322749.1316,66862944.0147,4901.89921501,4891.0790201,0.0
1.18248954959,1.13333416591,1.04055711599e-05,4576436.03365,2.04981666973e-05,0.0,6152216.87776,686.384436518,655.970805188,65545524.484,1859.64859798,52168579.9188,66813739.3363,4908.51412035,4897.02802098,0.0
1.12060984385,1.06279732299,9.71879060618e-06,-15084578.8507,1.72850572088e-05,0.0,5622119.53397,683.022709429,652.024645751,66430033.0175,1784.13291252,41333616.8727,68926045.9272,4651.65146182,4641.54104293,0.0
1.02539384444,1.12178187497,1.02006755599e-05,-64698864.6825,1.26336496924e-05,0.0,5865570.84054,677.6778452,645.937543159,67072924.7052,1659.6979668,45701466.4936,70841722.5404,4256.40984827,4247.98031977,0.0
1.10377660502,0.925554495498,9.92282056748e-06,-21605176.8032,1.8140591759e-05,0.0,5714415.59847,682.026972933,651.069587189,66700702.6904,1765.48534012,37723053.3715,68605572.0219,4581.77668744,4572.92146355,0.0
1.14879559442,0.893983243916,1.0236278707e-05,-6951468.92661,2.34311059875e-05,0.0,5560343.22401,684.495348545,653.894973681,66278459.8165,1823.48121084,45978040.4533,68641602.767,4768.65051244,4759.26897982,0.0
1.19633897036,1.05909164476,1.0365298341e-05,8012159.13261,2.25038332633e-05,0.0,9394547.23036,687.287701085,656.883012704,65502297.6273,1877.6794226,54371438.9785,66607101.3082,4966.00306596,4954.81541824,0.0
1.1291188908,1.00049188034,1.0164752114e-05,-12025846.2456,1.932770206e-05,0.0,5589049.08627,683.325472398,652.610365164,66320351.1627,1796.14766868,43033269.4445,67331360.0259,4686.97251571,4677.11188092,0.0
1.17622955375,0.970129079929,9.94271454418e-06,2335778.59384,2.21687737668e-05,0.0,5402789.3177,686.368184764,655.606762524,65761064.0214,1853.611666,51161023.9791,66996549.1461,4882.52887762,4871.46911912,0.0
1.08480606498,1.17230325943,9.96838500993e-06,-27863589.5279,1.38490522095e-05,0.0,5780828.0416,680.780674312,649.844386699,66891390.2081,1740.36645478,35792914.2817,69368584.9113,4503.02997573,4494.47250295,0.0
1.27764662938,0.770262802299,1.03138221989e-05,24848712.7921,3.95326536576e-05,0.0,26561265.7104,692.861337253,661.921651883,63991112.145,1970.65496092,67353252.0333,68303697.3884,5303.51115856,5290.2986742,0.0
1.08336855256,0.787518630901,1.02343066581e-05,-27582730.4471,1.84849575164e-05,0.0,5747330.32257,680.660682718,649.745499592,66790105.5055,1738.76739439,35798085.7819,69189810.1119,4497.06286168,4488.52777281,0.0
1.01612952868,1.06250822782,9.87858860769e-06,-77680747.4423,1.28029524033e-05,0.0,5954124.07109,677.785554889,645.373610693,67324440.3774,1650.10789322,55333720.4771,70939490.1766,4217.95367355,4210.81665066,0.0
1.11393783682,1.14540775929,1.03478177878e-05,-15945090.2028,1.62093980517e-05,0.0,5653071.15295,682.125872862,651.602334682,66504076.23,1776.78717105,40735808.8825,69342368.292,4623.95596064,4614.44870757,0.0
1.05800138514,1.24568118705,1.01335429501e-05,-39910431.7859,1.22039766073e-05,0.0,5851609.95878,678.987017675,648.020725371,67087293.2555,1705.37139847,34964953.8513,69798118.2225,4391.76374972,4383.83353687,0.0
0.927002096115,1.10020306404,9.67324257046e-06,-92517684.6213,1.29638470624e-05,0.0,6158878.26708,690.304926749,639.651236035,67808072.3786,1610.19443601,67726902.6692,67933060.7949,3847.98570097,3842.08807918,0.0
1.09017561467,1.06752388791,1.02261941645e-05,-25354735.9729,1.55512788501e-05,0.0,5748641.40999,680.88281608,650.128962346,66788902.7995,1747.44550591,36342155.8784,69132476.5959,4525.3189765,4516.67768064,0.0
1.0846916234,0.700739121451,1.02144359308e-05,-27172221.9339,1.98273648483e-05,0.0,5738013.10833,680.787429268,649.826502654,66763317.5045,1740.57829984,35885737.6162,69172901.752,4502.55492873,4493.99923883,0.0
1.18869515735,0.651568272347,9.85556541004e-06,5908701.00992,3.04984944105e-05,0.0,7517914.6995,687.417333257,656.384360398,65559045.5735,1869.94826627,53394561.3927,66743159.7248,4934.27359816,4923.3095161,0.0
1.1117905844,1.1536659879,9.80855235052e-06,-19256779.8787,1.57264857321e-05,0.0,5707901.32745,682.442159827,651.544761961,66701711.7151,1775.37980104,39042452.3497,69023546.4144,4615.04271584,4605.95808207,0.0
1.10830806504,1.06219798366,1.01693837058e-05,-17857249.7945,1.66935109518e-05,0.0,5676504.76839,681.994406352,651.307159694,66586224.6529,1769.5095887,39767733.5445,68987725.9283,4600.58677798,4591.27248329,0.0
1.02646639721,0.766051344831,1.03513374935e-05,-64476118.3847,1.58771077756e-05,0.0,5815251.84768,677.719746604,645.991978926,66925923.0891,1660.21267617,45532206.1975,70503187.174,4260.86201482,4252.03474953,0.0
0.954999836444,0.983618476603,9.92497919553e-06,-93732316.262,1.38277054973e-05,0.0,6082205.0793,685.512960723,641.454510549,67617436.5655,1613.10374283,68796103.09,69018352.7904,3964.20432108,3957.90544732,0.0
1.11761153538,0.9664772951,9.59914357952e-06,-16023797.0322,1.81648360497e-05,0.0,5650660.74799,682.959512966,651.852997335,66507548.2958,1781.35661837,40771268.3973,69446098.1215,4639.20548336,4629.44010064,0.0
1.02717054939,1.09575965913,1.02517437706e-05,-61642614.5373,1.26765335471e-05,0.0,5863652.342,677.680467119,646.052224232,67069309.5474,1662.34523751,43698424.3386,71000048.9645,4263.78495052,4255.36934404,0.0
1.04017584725,0.796228933117,9.876028621e-06,-52056884.7828,1.57622149356e-05,0.0,5827094.82734,678.616802294,646.8767729,66976152.8957,1679.52430325,38370001.8904,70929349.7057,4317.76994193,4309.05798726,0.0
1.0669357655,0.909680493461,9.89217538993e-06,-36147327.1983,1.55772666418e-05,0.0,5806226.2931,679.794855456,648.591616646,66948902.362,1716.61887924,34668058.5634,70173067.1846,4428.85036259,4420.37970334,0.0
1.12275472693,1.00348659087,9.81458820451e-06,-14146300.1771,1.85003462022e-05,0.0,5598672.09207,683.149164836,652.162978628,66359036.5774,1786.78668509,41758865.6904,68358435.3705,4660.55487149,4650.30962947,0.0
1.16658729104,1.12290682049,9.86341062081e-06,-67176.8474966,1.88820453823e-05,0.0,5454255.24121,685.740549554,655.02219522,65917635.8284,1841.18039138,50018935.2335,67810817.5503,4842.50384511,4831.5143341,0.0
1.04351702815,1.16547192131,9.5636203164e-06,-51878178.916,1.22823771685e-05,0.0,5890922.66546,678.753286746,647.083127469,67171819.9349,1685.47931,38437662.8111,71139200.5857,4331.63918385,4323.74267869,0.0
1.06853018711,1.03192928286,1.00421645806e-05,-34873692.9962,1.44011957108e-05,0.0,5804230.63359,679.72336131,648.696847216,66938170.8862,1718.61384821,34734368.5413,69965789.0073,4435.46880669,4426.97316844,0.0
1.06668089722,1.01169258117,9.8778971999e-06,-36347206.5159,1.44517671616e-05,0.0,5814019.52292,679.750796753,648.575464814,66972416.3623,1716.20970857,34675716.8391,70226934.8975,4427.79240436,4419.32573521,0.0
0.978549246357,0.830904642942,9.46082040464e-06,-95043285.6388,1.45064253223e-05,0.0,6023841.14925,682.317556154,642.969231364,67442029.1182,1614.47556191,69950111.167,70189411.1729,4061.95792163,4054.8527382,0.0
1.11596922745,0.820912033336,9.98718764512e-06,-15818796.3895,2.04638168965e-05,0.0,5655755.84354,682.623257269,651.744162389,66526341.3363,1780.44542273,40856237.8146,69386087.158,4632.38826314,4623.14771218,0.0
1.15025436411,1.01288745321,9.99950144916e-06,-6118598.05894,2.128331009e-05,0.0,5577004.59548,684.654674251,653.99357259,66327694.5085,1825.04737673,46741347.4615,68799366.6452,4774.70586542,4765.303846,0.0
1.13068068586,0.980820732298,9.90327323858e-06,-11955087.612,1.9537704894e-05,0.0,5614676.2875,683.562204707,652.719720727,66416053.0693,1798.94579855,43190030.1057,67459851.1135,4693.455527,4683.87275929,0.0
1.12116945193,1.03407409356,9.7086751167e-06,-15072230.0007,1.77887111245e-05,0.0,5668300.38798,683.024492674,652.080273557,66584151.3986,1786.96126745,41342355.9762,69230298.167,4653.97439496,4644.64934127,0.0
1.07657230046,1.21977495247,1.02892680179e-05,-30372531.3859,1.32389542395e-05,0.0,5795597.83388,680.04787877,649.297598415,66933258.6288,1729.88986832,35303001.3094,69288517.5569,4468.85161921,4460.51814164,0.0
1.20902587822,1.10786811272,9.92012626851e-06,10373374.5474,2.21973501943e-05,0.0,11706416.7587,688.264942462,657.608205839,65335240.6421,1892.00359605,56344077.2022,66967771.2314,5018.66642049,5006.77542705,0.0
1.0416993668,0.87697978899,9.81222341004e-06,-51552600.5389,1.50398394776e-05,0.0,5831024.46787,678.702789323,646.973806486,66990540.4703,1681.48039296,38253472.2284,70874307.1369,4324.09407159,4315.35713738,0.0
1.07656640471,0.981793749479,9.91315649055e-06,-31350614.1401,1.54486340363e-05,0.0,5796188.61537,680.210468134,649.159032471,66936191.979,1729.70723012,35218866.1735,69603530.7844,4468.82714595,4460.39764886,0.0
1.0526294553,1.04651819826,9.89712624296e-06,-45367880.9088,1.37770864541e-05,0.0,5813049.53529,679.073379729,647.670558071,66950165.7311,1695.89285299,35906600.2569,70500584.9353,4369.46486895,4360.5478856,0.0
1.06240836738,0.714918459268,1.00557094852e-05,-37536805.6218,1.755673074e-05,0.0,5798933.6596,679.500400611,648.297401313,66920844.9542,1710.81869724,34633335.9231,69982547.0446,4410.05713299,4401.65723819,0.0
1.09637598128,0.719853371967,1.00081886057e-05,-23877713.8238,2.05025263407e-05,0.0,5713404.87387,681.589978616,650.556281727,66701837.2825,1755.86591125,36820872.5719,68991509.9575,4551.05669829,4542.31819414,0.0
1.01529533171,0.744349534685,9.75446001622e-06,-79751035.6359,1.55057189163e-05,0.0,5946515.45484,677.999088837,645.309088557,67294184.6862,1649.09633346,56995690.6222,70816015.5583,4214.49092193,4207.36571612,0.0
0.963707456561,1.16059096041,9.96816209066e-06,-94106986.9422,1.23551239963e-05,0.0,6068266.22043,684.189430461,642.014850715,67592763.5954,1615.10043658,69125954.6757,69352364.0754,4000.34965218,3993.93344681,0.0
1.00430409542,1.0570790253,9.86377289293e-06,-92257043.3293,1.27279138716e-05,0.0,5983540.67329,678.002029124,644.620948873,67381380.7377,1634.15040164,67506029.4234,71035611.4944,4168.86630009,4161.89601152,0.0
1.12103624381,0.950638525625,1.03229338353e-05,-13802116.0219,1.94065785065e-05,0.0,5605344.51422,682.717698014,652.069664455,66361770.7323,1785.79157082,41955708.9116,68076593.5638,4653.42144806,4643.69631204,0.0
1.05843161361,0.847148794203,9.94020866786e-06,-39912132.3123,1.57859475426e-05,0.0,5821430.81265,679.312813541,648.030524477,66980497.7727,1705.40204479,34847116.8886,69728113.4266,4393.5496281,4385.21169046,0.0
1.06769390937,1.03859617593,1.01291596014e-05,-34894442.5998,1.43255182283e-05,0.0,5803325.72438,679.610567596,648.642489164,66935451.9657,1717.51664642,34713418.6527,69940228.3161,4431.99741779,4423.51488483,0.0
1.0887409562,1.02167727942,1.00469855286e-05,-26383007.0202,1.59089119995e-05,0.0,5756745.15519,680.989565811,650.077962368,66824271.8271,1745.62306775,36138182.4429,69276081.3561,4519.36370919,4510.74484228,0.0
0.985654466502,1.13884908393,9.89330827378e-06,-95284088.1082,1.19486545272e-05,0.0,6007626.20952,680.112562959,643.423122946,67415744.4697,1612.52062033,70162282.6601,70404762.6241,4091.45169045,4084.32316223,0.0
1.12376039427,1.14655415815,9.75644517387e-06,-14045103.9544,1.65059643807e-05,0.0,5662211.9086,683.10572653,652.246990603,66562770.3808,1789.98790585,41906521.3067,68807160.3397,4664.72939661,4655.25981361,0.0
1.20586052036,1.12279321895,9.87105062397e-06,9706137.51359,2.16993623655e-05,0.0,11112605.5265,688.117144867,657.428837526,65364744.5214,1887.97450311,55862189.3112,66969965.8294,5005.52702001,4993.58708696,0.0
1.09448653797,1.17531332792,1.03722093548e-05,-23180825.5392,1.4658318904e-05,0.0,5721906.35875,681.044812746,650.448494808,66715151.1806,1752.10374481,37027312.7316,69129138.5674,4543.21361911,4534.21150958,0.0
1.17160946515,0.93248595642,9.82195218516e-06,1388166.19107,2.21441223323e-05,0.0,5424494.50048,686.177000928,655.340175092,65834797.7728,1847.90228023,50759475.9173,67524572.5169,4863.35088984,4852.38058676,0.0
1.11737708045,1.07882078742,9.58680376309e-06,-18362508.2556,1.70890753611e-05,0.0,5706610.57989,682.933047086,651.889679197,66699744.7043,1783.40776701,39458103.5509,69267240.8147,4638.23226095,4629.26226453,0.0
1.11081933612,1.00507454683,1.01454648001e-05,-17088765.0146,1.77210516993e-05,0.0,5627693.09707,682.219488622,651.43748864,66425526.5647,1771.38249894,40243738.7683,69074589.7291,4611.01106423,4601.06948635,0.0
1.19801244936,0.990966744335,1.01883691352e-05,7884480.77627,2.36964893569e-05,0.0,9322916.38334,687.520796341,656.956473747,65465584.0374,1879.79576589,54479627.3821,67079073.3661,4972.94967729,4961.60017702,0.0
0.989242128477,0.908904747971,1.00296392202e-05,-95135741.4828,1.4297198364e-05,0.0,5926984.04488,679.699922979,643.63647948,67182217.2644,1611.63243658,70031862.7583,70277478.1834,4106.34407531,4098.2101774,0.0
1.08219232474,0.856196110293,9.8655778156e-06,-29187867.9347,1.72272155391e-05,0.0,5770972.08081,680.827396292,649.670054758,66854496.1465,1737.18389444,35680780.7758,69331374.3029,4492.18034,4483.66354863,0.0
1.1435298861,0.814332388399,1.0394028247e-05,-7037605.42069,2.44262700309e-05,0.0,5557087.67923,684.05337335,653.521624825,66239582.7273,1816.23471651,46045550.0328,68453050.6721,4746.7925572,4737.41856308,0.0
1.0496191524,0.919557562689,1.01371472439e-05,-46199493.9367,1.51115740275e-05,0.0,5808097.28751,678.792504847,647.476340931,66939176.1055,1692.46456954,36160820.0974,70449193.7799,4356.96910161,4348.27960764,0.0
1.03836297238,0.914840525697,1.00854816063e-05,-52169532.3464,1.46009619059e-05,0.0,5830603.61008,678.303712602,646.752031731,66986431.8625,1677.04869175,38385921.4833,70903259.2106,4310.24469835,4301.56106964,0.0
1.08581676596,1.11656875203,1.07588076904e-05,-25105644.9119,1.49500608189e-05,0.0,5675550.94999,680.262472681,649.819944981,66556111.8754,1738.4093795,36498163.6157,68814114.6053,4507.2253955,4497.51726405,0.0
1.17221397106,0.873284808819,1.00999673641e-05,1660163.44757,2.38853632883e-05,0.0,5388820.95349,686.110050775,655.355018759,65710205.0415,1848.42454501,50642309.1153,66955035.4925,4865.86019387,4854.76797953,0.0
1.07094069792,0.976929428101,9.82180632415e-06,-34082383.2289,1.51043358103e-05,0.0,5813683.99864,680.017770148,648.847768389,66977197.5329,1722.34097569,34787939.1663,70040552.134,4445.47483707,4437.13226113,0.0
1.0595987547,0.996611106418,1.02989139602e-05,-38302513.8767,1.45746597009e-05,0.0,5816746.82897,679.060684839,648.115742192,66968405.8291,1707.17964428,34681146.9481,69862658.2084,4398.39443076,4390.13263221,0.0
1.11157172418,0.731114433497,9.90660693912e-06,-17259257.225,2.13514165462e-05,0.0,5665052.36526,682.524177658,651.517223131,66559716.2274,1774.88498336,40144258.7784,69051669.8497,4614.13422707,4604.96391691,0.0
1.02462387472,0.958037090375,1.01098465104e-05,-66445903.4308,1.41328343112e-05,0.0,5861277.24677,677.821379284,645.887952481,67058801.99,1658.83434239,46906497.8661,70962902.33,4253.21370396,4244.83935519,0.0
1.14805496145,1.05875171034,1.00762439184e-05,-7598529.63161,2.0386813738e-05,0.0,5585819.7389,684.432960658,653.821222004,66353206.605,1822.44659861,45699912.9405,68606415.1706,4765.57614498,4756.20815924,0.0
0.993431164276,0.938376084681,9.85274660677e-06,-95354714.2433,1.4180430541e-05,0.0,5926327.0546,679.548058679,643.906634582,67180457.3032,1616.18723404,70224662.5426,70475338.1972,4123.73276291,4115.53097983,0.0
1.07976688714,1.13355958651,1.01588055737e-05,-30189525.2419,1.43206514273e-05,0.0,5790051.95111,680.373639772,649.5190116,66926400.0637,1734.39679742,35319224.5456,69286479.2959,4482.11234852,4473.82620572,0.0
1.01649667088,0.876017311187,1.02736267563e-05,-73060894.1904,1.46411335458e-05,0.0,5871821.06038,677.570171907,645.377536243,67073013.6616,1648.21232203,51755291.4375,70554846.498,4219.47768082,4211.31815403,0.0
1.11526892056,1.02802674716,1.0099772154e-05,-16103675.1265,1.75683475922e-05,0.0,5601061.04871,682.474042795,651.671992057,66350947.1434,1776.48359485,40616070.5166,69258380.8612,4629.48128924,4619.19107641,0.0
1.14156002998,0.766042962501,1.0452159924e-05,-8130390.05091,2.46411801465e-05,0.0,5507846.48379,683.865772753,653.261563763,66097951.206,1812.13252104,45071658.7717,68237267.0075,4738.61568445,4728.54278492,0.0
1.06113242564,0.719743452177,1.00245742483e-05,-38255187.5105,1.73972459173e-05,0.0,5803701.57017,679.454059991,648.215397633,66932864.2568,1709.1110869,34672998.9285,69917449.659,4404.76069883,4396.3814446,0.0
1.10396322827,0.869817814806,1.0037959185e-05,-21258899.8808,1.89487043249e-05,0.0,5704280.87841,681.98247841,651.07459339,66672554.3034,1765.7615567,37854601.5802,68623014.5184,4582.55136055,4573.69318796,0.0
1.07284375004,0.884715076484,1.03595431837e-05,-31214825.1354,1.66878308155e-05,0.0,5770612.05093,679.897490177,649.037494717,66840811.2277,1724.54195242,35153885.2615,69270211.3827,4453.37440642,4444.90583324,0.0
1.16336376389,1.2088166831,9.89248785925e-06,-806436.678964,1.74369794154e-05,0.0,5481957.47292,685.474141136,654.824434037,66004980.5163,1837.37505846,49557782.289,67838307.5626,4829.12298391,4818.29430296,0.0
1.11104226591,1.15337996716,9.9021097873e-06,-17359071.7772,1.55660342724e-05,0.0,5654265.5722,682.331181208,651.466096503,66516335.1937,1771.71788584,40056617.6554,69101600.7462,4611.93644579,4601.99089994,0.0
1.27731537585,0.899479771805,9.8193608708e-06,24183935.9698,3.24378209192e-05,0.0,25910080.7289,692.85594199,661.920730503,64211843.3919,1970.09554551,66964832.6739,67901412.6404,5302.13612515,5288.90179584,0.0
1.12209107218,1.01822860847,1.01181953981e-05,-13726518.4019,1.83802164915e-05,0.0,5616570.60875,682.867220134,652.13961735,66411851.7433,1786.95361084,42121841.7791,68165779.8635,4657.80004062,4648.05848388,0.0
1.03778111179,0.728707132318,9.66294347309e-06,-55525469.733,1.65208744852e-05,0.0,5824942.55425,678.749742834,646.72970316,66964252.224,1675.75707708,40088908.1268,71041869.0443,4307.82939504,4298.98396636,0.0
1.10030016759,0.814179078998,9.95621339461e-06,-22811242.8501,1.93501530779e-05,0.0,5711734.8498,681.836863277,650.840428072,66701544.8329,1760.89320278,37233438.5101,68695291.5099,4567.34599567,4558.54573941,0.0
1.1266511391,1.03718669321,9.48759972609e-06,-14166071.5022,1.82762369525e-05,0.0,5679309.95886,683.502008117,652.447704726,66621204.5043,1795.06039648,42025653.4864,68964831.4042,4676.7288784,4667.5967507,0.0
1.03743661761,0.863877426487,1.00062981842e-05,-53453250.144,1.5028862657e-05,0.0,5832645.39195,678.345461858,646.686165736,66989519.5465,1675.8462125,39028211.741,71181525.6141,4306.3993997,4297.73212191,0.0
1.16571568803,0.970652661354,1.02532232933e-05,585510.210764,2.17718255447e-05,0.0,5452584.35072,685.507713123,654.974813155,65886046.1531,1841.15264293,50148897.6389,67531294.259,4838.88582101,4828.35467443,0.0
1.0988178399,0.8683484275,9.93144929226e-06,-23120155.9953,1.84020243182e-05,0.0,5724255.86486,681.732427559,650.732885638,66736512.7186,1759.06321941,37111786.5169,69142691.2356,4561.19285342,4552.41583275,0.0
1.07298967683,0.796443047195,1.00743060884e-05,-31877645.5877,1.74601404519e-05,0.0,5775700.57779,679.962495279,648.914801418,66859963.9728,1724.47302412,35112039.0343,69537916.0281,4453.98014852,4445.41625548,0.0
1.11971858602,0.778680538387,1.02922306967e-05,-14407160.9864,2.17198659826e-05,0.0,5600972.12023,682.735736804,651.986277197,66351870.8052,1784.55938687,41571446.4753,68364616.146,4647.95185057,4638.34930761,0.0
1.14612255686,1.02056532527,1.02478187878e-05,-7723574.75451,2.10512088112e-05,0.0,5580409.21627,684.211487712,653.686732492,66336942.5715,1819.95055388,45561124.5884,68501271.811,4757.55473353,4748.21748683,0.0
1.1255894776,0.857052968758,9.91465370762e-06,-13226690.3636,2.06458405189e-05,0.0,5607716.39122,683.297210902,652.374760383,66391561.249,1791.92932552,42377231.9229,67943972.9037,4672.32192152,4662.62147412,0.0
1.1860339638,1.02864698193,1.02568778693e-05,4914829.85192,2.21332939177e-05,0.0,6408407.18758,686.760161678,656.197155867,65546682.49,1864.67227472,52356054.7652,66738455.8249,4923.22698373,4911.77974421,0.0
1.20186519674,0.87118176527,1.02248080643e-05,8817872.41346,2.66364044173e-05,0.0,10194050.6261,687.904987875,657.196398793,65244112.4115,1883.50737269,54985574.9181,66607646.2182,4988.94243167,4977.09088449,0.0
1.11941621975,1.25291305204,9.58887481e-06,-17830447.8373,1.5196546652e-05,0.0,5711994.04806,682.957654471,651.996138603,66718804.9707,1785.89718819,39802355.4914,69379354.7206,4646.69672818,4637.69446892,0.0
1.12608321931,1.14521571302,1.01805010821e-05,-13351124.6214,1.74973473375e-05,0.0,5660695.92083,682.988421551,652.425083743,66552383.5478,1794.3414618,42388398.0003,68154309.1325,4674.37144336,4665.378101,0.0
1.19515086966,0.863353415399,1.01534425952e-05,7213551.41352,2.61067878443e-05,0.0,8688729.80019,687.568996321,656.808120499,65339963.9677,1875.57313201,53837664.7726,66419748.0932,4961.07125996,4949.36448446,0.0
1.07663673525,1.05002844742,9.84057986512e-06,-31606222.4262,1.46057937763e-05,0.0,5803694.51342,680.236005656,649.163144949,66957635.8763,1729.74363585,35198903.0596,69684224.9491,4469.11908802,4460.68850193,0.0
1.19879568906,0.710029068633,1.01549348656e-05,8166276.28861,3.02233219784e-05,0.0,9616523.14441,687.885723344,657.036474453,65321429.9411,1881.32134962,54658958.7239,66494276.352,4976.20090529,4964.83728271,0.0
1.01766894042,1.10592099209,1.01734466425e-05,-72868329.241,1.25065223716e-05,0.0,5933981.67439,677.482672983,645.466698035,67269775.8141,1651.80142195,51594701.1835,70851520.4191,4224.34377168,4217.096156,0.0
1.04219133528,0.941860766131,1.00691706414e-05,-50760035.1435,1.45927696796e-05,0.0,5829595.95422,678.461506158,646.978794969,66988875.1467,1682.58174427,37836612.5471,70899187.3793,4326.13623275,4317.56699104,0.0
1.08638880857,1.05043399766,1.00581784659e-05,-27159348.5994,1.53764877336e-05,0.0,5764750.9889,680.842795113,649.935300771,66845471.9742,1742.52177996,35970519.0599,69303892.4464,4509.59994437,4501.01779845,0.0
1.11003620741,0.934494647708,1.00627814196e-05,-17545109.6686,1.83417991612e-05,0.0,5636616.83702,682.270452657,651.403362142,66452350.5669,1770.81523413,40102295.4011,69000930.3773,4607.76029696,4597.92843408,0.0
1.04968553398,0.999623540525,9.74956653812e-06,-45737746.1977,1.38365793578e-05,0.0,5833695.92615,679.004799005,647.477049356,67003191.5715,1692.28031415,36084641.7999,70626721.3548,4357.24465155,4348.52198395,0.0
1.06578688306,1.09867520085,9.79745491372e-06,-36637242.6412,1.33770452926e-05,0.0,5788992.97668,679.733446506,648.501437718,66883848.9901,1712.76343455,34760320.8094,70179316.2663,4424.08135158,4414.89455914,0.0
1.12656608739,1.08656560672,9.82826037112e-06,-13084305.9466,1.75767910255e-05,0.0,5641290.01742,683.28821969,652.445231444,66490268.6558,1793.4856277,42489183.7975,68181689.5045,4676.37582876,4666.86067147,0.0
1.02096369698,0.858567720905,1.04110752106e-05,-67952393.155,1.48481560117e-05,0.0,5855192.45762,677.48046285,645.654875202,67038454.7655,1654.21868535,47959836.9339,70658715.4862,4238.02030616,4229.78995953,0.0
1.02932530515,1.01231246773,1.00521600531e-05,-62035842.0052,1.36002886774e-05,0.0,5862694.78644,677.990349584,646.193866428,67071591.1137,1665.45568343,43960008.7788,71028810.5336,4272.72934168,4264.36543209,0.0
1.13959594859,0.836733836106,1.05585229959e-05,-8424812.28471,2.3262497315e-05,0.0,5517890.76188,683.626642257,653.133071521,66089321.6775,1809.50797662,44859654.7475,68152144.1802,4730.4627826,4720.42338479,0.0
1.06393475527,0.799126786754,9.7102977945e-06,-38241647.3767,1.65565724586e-05,0.0,5813365.36749,679.814478885,648.397672566,66962191.555,1712.71764631,34725404.2442,70072527.1309,4416.39316913,4407.9694436,0.0
1.0485090658,0.870018597066,9.53069999204e-06,-49068740.8459,1.53174831925e-05,0.0,5825100.15897,679.253685077,647.417071424,66980836.7228,1690.48459424,37226262.4966,70957495.222,4352.36113214,4343.51081451,0.0
1.13831023921,1.04825835384,9.65747603156e-06,-10514303.7327,1.89142681453e-05,0.0,5612693.70545,684.16299769,653.22375027,66420723.8977,1809.0061161,44166646.6358,67888662.1237,4725.12580296,4715.49495323,0.0
1.13532529772,1.08434578734,9.99352152958e-06,-9857097.78941,1.84409876451e-05,0.0,5603488.11589,683.727130865,653.028873031,66390735.1838,1804.50517731,44657639.6187,67914039.1024,4712.73531084,4703.07808038,0.0
1.30649625325,0.887799176108,9.99806412199e-06,28955754.9083,3.71273842377e-05,0.0,30448131.8034,694.738068899,663.827331273,63738171.7304,2002.89302356,69222584.8343,70409047.6781,5423.26594724,5409.66802029,0.0
1.24231980005,1.21464567621,1.02226622392e-05,18182566.3026,2.36995141767e-05,0.0,19839583.8144,690.132834704,659.740200418,64984900.8167,1930.89315466,62674853.2718,66754253.8737,5156.86949001,5144.83492023,0.0
1.12545851384,0.921040520597,9.54267028128e-06,-14332494.6517,1.98770053194e-05,0.0,5671801.39415,683.452174149,652.370191859,66597972.9326,1793.61262172,41894073.7478,69000569.6579,4671.77829095,4662.66515481,0.0
1.04963873143,0.953299544573,1.04572793596e-05,-43098133.7808,1.45721984874e-05,0.0,5809711.15748,678.462984896,647.470641866,66940719.2137,1692.83812148,35329653.7884,70308742.7067,4357.05037417,4348.50734439,0.0
1.11920695956,0.935068491557,1.03343115063e-05,-14787860.4338,1.97844546679e-05,0.0,5560725.64581,682.664953105,651.934264865,66222491.4898,1781.76252685,41314116.1949,68386706.9115,4645.82808913,4635.45178776,0.0
1.13074088507,0.879540293845,1.0106045362e-05,-11709784.8116,2.11407193262e-05,0.0,5577841.56549,683.412276583,652.638976998,66289107.7188,1798.36649577,43249100.7631,67409859.0236,4693.70541393,4683.81731275,0.0
1.02641509794,0.704352646774,9.84901830612e-06,-65326129.1169,1.61384463405e-05,0.0,5911660.51133,678.096356417,646.025960473,67222223.8769,1664.02607791,46175279.1355,70958523.9289,4260.64907155,4253.36565949,0.0
1.11681172991,0.910326429334,1.0268467647e-05,-15627110.4935,1.93055917355e-05,0.0,5576954.96281,682.530964323,651.765616352,66265728.384,1778.77134668,40821344.9007,68782641.3605,4635.88549086,4625.5679409,0.0
1.13554653743,0.653006423366,9.74027837891e-06,-10781224.1761,2.54582112162e-05,0.0,5570021.03549,684.196013588,653.044922622,66280333.0562,1805.62575973,43935654.829,67614642.301,4713.65367687,4703.96391333,0.0
0.974467810556,1.19099804296,1.03178055761e-05,-94476163.7342,1.20738399708e-05,0.0,6029866.57156,681.726126805,642.704750682,67499407.2801,1614.23724096,69451138.9941,69683687.4304,4045.01588162,4038.45320406,0.0
1.10324196629,0.968201379526,1.04122611339e-05,-18509823.6552,1.75631784805e-05,0.0,5669523.7442,681.593015359,650.993966184,66555260.1267,1762.79567661,39376354.6857,68721859.0744,4579.55740207,4570.22905778,0.0
1.24894434096,0.833175837014,9.91245666087e-06,19359575.5065,3.19313826608e-05,0.0,21027807.4737,691.067679894,660.137689127,64660689.7581,1938.83881322,63493510.7886,64828740.9493,5184.36795932,5171.85704317,0.0
1.13417716766,1.0013452177,1.01675836742e-05,-10013682.0135,1.90566779929e-05,0.0,5583082.86185,683.499289889,652.867437447,66303033.167,1802.49671537,44347550.5131,67894617.0129,4707.96942296,4698.0619022,0.0
1.15301143298,0.911854759528,9.3453921436e-06,-6053017.53191,2.19427723847e-05,0.0,5555587.25283,685.301344883,654.147209109,66267979.5844,1827.44589025,47079966.9085,68911246.9573,4786.1504583,4776.15883566,0.0
0.998802841506,0.82449002797,1.03179672679e-05,-95471318.1327,1.50679596222e-05,0.0,5890518.81536,678.108325656,644.246312667,67089141.2226,1623.64828225,70327429.6205,70547422.3099,4146.03059509,4137.82282498,0.0
1.11744409836,1.12961127752,1.0244499369e-05,-15287900.6836,1.65254519479e-05,0.0,5644708.35131,682.41356089,651.827188949,66482842.1057,1781.25348834,41149975.3563,68960490.2203,4638.51045229,4628.94574623,0.0
1.20689589475,1.11376657682,9.88311651448e-06,10021027.5213,2.17799163496e-05,0.0,11407185.2976,688.127106329,657.491804179,65450638.2705,1890.18594112,56120879.4983,67123041.3325,5009.82485911,4998.27344412,0.0
1.00865957313,0.830759627268,9.66250793652e-06,-88598118.6826,1.48788172623e-05,0.0,5916749.06897,678.444759627,644.884098772,67172699.3777,1637.82762752,64358611.3365,71119521.5584,4186.94588806,4178.90969868,0.0
1.21276492965,0.775620171403,1.00976183881e-05,11547611.5034,2.96918307392e-05,0.0,12824308.8411,688.70474374,657.868483823,65127976.894,1897.15443841,57167645.345,66137263.5593,5034.18722298,5022.33606107,0.0
1.19774361142,0.987063012339,9.98111866899e-06,8117937.49976,2.36690410928e-05,0.0,9582105.75536,687.706784867,656.965625516,65395177.0536,1878.33723309,54633432.3166,66594889.3659,4971.833731,4960.07183228,0.0
1.26643580677,1.17836179397,1.01417892867e-05,22563784.3551,2.69887082966e-05,0.0,24483780.4213,691.823322676,661.264540622,64515172.1971,1957.7268815,65972745.7045,66923835.4526,5256.9750339,5244.1472345,0.0
1.07819425036,0.711139275635,1.00903510372e-05,-29860238.2059,1.89758946022e-05,0.0,5762691.18032,680.4838217,649.401443212,66826774.6666,1732.05056044,35444428.0186,69245182.1547,4475.58433324,4467.12961574,0.0
1.15279359849,0.996912663646,9.81975429422e-06,-7511263.83589,2.1569970676e-05,0.0,5471814.52326,685.099031118,654.113634826,65996244.5217,1824.97171911,45520222.3254,68442541.6583,4785.24622733,4774.32917016,0.0
1.06341464489,1.0824150954,9.92369041869e-06,-37690639.854,1.35720652941e-05,0.0,5824697.08392,679.509652519,648.361714866,66999870.4236,1711.85720794,34692329.1398,70105084.0846,4414.23419094,4405.81858874,0.0
1.1155383891,1.04246111715,9.97987496506e-06,-16257716.6766,1.75921835599e-05,0.0,5678707.71601,682.501332984,651.725779716,66600360.5928,1779.85932503,40742554.4853,69372266.4177,4630.59985315,4621.44087915,0.0
1.08138818586,0.854890221769,9.97473260527e-06,-29114471.5491,1.72633711962e-05,0.0,5768488.09205,680.705902792,649.620522449,66847681.3275,1736.13209532,35645009.9002,69300794.0166,4488.8423595,4480.33806812,0.0
1.12598700622,0.810788016067,1.01159286705e-05,-13119188.9494,2.23109623689e-05,0.0,5636375.32461,683.170210381,652.419648305,66494642.4544,1794.35675885,42495262.7705,68105448.9087,4673.97206282,4664.98019064,0.0
1.11780039096,0.896901759685,1.00440179062e-05,-15210770.9849,1.96848126834e-05,0.0,5653374.06264,682.660616842,651.857298612,66522787.4586,1782.71115976,41155150.7965,69202891.9382,4639.98942287,4630.71824302,0.0
1.16163650085,0.911787414902,9.92157027103e-06,-2484103.77007,2.20236616552e-05,0.0,5446328.08002,685.58376151,654.718310685,65905955.9262,1835.72505338,48437429.7014,67711935.2546,4821.95311503,4811.05008134,0.0
1.22738209969,1.08990522621,1.01463363681e-05,14664641.1024,2.42781859313e-05,0.0,16143444.7194,689.361810518,658.830986997,65062676.6113,1913.2503215,59802772.8708,66653297.1641,5094.86309581,5082.75955478,0.0
1.17382450858,0.820161352858,9.68421969458e-06,1660208.41459,2.45706913709e-05,0.0,5440296.24571,686.438446737,655.486104586,65890044.0036,1852.05898445,51064714.1945,67657730.0059,4872.54553512,4861.95328642,0.0
0.992307360164,1.07548618313,1.00473354569e-05,-95297603.3221,1.28085017656e-05,0.0,5930565.90467,679.157200264,643.834868403,67194838.5441,1614.62166485,70174304.9216,70427487.0963,4119.06785204,4110.88424959,0.0
0.96398647396,1.19272658126,1.01217985475e-05,-94011066.9268,1.20653896996e-05,0.0,6048649.79621,683.830311319,642.027429449,67530522.132,1613.40884642,69041524.7093,69268038.1872,4001.50785341,3994.79478679,0.0
0.973437848851,0.884714909313,9.312827814e-06,-94593784.9334,1.48818046385e-05,0.0,6003108.66699,684.217426515,642.630819371,67378438.6376,1617.53544087,69554554.736,69790102.7837,4040.74051058,4033.09323974,0.0
1.05487093675,1.17967257563,1.03041257365e-05,-41335290.612,1.26183477743e-05,0.0,5821113.71926,678.741540475,647.785319628,66974982.9229,1699.88164372,34987053.6288,69785693.6927,4378.76925845,4370.23305743,0.0
1.02445303216,0.900717426706,9.87007286896e-06,-67585551.4966,1.43563312711e-05,0.0,5925030.09706,677.970566756,645.904138383,67259355.3622,1661.30555542,47734263.5634,71016035.1181,4252.5045365,4245.24914725,0.0
1.05971038713,1.11565553936,1.04850339525e-05,-36947338.2,1.34395888285e-05,0.0,5826444.64425,678.864112618,648.126357977,66999502.1073,1707.73074513,34642246.5248,69973690.2251,4398.85781698,4390.78132128,0.0
0.984649491601,0.901170101865,9.73629216187e-06,-95045253.0041,1.45950304923e-05,0.0,6001196.33093,681.480439602,643.359876819,67408363.0587,1618.40308179,69952160.2819,70192229.4248,4087.28003964,4080.24217569,0.0
0.90207038391,0.687159581482,1.02377794095e-05,-91184328.9747,1.51368702819e-05,0.0,6140970.79129,691.807011985,638.031633662,67710545.2025,1594.58742366,66553493.0366,67710545.2025,3744.49416361,3738.34205799,0.0
1.2430926893,0.784469052724,9.54255844893e-06,17775383.0286,3.16626941964e-05,0.0,19271894.2757,690.86548044,659.744760672,64809092.9696,1932.88073746,62288896.745,66924348.8882,5160.07775328,5147.67358668,0.0
1.05360905475,0.75897915693,9.83026635856e-06,-45074781.9934,1.68384923246e-05,0.0,5792800.32376,679.302533492,647.730171796,66889053.351,1697.41919309,35819987.6889,70414275.3139,4373.53118627,4364.59660231,0.0
1.10651336199,0.981210731137,9.85982891258e-06,-18334454.9075,1.75446396357e-05,0.0,5731230.42501,682.09777968,651.228004693,66755378.8562,1769.1963363,39628880.1271,69007656.2883,4593.13696562,4584.46790686,0.0
1.01326531501,0.995864440818,9.9393490346e-06,-80519818.9895,1.33791857903e-05,0.0,5955438.16173,677.715837943,645.17842598,67310830.2531,1646.28032256,57615805.9911,70783652.7007,4206.06432261,4198.96783868,0.0
0.990865762397,0.901589487261,1.02111302625e-05,-95132799.2934,1.44518928019e-05,0.0,5918563.80963,679.160516111,643.741414862,67161429.8976,1613.14082132,70029337.6748,70276668.2522,4113.08377971,4105.0035888,0.0
1.11290484921,1.03086793046,1.04628206156e-05,-15955809.7802,1.76775406991e-05,0.0,5641805.84924,682.042348807,651.534751165,66470402.8998,1775.52996691,40673919.5905,69271741.2764,4619.66802907,4610.17947196,0.0
1.12597354676,0.954439005228,9.896522292e-06,-13238062.5352,1.95189913457e-05,0.0,5581413.03002,683.340394205,652.390641188,66302076.4649,1791.17525896,42253458.0652,67769266.5356,4673.9161926,4663.71247209,0.0
0.984325499251,0.88434479132,9.66281596596e-06,-95044037.3939,1.47669636893e-05,0.0,6004790.94611,681.739186357,643.339419529,67415049.803,1619.0913242,69950961.1592,70191180.7931,4085.93514739,4078.90193971,0.0
1.00927643504,1.03898945231,9.79149370289e-06,-86874103.0506,1.29547451805e-05,0.0,5973596.86137,677.942918285,644.939544908,67357356.5086,1640.84679201,62890815.1504,70970090.8418,4189.50648185,4182.46629048,0.0
1.12801129406,1.1290700628,1.02380378267e-05,-12234789.9934,1.74273303882e-05,0.0,5604122.52867,683.027007417,652.456807563,66368201.786,1794.56317444,42935039.3438,67317162.7431,4682.37488164,4672.53298514,0.0
1.08563230658,0.878332048574,9.7075138082e-06,-28086644.9336,1.69195368212e-05,0.0,5767161.7985,681.134564107,649.900034261,66851952.0651,1741.46583413,35873744.1887,69391536.3733,4506.45970461,4497.79228596,0.0
1.13109649912,0.793541896417,9.58393267841e-06,-12192378.6632,2.20974537446e-05,0.0,5610744.83642,683.896524919,652.745788601,66411849.6629,1799.75949538,42920839.676,67740587.665,4695.18156785,4685.56643265,0.0
1.27837907845,0.854541981553,9.94068656344e-06,24445536.1918,3.42831638612e-05,0.0,26153842.3757,692.918907803,661.978674921,64137333.3081,1971.32640107,67096708.0905,68025114.7723,5306.55155465,5293.28995371,0.0
1.1047334449,0.67837239285,9.96665638576e-06,-21123774.6499,2.20399864049e-05,0.0,5688026.41524,682.180102325,651.123289754,66621058.486,1766.99691919,37896474.3415,68600381.5331,4585.74852978,4576.87741667,0.0
1.07318436085,0.976025142472,1.02704359359e-05,-31470193.1596,1.56446481255e-05,0.0,5779176.50002,679.946249093,649.057271689,66878534.9862,1724.9266498,35161635.2287,69370968.3856,4454.78828189,4446.31457781,0.0
1.25824436477,0.921303397511,1.00457052912e-05,21090075.8878,3.13863171881e-05,0.0,23010947.6836,691.548796916,660.721588349,64506324.0136,1948.84038227,64887865.3137,65719154.2917,5222.97235816,5210.17681776,0.0
1.28934595817,0.991544076742,1.03824649408e-05,26779525.2478,3.35027040455e-05,0.0,28209826.2188,693.250989324,662.634911875,63947535.0805,1982.05096068,68123182.163,69232700.8749,5352.07507236,5338.65861894,0.0
1.11565165477,0.846325712109,9.91305009065e-06,-16096177.4652,2.00030023272e-05,0.0,5662417.11396,682.652148064,651.734137847,66544964.9234,1780.01789396,40750372.3117,69350081.0127,4631.07001895,4621.83368707,0.0
1.1742194104,0.783463860903,9.89749363892e-06,2374665.85534,2.55090422614e-05,0.0,5388517.64808,686.399586526,655.48530573,65711793.5173,1851.22379262,51266543.2561,66974630.6416,4874.18477257,4863.16500712,0.0
1.25097335074,0.929937234181,1.01996513876e-05,19977261.5425,3.04897248118e-05,0.0,21799201.0535,690.927746373,660.262492343,64700803.9745,1941.03423702,64094173.1889,64977031.6129,5192.79037892,5180.47996195,0.0
1.0336683921,0.926599396569,9.61001041919e-06,-59920754.164,1.43663135286e-05,0.0,5913129.94727,678.480972558,646.492160019,67237160.1121,1673.5198605,42753230.593,71162254.4782,4290.75749561,4283.37009105,0.0
1.12938951814,0.965321674851,9.99353124871e-06,-12031139.6645,1.96798892529e-05,0.0,5594813.80997,683.352128388,652.549469353,66354640.6767,1796.40308679,43176658.7757,67370268.6074,4688.0958898,4678.23108905,0.0
1.223155189,0.778643004378,9.60083153464e-06,13331169.8879,2.96810817175e-05,0.0,14698814.8537,689.657555851,658.562531384,65085339.7545,1909.77743677,58699786.0549,66396723.2081,5077.31718954,5065.28994891,0.0
1.03892470946,0.8466970597,9.8593098247e-06,-55241903.4351,1.53552657739e-05,0.0,5838763.81325,678.573418896,646.799234316,67010735.5849,1678.2790156,39987881.3867,71148117.5521,4312.57646897,4304.0598975,0.0
1.01683415569,1.02062377786,1.01425739407e-05,-74204114.6467,1.32617037021e-05,0.0,5932875.10753,677.531559491,645.414017289,67263028.6327,1650.72494938,52613134.8839,70817222.1261,4220.87858027,4213.64292651,0.0
1.22091184096,1.2006769528,9.7937385369e-06,12755083.644,2.13236383994e-05,0.0,14021975.7767,689.06884385,658.418264713,65276416.7109,1906.37921922,58281101.9526,66510926.6226,5068.00505183,5056.05151088,0.0
1.32562060113,0.981263796647,1.02888069271e-05,31135549.7004,3.85824750149e-05,0.0,32300550.0611,695.717483477,664.946456319,63341655.1298,2023.73665384,70306151.5385,71793486.9104,5502.65111529,5488.56667499,0.0
0.955429945694,0.77040826652,1.01870039106e-05,-93575492.1902,1.52308616334e-05,0.0,6045635.83014,684.974254534,641.475797995,67507391.9681,1610.70839912,68658141.6896,68879827.7391,3965.98970458,3959.396579,0.0
1.23546279484,0.774141549057,1.00724427508e-05,16534578.905,3.19507470259e-05,0.0,18142900.8746,690.106547348,659.306920419,64898523.8255,1924.25360158,61312252.3113,66727812.1397,5128.40606138,5116.4687634,0.0
1.14043685004,0.896222405969,9.94176238738e-06,-8874288.60722,2.21681440097e-05,0.0,5596388.77176,684.129503704,653.341450055,66383223.3683,1812.38734423,45234467.9927,68167663.8774,4733.95336452,4724.60273926,0.0
1.14205708355,0.769501521014,1.00822633231e-05,-8788593.76371,2.41512269044e-05,0.0,5525288.65158,684.153075386,653.313391028,66142478.4307,1812.94532844,44992052.2909,68173637.9073,4740.67895382,4730.57185493,0.0
1.19145468555,1.02707916443,9.79453043419e-06,5649094.35973,2.20674726499e-05,0.0,7242207.64156,687.364050445,656.551883412,65606991.254,1871.89185738,53158137.6261,66834549.2748,4945.72839972,4934.29397247,0.0
1.22768999857,0.898414884158,1.01979704674e-05,14770845.7132,2.82474682218e-05,0.0,16239088.6011,689.500736911,658.854020175,64987960.6538,1914.3110068,59858942.1432,66567334.4652,5096.14118406,5084.14845537,0.0
1.02654428591,0.993315611082,1.03866413088e-05,-64095492.6323,1.38298921655e-05,0.0,5828065.6961,677.600667627,646.002928255,66964180.7709,1660.15892393,45293649.6901,70569830.5322,4261.18533081,4252.35676207,0.0
1.10545851903,1.0350952763,9.97149956425e-06,-21030738.7154,1.69593428764e-05,0.0,5711576.65303,682.033200352,651.164052088,66693602.6436,1767.33808606,38000947.6435,68719099.3485,4588.75831249,4579.82656733,0.0
1.1434408012,1.19874999833,1.01327761852e-05,-8359632.52399,1.75959684342e-05,0.0,5561145.62596,683.933092093,653.384760802,66255696.2561,1814.14280431,45189934.3836,68414689.852,4746.42276578,4736.29198107,0.0
1.05097199551,1.13388134131,1.02865042843e-05,-44599258.4688,1.30401342827e-05,0.0,5811072.93511,678.645775764,647.558382482,66949801.7132,1693.94171831,35653487.4302,70426493.0872,4362.58475336,4353.78396415,0.0
1.07499168421,0.95272174143,9.95209649729e-06,-31884497.4977,1.56777794245e-05,0.0,5796824.73481,680.09893406,649.052208701,66935119.7169,1727.65911985,35098163.0117,69657786.9593,4462.29048116,4453.88535193,0.0
1.13279539424,0.956322565584,1.029886811e-05,-10904113.9264,2.0437500818e-05,0.0,5567638.83773,683.393724566,652.776258384,66264918.1897,1800.83942129,43628426.0159,67640014.4362,4702.23368149,4692.30994018,0.0
1.1445750461,0.950548167114,9.9123352905e-06,-8486140.79153,2.11266573598e-05,0.0,5543625.89228,684.300089967,653.465410256,66198936.9725,1815.97364367,45171705.8281,68359093.974,4751.13101636,4740.98233295,0.0
1.11379917286,1.02430965009,1.00056742432e-05,-16473439.7276,1.76026394196e-05,0.0,5678343.90476,682.408341538,651.628779961,66593005.3342,1777.43954666,40565608.2697,69284127.9757,4623.38036654,4614.17496046,0.0
1.02496464577,0.95863264781,9.89450551223e-06,-66743087.5968,1.38856820527e-05,0.0,5925509.84509,677.930666832,645.925127917,67262161.4893,1661.96779676,47147174.3108,70966401.2813,4254.62824459,4247.36555276,0.0
1.02575737663,1.01904278423,9.84912424262e-06,-66218557.8601,1.33672266955e-05,0.0,5928355.27687,677.975483729,645.974854622,67272190.4465,1662.98054955,46788990.9954,70999943.7905,4257.91887039,4250.64485723,0.0
1.04812653054,0.925219645129,9.94351851682e-06,-45106001.4698,1.45975488479e-05,0.0,5839725.48661,678.783829356,647.38422273,67018118.7886,1691.01190314,35900971.1208,70447552.9956,4350.77322827,4342.41535621,0.0
0.991401807127,0.949143271592,9.86890148404e-06,-95490457.3383,1.37108420917e-05,0.0,5984751.19113,679.407100166,643.791045115,67352741.8364,1615.69384486,70343995.4792,70585541.0233,4115.30890138,4108.0965714,0.0
1.10055504741,1.02982934237,1.06549064982e-05,-19489195.1567,1.69667240519e-05,0.0,5628178.05133,681.303657734,650.809751597,66410286.7678,1757.73106635,38823046.5421,68501030.3099,4568.4040018,4558.45210985,0.0
1.25369987359,1.21968621467,9.77932867745e-06,19887887.7781,2.38017620731e-05,0.0,21587733.4897,691.112220468,660.425476522,64770368.6667,1943.27817668,63996397.9488,64897735.7314,5204.10817527,5191.33462156,0.0
1.17007136742,0.896039299626,1.01424348655e-05,1213615.59231,2.33461567393e-05,0.0,5431341.30019,685.902245469,655.2457741,65841286.0108,1846.8131761,50509533.4576,67459430.4937,4856.96624616,4846.33133774,0.0
1.19915090865,0.950897973591,1.01469567453e-05,8082000.61392,2.44695531397e-05,0.0,9521796.61767,687.689258501,657.059364313,65442557.6745,1881.27310758,54648160.5049,66618887.1636,4977.67542181,4966.30539215,0.0
1.02800936131,1.06826286066,9.92563617119e-06,-63284616.1283,1.29795441132e-05,0.0,5924448.13732,677.943878262,646.114467611,67266104.076,1666.10085135,44818769.5593,70953000.2713,4267.2668588,4260.00596608,0.0
1.05755390812,0.834576802365,1.03008983667e-05,-39206958.2776,1.60802042432e-05,0.0,5812467.62698,679.003984561,647.982723459,66951316.7009,1704.55142488,34742911.3681,69681698.2009,4389.90627261,4381.67599305,0.0
1.16740639594,0.982973352202,9.8114511472e-06,102205.267062,2.11855477877e-05,0.0,5437352.66991,685.916076836,655.073572886,65865155.4175,1842.42826195,50106840.8644,67769714.8341,4845.90394955,4834.89973802,0.0
0.992657223019,0.855257749654,9.80717545358e-06,-95512229.5198,1.47172853678e-05,0.0,5980782.90605,679.590735051,643.871748926,67346417.5645,1617.58649926,70363158.1834,70602541.0512,4120.52013275,4113.37350677,0.0
1.21513085668,0.841314993497,1.00852807761e-05,12003494.6839,2.81431206729e-05,0.0,13253981.3672,688.798361748,658.03740661,65173029.1209,1900.07510157,57545798.6447,66216547.2738,5044.00818608,5032.22339022,0.0
1.09711895812,1.00953002897,1.00601756081e-05,-23558090.2454,1.67574549363e-05,0.0,5731308.58314,681.476210599,650.617571703,66744899.4661,1756.5713404,36957839.225,69035448.1968,4554.14079516,4545.39061293,0.0
0.992886152147,0.979473140835,1.0144643082e-05,-95243824.1399,1.39262894967e-05,0.0,5920044.56174,679.049061357,643.871341562,67168313.1677,1615.61266047,70127195.3115,70398260.0286,4121.47041756,4113.35782807,0.0
1.12191292214,0.915525433389,9.83273320132e-06,-14442573.3333,1.94251476199e-05,0.0,5606620.35824,683.112077153,652.110922283,66375397.555,1786.29497335,41701303.2744,68511621.8577,4657.0605398,4647.02592176,0.0
1.2180296001,0.761912298303,1.03694175303e-05,12982425.9556,3.10894702209e-05,0.0,14168631.3154,688.942682825,658.226055485,64971318.512,1903.03215231,58234325.9038,66257072.5963,5056.04087002,5044.09219851,0.0
1.12486688334,0.851875270018,9.87507604528e-06,-13552056.7449,2.08080952267e-05,0.0,5576914.98558,683.340885143,652.316732798,66285695.9693,1789.87310693,42093666.7866,67883675.0786,4669.32243274,4659.13800299,0.0
1.04115044408,0.77647173355,1.02318756533e-05,-49812878.4507,1.60300086542e-05,0.0,5814039.46525,678.340297652,646.912520034,66937350.739,1681.13281148,37432836.5805,70858181.9037,4321.81549338,4313.17505045,0.0
1.04138550623,1.01469778666,9.88074168449e-06,-51476572.0742,1.37185585788e-05,0.0,5837918.33076,678.571265165,646.950204048,67012401.5085,1680.9691213,38231889.1848,70892866.0059,4322.79123636,4314.05945054,0.0
1.03944527154,0.844709036049,1.0293251994e-05,-50431204.4145,1.53277905719e-05,0.0,5819935.8416,678.187961643,646.807290815,66952786.9285,1678.82215991,37622776.5157,70748543.8918,4314.73732216,4306.1232278,0.0
0.964621063726,0.822165968099,1.0143749197e-05,-93964965.5338,1.51274327778e-05,0.0,6027166.24417,683.845334985,642.067824627,67467310.8931,1613.66181534,69000939.9385,69227805.6752,4004.14203553,3997.42003677,0.0
1.15218193392,0.6106555537,1.04046528006e-05,-3803097.85942,2.77674674808e-05,0.0,5415737.10113,684.944613428,654.122014518,65778547.3745,1824.176879,47362642.8092,67905084.2999,4782.7072077,4771.98556216,0.0
1.16391131453,1.06473922531,1.00424125289e-05,-672899.312,1.98030754074e-05,0.0,5448836.14416,685.519019805,654.852871087,65882469.7379,1837.95070451,49529202.5379,67718075.8793,4831.39586661,4820.45257622,0.0
1.11839273719,0.998751544501,9.70475640252e-06,-15653907.1526,1.80102767844e-05,0.0,5624018.4315,682.932155371,651.883302862,66431444.0174,1781.35493651,40975816.957,69336193.171,4642.44825208,4632.37632704,0.0
1.05598952365,0.762150676321,9.54500622179e-06,-43113254.3667,1.64503088603e-05,0.0,5810885.96417,679.572164118,647.875244299,66942191.2956,1700.82699681,35395991.6142,70591447.185,4383.41251267,4374.58558673,0.0
1.05560019701,0.968019701598,9.98583311585e-06,-41129478.4645,1.44335343946e-05,0.0,5830403.54477,679.198225688,647.925259471,67003837.6477,1701.55440025,35040331.5317,70302859.027,4381.79641779,4373.50247856,0.0
1.05264843048,1.17673012217,1.03509780965e-05,-42798499.856,1.26900510281e-05,0.0,5854686.68491,678.547474954,647.660992755,67094945.5637,1698.60652141,35321220.383,70196999.4883,4369.54363492,4361.78845366,0.0
1.17708832488,1.27814521349,1.00423428445e-05,3045085.62102,1.7611354851e-05,0.0,5442754.53221,686.144719943,655.662518782,65878906.2621,1854.51506297,51601673.611,67147680.5734,4886.09363658,4875.2270762,0.0
1.0387646409,0.756194171999,9.32420408621e-06,-57183011.9443,1.59741416416e-05,0.0,5900336.56545,678.963235107,646.817382551,67200109.2464,1680.16635106,41131634.6953,71325158.5953,4311.91202438,4304.36044049,0.0
1.14857707276,0.767757035223,1.00283740037e-05,-7465185.35749,2.55499505933e-05,0.0,5559586.36691,684.652209774,653.856374511,66271676.8128,1823.44938776,45754655.4654,68549509.7168,4767.74342903,4758.36707665,0.0
1.14217738634,0.893743879217,1.01795018815e-05,-8809438.96075,2.26271231164e-05,0.0,5578991.36042,684.06162399,653.41604403,66316717.9619,1814.74965685,45010849.7753,68222290.9388,4741.1783307,4731.79830628,0.0
1.22244135275,0.830640604959,1.02348763241e-05,13770057.5618,2.93193176182e-05,0.0,15007733.1589,689.201832212,658.514927882,65045663.418,1908.3684489,59032968.1212,66438274.8159,5074.35405527,5062.45813563,0.0
1.11439249742,1.03630125389,1.00319610964e-05,-16238905.9935,1.75104510342e-05,0.0,5676046.09598,682.409783414,651.658297193,66587114.9775,1778.18127777,40660026.8258,69331639.814,4625.84325679,4616.62732112,0.0
1.0273339929,0.908250235369,1.01707020355e-05,-63485141.0374,1.46011533326e-05,0.0,5850269.97639,677.843724063,646.047966254,67028890.732,1662.51396283,44888427.4383,70882942.7615,4264.46340453,4256.04548187,0.0
0.966597033924,0.989070669572,9.94541489931e-06,-94147169.7198,1.39391441752e-05,0.0,6005694.31582,683.696336165,642.18791571,67387903.2698,1611.93258488,69161400.758,69390345.7535,4012.34428782,4004.95899644,0.0
1.21163064167,0.900699095053,9.88765173997e-06,10974182.1114,2.62373679568e-05,0.0,12296444.772,688.603038473,657.771545686,65220739.2169,1895.54358679,56801728.6223,66483813.732,5029.47879357,5017.55973918,0.0
1.18671830044,1.24705932742,1.00031795693e-05,5181810.90176,1.85049863039e-05,0.0,6762371.48067,686.772457491,656.252744294,65748383.1674,1865.97659772,52897231.6719,66996189.2123,4926.06766513,4914.94363272,0.0
1.17414226893,0.995647253171,9.66717398296e-06,242578.121225,2.31399826442e-05,0.0,5507004.00522,686.386755641,655.534140839,66130114.1109,1855.07877777,50325626.8956,67861936.7826,4873.86455833,4864.0757761,0.0
1.22459790687,1.00145172164,9.80081626374e-06,13595224.8327,2.53525552741e-05,0.0,14875891.1377,689.468925143,658.648549211,65088028.0997,1910.45121096,58908358.8489,66492788.6033,5083.30591142,5071.08277995,0.0
1.15974731111,0.866183559003,9.94404940473e-06,-2887919.24873,2.26109791111e-05,0.0,5449300.45625,685.483824091,654.601528968,65915490.7172,1833.48454887,48129460.1571,67706132.1597,4814.11108842,4803.26748109,0.0
1.15574878923,1.12652032944,9.91127890058e-06,-5596320.07007,1.96063232666e-05,0.0,5568416.62631,685.013000202,654.339787536,66298770.1681,1831.92910537,46916475.7194,68669691.5153,4797.51322409,4787.92536793,0.0
1.13666916387,1.08222927609,1.00099033026e-05,-9411060.20176,1.8648044052e-05,0.0,5596271.87628,683.805899899,653.114451545,66369270.667,1806.16900642,44902365.4188,68015194.5232,4718.31369922,4708.60843952,0.0
1.08068924044,1.16092295741,1.0112844645e-05,-29028714.7804,1.38009508486e-05,0.0,5784932.41319,680.44613453,649.578825911,66899596.7398,1734.97740654,35642403.433,69324103.0302,4485.94103707,4477.44760435,0.0
1.08035685827,0.985808246192,9.92543518024e-06,-29281527.0545,1.54857518999e-05,0.0,5762725.67651,680.624010755,649.541150377,66820285.3549,1733.44294166,35494655.0156,69337649.9511,4484.56131868,4475.69079537,0.0
1.06831873704,1.02461547805,1.04268775403e-05,-34932944.7236,1.50114216033e-05,0.0,5732927.13824,679.48590641,648.635566527,66726853.7767,1716.01454259,34611884.8317,69552413.6289,4434.59107745,4425.08771313,0.0
1.06200198662,0.802329658725,1.01228373973e-05,-37468056.3511,1.65636097786e-05,0.0,5802844.14433,679.392600457,648.270865302,66933369.7845,1710.22264287,34625785.3804,69978975.0029,4408.37024646,4399.97669161,0.0
0.959920278505,1.10551462049,9.42082691082e-06,-94122346.693,1.27317300322e-05,0.0,6093662.84169,685.921011566,641.773230406,67645005.1407,1617.21675638,69139385.4012,69366775.0269,3984.62907607,3978.10503371,0.0
1.01682502438,0.732228799698,1.0301748004e-05,-74320917.6338,1.5677228402e-05,0.0,5915546.20109,677.470576418,645.411348284,67218854.7352,1651.09316668,52683364.2914,70682544.0827,4220.8406762,4213.69407396,0.0
1.01280786297,1.23596262534,9.81882289515e-06,-80981468.937,1.13036087272e-05,0.0,5906145.53453,677.817721912,645.140091934,67139196.9175,1641.91306055,58001784.5001,70882056.6597,4204.16543919,4195.70062193,0.0
1.18037722914,0.877098344876,9.86546643598e-06,3193884.49274,2.4094886458e-05,0.0,5379377.32295,686.734263309,655.860939668,65694174.4795,1858.92324766,51685312.5187,66952594.4087,4899.74587816,4888.62495475,0.0
0.963020221309,0.872240781682,9.75612182652e-06,-94108657.7379,1.47230304533e-05,0.0,6063790.72167,684.821569947,641.971278511,67566722.9676,1615.98996879,69127402.8426,69354987.5006,3997.49693865,3991.01107247,0.0
1.09324542616,1.26131116757,1.00062197386e-05,-25059634.4837,1.35767766959e-05,0.0,5761110.53623,681.137650072,650.323069656,66844036.8199,1751.33198479,36547532.1487,69211043.6457,4538.06176399,4529.37239571,0.0
1.17197101421,1.11406806037,9.70392828124e-06,1038515.83934,1.91196806359e-05,0.0,5449626.26988,686.156018534,655.364797785,65910643.8821,1848.24399762,50654890.1053,67751891.2885,4864.85167999,4853.86965155,0.0
1.10557721472,1.06574149542,1.03224425854e-05,-18064870.7945,1.64449535672e-05,0.0,5674334.36149,681.737883466,651.136153244,66572236.8786,1765.74851547,39610680.2789,68864796.4056,4589.2510183,4579.88414867,0.0
1.16768765353,0.760176404189,9.76140824877e-06,-1241340.1701,2.72494392463e-05,0.0,5483269.68278,686.117345007,655.121649726,66035134.1648,1846.70998083,49300794.5838,67895330.9279,4847.0714498,4837.15317783,0.0
1.10253080345,0.713525180808,9.86402431114e-06,-22090330.202,2.1052158292e-05,0.0,5702626.20575,682.103061265,650.98907067,66675176.1745,1764.08359546,37522964.1565,68464529.2284,4576.60536512,4567.769815,0.0
1.20476603895,1.1128122737,1.0135396025e-05,9710415.20791,2.21001585773e-05,0.0,11050560.7446,687.890969941,657.344941894,65330168.4505,1886.42408874,55761603.0727,66913677.2002,5000.98382768,4989.09115566,0.0
1.15278133236,0.965834717216,9.49792855775e-06,-5807493.43724,2.12233257365e-05,0.0,5554139.70018,685.171706385,654.139069129,66250647.4985,1827.01066237,47157292.1644,68918895.5484,4785.19531063,4775.20755937,0.0
1.19514960251,0.813714042777,9.46528688648e-06,6017702.87042,2.63358418774e-05,0.0,7667568.01591,687.993566609,656.78571799,65482731.5588,1876.60123718,53479095.0644,66814459.6302,4961.06600002,4949.324372,0.0
1.12077910994,1.13270822441,1.03102845161e-05,-13969506.7116,1.68627299353e-05,0.0,5622986.70648,682.610021587,652.05252204,66415192.9676,1785.27454362,41899705.6629,68220399.9316,4652.35408536,4642.63327708,0.0
1.11095621256,0.941658081506,1.03152228036e-05,-16804238.3356,1.88373264905e-05,0.0,5594481.2156,682.146229186,651.415670579,66329905.7499,1770.92010391,40219033.8814,68995284.5284,4611.57923834,4601.34980429,0.0
1.1036360767,0.999987211217,1.00285372855e-05,-21390238.5726,1.73154570212e-05,0.0,5715655.99695,681.909488926,651.056774546,66706425.6424,1765.21809753,37818074.7566,68637561.5853,4581.19335438,4572.3395852,0.0
1.10081380562,0.756929709814,1.00703761434e-05,-22305009.7552,2.03696054435e-05,0.0,5700084.88623,681.832374887,650.876724583,66655780.248,1761.61792223,37383411.6115,68416526.8122,4569.47810713,4560.66975499,0.0
1.14987630624,1.10664798051,9.99532330586e-06,-7306627.43333,1.96967233381e-05,0.0,5587784.23862,684.598491263,653.958574151,66358865.2894,1824.74652379,45927680.6341,68826759.6188,4773.1365472,4763.73936195,0.0
1.08781954147,1.03964223276,9.89817152467e-06,-27149229.8373,1.55131238514e-05,0.0,5766880.11474,681.044222785,650.028203314,66851828.8622,1744.41083471,36032853.8999,69359632.4782,4515.53891664,4506.93444222,0.0
1.13022443552,0.794321611618,1.01623275593e-05,-11701973.4193,2.246262782e-05,0.0,5568795.04448,683.408024694,652.607857083,66261929.5454,1797.78857693,43218212.3962,67367160.5403,4691.56163184,4681.68227937,0.0
1.13781854807,0.851127989337,9.70358326795e-06,-10468913.5108,2.19750122242e-05,0.0,5594458.6152,684.225644906,653.193589178,66364302.0856,1808.57288154,44155516.5815,67815174.067,4723.08479304,4713.46205411,0.0
1.02027951593,1.10401531518,1.01381876868e-05,-70250657.2888,1.27284380252e-05,0.0,5879179.0239,677.644995533,645.614786037,67103069.1611,1652.93560302,49635058.6715,70941643.8333,4235.18027063,4226.87558005,0.0
1.24243514402,0.757448120677,9.93559021365e-06,18192776.0551,3.29266217178e-05,0.0,19792895.3751,690.654454,659.751298845,64829779.5278,1932.24223756,62601780.4169,67011347.0693,5157.34828283,5145.30423215,0.0
1.17992761249,0.964845929199,1.00815943213e-05,3419871.85554,2.27082614426e-05,0.0,5456901.15867,686.510603318,655.824481761,65677023.2442,1857.99560958,51678063.9394,66960391.5382,4897.87951945,4886.75489102,0.0
1.07642782251,0.905021880761,1.00250790802e-05,-30998763.417,1.63498986765e-05,0.0,5787087.84851,680.154347645,649.150667628,66898110.9441,1729.57975618,35268487.3893,69401139.3963,4468.25189124,4459.82453978,0.0
1.11390697953,1.14786362132,1.05457042017e-05,-15540285.6612,1.63327116534e-05,0.0,5644028.66657,681.987549163,651.594464247,66480404.9712,1776.67558495,40916558.7576,69076779.5179,4623.82787203,4614.32204407,0.0
0.997751110599,0.879157823396,1.04105061532e-05,-95385434.9215,1.45960663976e-05,0.0,5892510.87885,677.982251899,644.176725699,67095331.9415,1622.23409696,70251924.1072,70504044.8845,4141.6648601,4133.47515598,0.0
1.0072000352,0.759697067997,1.01101633619e-05,-87755263.3555,1.56461746691e-05,0.0,5871852.70326,677.902893514,644.780371711,67039915.4809,1634.65986716,63635935.8256,70702424.0421,4180.88734612,4172.46170039,0.0
1.23335983653,1.16456188178,1.0095387993e-05,15947805.719,2.34675563425e-05,0.0,17466159.5315,689.530027665,659.127542338,65192185.7048,1921.70472141,60929959.1887,66862301.961,5119.67668144,5108.0071334,0.0
1.0605383707,0.894504661776,9.67991828056e-06,-42257382.6678,1.56772448397e-05,0.0,5790642.91073,679.675016481,648.140794879,66892379.4063,1706.48790462,35168499.9945,69654485.3808,4402.29477678,4393.24590703,0.0
1.09693450864,0.733981930844,9.79447000444e-06,-24116523.6147,2.00920877051e-05,0.0,5724575.12926,681.749550418,650.578017114,66733242.9958,1756.75195315,36856377.3605,69102832.7359,4553.37514536,4544.62775194,0.0
1.24742769594,0.538746012655,1.00247366857e-05,19528846.7867,4.30316084349e-05,0.0,21179880.3803,691.326928269,660.04509256,64445191.0382,1938.13007321,63561084.7514,64525645.7366,5178.07236585,5165.71241376,0.0
1.14479953366,1.05652405076,1.0031743691e-05,-8589750.17402,2.00969830028e-05,0.0,5599225.33313,684.226680231,653.579421232,66388040.8629,1818.36083526,45156918.876,68372658.8878,4752.06286422,4742.74697694,0.0
1.14270760689,0.819788530726,9.62801974205e-06,-9320887.2848,2.29544394126e-05,0.0,5577349.57733,684.565236979,653.492675611,66318713.788,1814.91606776,44890726.5109,68143056.9021,4743.3792762,4733.67420783,0.0
1.07928975173,1.07555689326,1.03176093104e-05,-29033735.386,1.48839351874e-05,0.0,5779059.12657,680.256766041,649.491973638,66887347.4876,1733.55076948,35573954.8028,69241004.7785,4480.13175943,4471.75655627,0.0
1.10124362723,0.683494642765,9.78240532787e-06,-19557674.0747,2.05264809071e-05,0.0,5687601.54303,682.056628633,650.900945822,66596646.5253,1760.86073563,38954021.2243,68519579.8192,4571.26229663,4561.98502936,0.0
1.15035657411,0.904942378161,9.86416203224e-06,-7385530.82742,2.29386324402e-05,0.0,5574278.20185,684.800190781,653.977902493,66316252.1484,1825.64577617,45915980.6473,68667195.7124,4775.13013913,4765.72356688,0.0
1.13104454907,1.11369583182,1.0027623121e-05,-11103714.3627,1.78002456909e-05,0.0,5624088.10577,683.419472918,652.755995512,66454640.713,1799.24355134,43788321.9909,67647178.1662,4694.96592319,4685.48286283,0.0
1.12718488394,1.13622151786,9.93723075288e-06,-13275235.8369,1.74763470871e-05,0.0,5666990.17452,683.207224126,652.500382083,66587638.5529,1795.67001622,42494868.4602,68316865.1386,4678.94445323,4669.93468067,0.0
1.10452005966,1.04216822446,9.96667893926e-06,-21323303.5728,1.67378295951e-05,0.0,5719291.39442,681.980618126,651.111331971,66717618.0172,1766.34167809,37876715.1043,68685980.9179,4584.86276765,4575.99579459,0.0
1.19757197992,0.978810750925,9.89278987825e-06,7584164.41172,2.34576698111e-05,0.0,9008131.84861,687.72544994,656.979729455,65537208.0431,1879.50268638,54324104.7318,66648820.1577,4971.12128865,4959.79583309,0.0
1.12166901427,1.01182993984,9.77350163073e-06,-14507765.8821,1.81758399734e-05,0.0,5657332.36785,683.032460176,652.110994914,66544820.3566,1787.43487192,41582870.57,69032726.2497,4656.04807823,4646.61378787,0.0
1.23326666656,1.06804158986,1.0385236392e-05,16078651.4309,2.60133057682e-05,0.0,17658904.8026,689.600512768,659.139855669,64854519.6648,1919.20182104,60930687.2111,66650480.2984,5119.28993289,5106.85371359,0.0
1.25997244086,0.945413239534,9.80182175008e-06,21354549.907,3.02808253899e-05,0.0,23199830.1433,691.721231043,660.839228285,64620950.1455,1951.68788918,65078444.7489,65910826.1501,5230.14560201,5217.55001354,0.0
1.14083492022,1.02934810365,9.91640249855e-06,-8853713.6693,2.00688295587e-05,0.0,5607587.19461,684.101675271,653.365811061,66417481.5103,1812.77293833,45268378.0627,68221555.2977,4735.60575383,4726.24872515,0.0
1.1478925398,0.891687605218,9.64699019625e-06,-6816762.04229,2.21796992259e-05,0.0,5549955.50402,684.782105644,653.781466269,66228947.1655,1820.538074,46538491.1008,68670209.4971,4764.90193271,4754.90523028,0.0
1.13456213139,0.997523973025,1.01150015951e-05,-10832135.15,1.98236027148e-05,0.0,5574137.23262,683.606000255,652.891971244,66283774.9867,1803.10989303,43788201.5043,67716185.895,4709.5674074,4699.61367042,0.0
0.932619136433,0.930753794914,9.93995053206e-06,-92834693.1114,1.35841384248e-05,0.0,6132657.35869,688.334062258,640.012989476,67727845.4163,1605.66227367,68005814.3889,68217066.2381,3871.30203533,3865.30079277,0.0
1.14225926771,0.841317744116,9.77239446218e-06,-8420500.73994,2.26834931937e-05,0.0,5573578.52527,684.385635629,653.442714553,66308312.9675,1813.99414852,45604425.0764,68276892.2442,4741.51822026,4731.82538699,0.0
0.988847045795,0.759116190867,1.03331489234e-05,-94997860.6598,1.53504487969e-05,0.0,5912821.21235,679.172085672,643.608210563,67139964.5434,1610.72024899,69910598.4139,70154232.0698,4104.7040871,4096.65621541,0.0
1.16303626302,0.864376418428,1.00852117728e-05,-1933093.05274,2.51923196654e-05,0.0,5513300.51926,685.528390399,654.831266376,66127432.9289,1841.12407256,48804228.3425,68157322.6071,4827.7635278,4818.16889167,0.0
1.08828469054,0.943596134213,9.63851529588e-06,-27376459.9091,1.63043623618e-05,0.0,5767539.96092,681.293433907,650.062769104,66855493.4635,1744.89505516,36026970.8146,69430450.0555,4517.46975043,4508.76055926,0.0
1.147643913,0.989231632314,1.00783889244e-05,-7662337.83869,2.15427890335e-05,0.0,5580543.8268,684.441689897,653.791998494,66336189.3268,1822.00581172,45640356.1833,68560816.767,4763.86988286,4754.50680695,0.0
1.09205967329,0.771687693965,9.82959686982e-06,-25631067.0437,1.90916561977e-05,0.0,5740570.71942,681.419339092,650.263893219,66774802.0949,1750.33015097,36373412.4837,69293548.598,4533.13970383,4524.46880774,0.0
1.09329870827,0.56808803788,1.00485945042e-05,-24715383.5972,2.30028168574e-05,0.0,5706871.28126,681.433633901,650.328316527,66677705.0677,1752.01054908,36528490.252,69002315.4271,4538.28293803,4529.59273441,0.0
0.946774338214,1.04253282812,9.84875333739e-06,-93430608.2237,1.31530460175e-05,0.0,6107917.89984,686.753868849,640.925349029,67681474.284,1611.32279754,68530404.7392,68748482.2184,3930.06027793,3923.87171691,0.0
1.12892202537,1.03551327319,9.78867736514e-06,-12547461.7786,1.8460247034e-05,0.0,5631358.56523,683.491380237,652.600515887,66461960.1147,1796.69181836,42748593.0704,67864079.099,4686.15532731,4676.60166386,0.0
1.06770162649,0.891831618966,1.0134600274e-05,-34833405.017,1.59394613782e-05,0.0,5793505.22321,679.666746936,648.642949849,66905337.8902,1717.63668726,34701686.3726,69899018.975,4432.02945156,4423.5467977,0.0
1.17001025168,1.11655717444,9.88717600222e-06,863635.353295,1.88561089071e-05,0.0,5450661.92465,685.911487862,655.2402761,65894649.7419,1845.75127716,50456782.5563,67613437.1149,4856.71255472,4845.77572359,0.0
1.05601456856,0.983770234738,9.81003328699e-06,-43990872.9512,1.45787693721e-05,0.0,5803363.53539,679.323417509,647.869943935,66925649.7632,1700.42914495,35538624.7309,70316004.2247,4383.51647409,4374.54203338,0.0
1.06133977756,0.869356371187,9.80393887324e-06,-39604532.557,1.5925930752e-05,0.0,5835711.44718,679.546862271,648.237442861,67039134.1162,1709.99157468,34985457.3608,69922710.5638,4405.62141665,4397.64118695,0.0
1.09266580687,1.14246418428,9.99975200924e-06,-25260447.0754,1.47044548578e-05,0.0,5756271.63479,681.150328506,650.286826185,66828138.026,1750.65648973,36443641.2589,69220118.8145,4535.65576432,4526.97548108,0.0
1.04869666208,0.774136662321,9.91933245606e-06,-44888609.7947,1.60882181326e-05,0.0,5830425.53512,678.88532772,647.419341739,66990398.4509,1691.86550999,35852781.2175,70477603.3278,4353.13984429,4344.77301359,0.0
1.16544201633,0.887101910602,1.01143719059e-05,208368.972169,2.30324895536e-05,0.0,5417237.26115,685.677215532,654.944979467,65788054.5258,1839.90591046,49995751.2382,67572305.8053,4837.74980979,4826.78084022,0.0
1.0916960014,0.985732182501,9.9881627615e-06,-25537346.8775,1.65585995906e-05,0.0,5748150.91731,681.174376882,650.229361358,66801932.0006,1749.52652463,36333173.4885,69226449.8,4531.63010181,4522.9642586,0.0
1.03621763582,1.00839169695,9.88954102869e-06,-57156852.7565,1.37979173135e-05,0.0,5853438.02422,678.377142656,646.628570251,67050372.7985,1674.5909698,41041752.9996,71070383.5997,4301.33940629,4292.86501474,0.0
0.879432142196,1.07924691129,9.9896532213e-06,-90441857.98,1.11854054579e-05,0.0,6199824.35461,694.310383088,636.569348625,67842329.1394,1583.61839007,65899877.6894,67842329.1394,3650.52282226,3644.17457449,0.0
1.26394793273,0.793263376665,9.79517066409e-06,22387861.3606,3.49657233038e-05,0.0,24317468.3849,692.070379026,661.116259981,64620004.6848,1957.64723767,65959860.8095,66849955.6196,5246.64786876,5234.45627313,0.0
1.14636757497,0.809698179017,9.77867821354e-06,-7227815.98069,2.37038484671e-05,0.0,5554902.99291,684.623897732,653.67757694,66258077.5693,1819.2421588,46260561.3818,68544175.7074,4758.5718037,4748.80928576,0.0
0.988510986636,0.817618158648,1.00361418407e-05,-95088252.0809,1.49517380944e-05,0.0,5923834.01862,679.818808775,643.589788447,67171846.6124,1611.41123781,69990042.8051,70234160.6278,4103.30910553,4095.18699791,0.0
1.13287736853,0.942633768104,9.82666211723e-06,-11416956.8973,2.02703773104e-05,0.0,5606020.79658,683.785258792,652.866726422,66388233.893,1801.79988096,43500798.6861,67557519.6753,4702.57395677,4692.9284945,0.0
0.923319602177,0.999950714235,9.85161872289e-06,-92315640.2954,1.37322273296e-05,0.0,6154606.10773,690.210675249,639.413098515,67791733.1143,1606.75492329,67549073.708,67791733.1143,3832.69966864,3826.84998567,0.0
1.12938793347,1.00112018695,9.79501159379e-06,-12427885.1304,1.90391218624e-05,0.0,5626127.83957,683.540282795,652.633567894,66447158.614,1797.32382718,42854914.8989,67756192.0243,4688.08931183,4678.52795967,0.0
1.05543558864,0.601484164638,1.00031158604e-05,-41095826.135,1.83712919325e-05,0.0,5809485.8982,679.20841921,647.832429521,66939696.3171,1701.60615259,35046077.7704,70227036.5245,4381.11312844,4372.82318482,0.0
0.945025247769,0.929446265667,9.88199788246e-06,-93334820.1237,1.40145442993e-05,0.0,6105302.27784,686.930975732,640.812475673,67671609.1423,1610.527867,68446110.4084,68663206.2742,3922.79980349,3916.63681899,0.0
1.08341519086,0.922881950646,1.00881677073e-05,-28064614.6073,1.66784732375e-05,0.0,5762662.41819,680.717119344,649.754746735,66835285.4659,1738.73205934,35776045.0112,69272263.3051,4497.25645726,4488.72064255,0.0
0.971519550072,1.01087900317,9.79689575281e-06,-94646044.3518,1.35025264836e-05,0.0,6049657.91839,682.891522263,642.519277842,67531627.7587,1613.95862478,69600361.8835,69834224.3146,4032.77765235,4026.18117441,0.0
1.16005175651,0.727136304683,9.75455312807e-06,-3347184.36837,2.68487984736e-05,0.0,5485087.09556,685.717304956,654.645538375,66031229.962,1836.47239631,48171115.7612,68188043.2568,4815.37484127,4805.26232912,0.0
1.10671680292,0.969619406632,9.93221743369e-06,-18499374.9655,1.75514955755e-05,0.0,5651324.7749,682.170434727,651.210834916,66499533.2676,1766.31091915,39273220.5444,68827243.3582,4593.98144892,4584.11046582,0.0
1.02814078954,0.698232282164,1.00648581931e-05,-63534625.8321,1.65147332612e-05,0.0,5839765.47615,678.05198743,646.100509539,66997038.8303,1663.70631507,44919973.3864,70891140.7194,4267.81241738,4259.38150518,0.0
1.01260542335,0.791776706522,9.6601810944e-06,-83985521.8604,1.51060981381e-05,0.0,5959041.98459,678.148929881,645.159380098,67317241.0246,1645.42884019,60473962.9343,71422238.7558,4203.32511233,4196.23795426,0.0
1.13182817092,0.800526691254,9.93596869733e-06,-10726903.7882,2.23640825976e-05,0.0,5592618.17572,683.700161314,652.805695158,66350449.4233,1800.35204574,43987451.0332,67585781.2844,4698.21873749,4688.62020389,0.0
1.15951113113,0.867291064519,9.71867144638e-06,-2505345.34917,2.23461238078e-05,0.0,5460169.01432,685.595010591,654.591444053,65942357.0313,1833.16939171,48709604.1523,68145182.5683,4813.13070532,4802.26656541,0.0
1.04564856386,1.04367937495,1.01782380134e-05,-47779500.9548,1.3688530026e-05,0.0,5822137.8572,678.519142498,647.224932803,66971160.1052,1686.91621432,36679186.4339,70451102.2973,4340.48718858,4331.7734568,0.0
1.17414106689,0.761808307677,9.90035561816e-06,2390396.41385,2.59929825384e-05,0.0,5385309.73797,686.412223563,655.48033833,65701775.8487,1851.16452827,51269207.0958,66963875.9595,4873.85956866,4862.84120456,0.0
1.07802370163,0.879165746118,9.81365592977e-06,-31071642.2956,1.66191052845e-05,0.0,5789864.11285,680.409028231,649.25672144,66917626.5967,1731.69679756,35291523.0983,69411202.3694,4474.87638547,4466.42431174,0.0
1.11506772945,1.14891617422,9.87791516858e-06,-16437231.4079,1.59691247569e-05,0.0,5689828.29538,682.505635649,651.708314507,66642338.9162,1778.99393567,40647598.3555,69372471.5255,4628.64614495,4619.42020067,0.0
1.15938709149,0.967007404112,9.92734204857e-06,-3392102.89777,2.23190218397e-05,0.0,5511920.23261,685.398672412,654.602662543,66123542.082,1835.45308282,48117546.288,68230742.9734,4812.61581677,4802.5942604,0.0
1.11243680098,0.852643293027,1.02802427347e-05,-16116173.1087,1.9818383349e-05,0.0,5635884.06631,682.223126381,651.516897776,66464636.3384,1774.86314327,40558093.0632,69239713.1832,4617.72516087,4608.24321553,0.0
1.1377467458,0.961948107359,9.73062112015e-06,-10142092.5168,2.06626311334e-05,0.0,5628285.12422,684.082968145,653.197399494,66478755.5796,1809.31792174,44567390.9622,68000334.6019,4722.78674182,4713.58611664,0.0
1.01620962349,0.989162107324,1.02685458921e-05,-73352987.8733,1.37418145844e-05,0.0,5878704.71069,677.528948768,645.355850059,67092521.6736,1647.75920078,51956241.1688,70626700.244,4218.28614711,4210.13116261,0.0
1.12997010403,0.969331628932,9.67981694874e-06,-12415091.1514,1.94790657937e-05,0.0,5625399.20355,683.667556977,652.669576919,66456841.6611,1798.09676431,42884138.3525,67827784.7329,4690.50590183,4680.90941323,0.0
1.13212970618,0.925269788702,1.00068455959e-05,-10981161.9512,2.09102798879e-05,0.0,5625598.83451,683.578591989,652.835285406,66462887.0761,1801.76286861,43894980.9563,67696736.1534,4699.47041035,4690.27985307,0.0
1.12129942977,0.882805801895,1.01933699915e-05,-13835290.8788,1.98790786736e-05,0.0,5607867.42361,682.825846398,652.085915416,66383207.6224,1786.13150905,42033376.6629,68295763.1732,4654.51393298,4644.80216219,0.0
1.10131818618,0.946318484247,9.8768604421e-06,-22501052.3851,1.76339231014e-05,0.0,5725422.17997,681.901224899,650.909981676,66743400.2025,1762.26587482,37384056.6176,68753385.582,4571.57179083,4562.7553733,0.0
1.08238636748,0.910382205704,1.01224344343e-05,-28321754.8431,1.67699282986e-05,0.0,5763281.06481,680.639965024,649.691195358,66835963.0627,1737.39040435,35724644.718,69257944.1107,4492.98581141,4484.46600261,0.0
1.10739538862,0.677387571602,1.00805933951e-05,-18023461.6559,2.20970248401e-05,0.0,5617480.6047,682.278216225,651.246433976,66389374.6389,1767.73791074,39544309.3976,68785105.1876,4596.79825816,4587.01155428,0.0
1.12369354717,0.878079029214,1.00125988184e-05,-14030328.8113,2.09298672985e-05,0.0,5654869.46971,683.04825888,652.265424499,66546221.5219,1791.38583308,42027385.0877,68574618.4044,4664.4519143,4655.49706462,0.0
1.14714221031,0.651557847375,9.5790941054e-06,-6953922.6321,2.65733766413e-05,0.0,5505654.82314,684.970051653,653.717952013,66090229.586,1819.18694811,46413638.4713,68538681.6223,4761.787315,4751.50705552,0.0
1.15223256544,0.994992441999,9.85348436245e-06,-7620736.81088,2.15901612731e-05,0.0,5471987.96612,685.039165178,654.072736509,65996975.7852,1824.24326853,45555180.1136,68419223.4471,4782.91737914,4772.01045853,0.0
1.01436252308,1.01992467974,9.69648176665e-06,-81499752.3026,1.32019071107e-05,0.0,5963892.62153,678.019281802,645.26577875,67334781.4281,1647.69455156,58416325.7779,71157360.9886,4210.61883331,4203.5066651,0.0
1.18609061997,1.09104411137,9.9216309097e-06,4802546.64895,2.05655214614e-05,0.0,6397712.94705,686.866324304,656.204887782,65720915.1764,1865.65106599,52608334.9697,67033544.8783,4923.4621635,4912.34706824,0.0
1.09319507035,0.974799762851,9.78130234623e-06,-25433873.0653,1.6543714078e-05,0.0,5755034.77989,681.417778147,650.328888241,66819804.1431,1751.63942467,36459275.5973,69340830.5494,4537.85273702,4529.1640485,0.0
1.05797462914,1.10804725689,1.03347750645e-05,-37894086.3115,1.31043451755e-05,0.0,5793313.53211,679.040016539,648.078787106,66880266.2528,1703.10282944,34571225.9294,69771514.6931,4391.65268556,4382.70439957,0.0
1.11747498646,1.16239316793,1.0302178189e-05,-15062066.1091,1.62598111343e-05,0.0,5644831.99094,682.366039296,651.82866887,66482989.1716,1781.30655822,41191663.1201,68875666.9017,4638.6386688,4629.07350952,0.0
1.05697489491,0.850949902901,9.95983522877e-06,-40007416.8844,1.5399866618e-05,0.0,5827697.61003,679.193532723,647.92471731,66997530.7541,1703.49794365,34852477.466,69909241.1532,4387.50278877,4379.18727427,0.0
1.08746912046,0.712432078729,1.01867524334e-05,-26311079.1315,1.99030517364e-05,0.0,5731928.59584,680.947343381,649.988566738,66748749.4321,1744.20654743,36088099.9708,69152245.3801,4514.08431903,4505.48531559,0.0
0.896274790916,1.22380937805,1.02621105754e-05,-90947175.2472,1.08654997811e-05,0.0,6166169.32806,692.076368615,637.654671271,67780531.8328,1590.75471252,66344793.3609,67780531.8328,3720.43665709,3714.11572403,0.0
1.01136692411,0.948894905068,9.96775347577e-06,-82527284.5673,1.37136868744e-05,0.0,5956961.04846,677.700486611,645.066868012,67313060.0532,1643.76124377,59254530.9797,70842494.3107,4198.18410198,4191.11443275,0.0
1.14303847044,0.929744122767,1.02123846182e-05,-8475049.15285,2.21642596158e-05,0.0,5577170.82168,684.102393147,653.462290408,66317484.845,1815.78890358,45167119.3842,68301755.7514,4744.7526908,4735.35879475,0.0
1.06489738806,1.1611494085,1.03764624725e-05,-34809725.0901,1.32237903966e-05,0.0,5811868.62497,679.218441045,648.462768248,66964378.5802,1713.88783326,34691850.0237,69929802.8428,4420.38905784,4412.04413665,0.0
1.2008325144,1.08306865651,1.02578410017e-05,8533572.59149,2.24386541588e-05,0.0,9907078.3633,687.661103524,657.140756042,65323268.1945,1881.86452708,54793024.0646,66650381.7105,4984.65576727,4972.82345017,0.0
0.939474483603,0.916736115259,1.02156971984e-05,-93042295.2526,1.36474653396e-05,0.0,6104576.61677,686.652171701,640.452834375,67663802.092,1604.98680929,68188640.2781,68402967.7432,3899.75858144,3893.66698497,0.0
0.994472486816,1.06767403589,9.82852196804e-06,-95464072.8542,1.31879427949e-05,0.0,5984050.56269,679.740843709,643.99033543,67369132.2257,1620.37000036,70320726.8712,70565626.2436,4128.05529277,4120.87563886,0.0
1.02925321294,0.765944398943,1.05548938208e-05,-59215900.1572,1.59307463115e-05,0.0,5801496.81815,677.612676524,646.16533176,66888372.9398,1663.93813556,42142880.1085,70497361.4292,4272.43008691,4263.55613718,0.0
1.20291001054,1.03431760799,9.7054775936e-06,9265426.03924,2.27771221724e-05,0.0,10671610.3189,688.055203954,657.301354488,65603075.3172,1886.55202827,55634754.1901,66975549.854,4993.27945375,4982.16024718,0.0
1.15112244682,1.1984023066,9.99172184832e-06,-5176168.47052,1.79908453607e-05,0.0,5540242.07336,684.538649541,653.942191989,66199753.1389,1823.49562307,47158860.1913,68643874.7213,4778.30927675,4768.05043586,0.0
1.13000987137,0.858948242316,9.97059823583e-06,-11916729.8633,2.12385948807e-05,0.0,5584340.13748,683.463559282,652.591570395,66323065.5985,1797.31217458,43265827.081,67378582.6043,4690.67097606,4680.79567142,0.0
1.085206311,0.857412670793,1.01252165837e-05,-27302297.2111,1.76278965786e-05,0.0,5751689.4724,680.814393816,649.861415832,66804618.3312,1741.12583534,35897723.5649,69240461.3535,4504.69139696,4496.12768756,0.0
1.0652582572,1.06920570742,9.98855965469e-06,-36569300.449,1.38168601963e-05,0.0,5816915.90383,679.564834814,648.482575417,66980184.472,1714.30086659,34662671.3808,70198954.7071,4421.88702564,4413.4426146,0.0
1.19239754053,0.986988486507,1.01633076956e-05,6287336.79775,2.34359296148e-05,0.0,7795681.90891,687.297727174,656.634691445,65427661.0627,1872.17930906,53214218.8663,66544854.9605,4949.64219074,4937.98476232,0.0
0.920989595415,1.05212114757,1.00825054291e-05,-92083534.2911,1.28678608616e-05,0.0,6107250.70485,689.804548491,639.248333194,67628474.1657,1600.88791991,67344823.2842,67628474.1657,3823.02781057,3816.32249394,0.0
1.10151642339,1.01245961119,9.67397511888e-06,-22810937.1632,1.66348097068e-05,0.0,5732784.83699,682.018939363,650.912597667,66757206.2824,1762.13956607,37306561.7867,69088210.382,4572.39467349,4563.47587464,0.0
1.1774792132,0.917249857867,1.0162881236e-05,3006304.04283,2.34814828698e-05,0.0,5379405.0236,686.348311089,655.674513325,65673050.5229,1855.01018462,51413482.1959,66905319.181,4887.71621399,4876.63406008,0.0
1.12128170894,0.964517614055,9.86438563671e-06,-14542932.0032,1.89071934399e-05,0.0,5603611.32501,683.036234425,652.068551276,66361720.0275,1785.13558821,41561513.5059,68440662.8638,4654.44037381,4644.31834035,0.0
1.18856763592,0.995137996786,1.03268169005e-05,6412763.19751,2.32009525431e-05,0.0,7889991.32561,686.855128141,656.399036643,65632189.6265,1868.98470536,53397336.4066,66739253.614,4933.7442567,4922.89787133,0.0
1.10547549258,0.869325232702,1.02815140038e-05,-18227842.2421,1.89187890804e-05,0.0,5636176.18554,681.897222448,651.12495122,66448836.9378,1764.96693357,39457579.6709,68764747.1378,4588.8287697,4579.07573002,0.0
1.11107270488,1.12740970252,9.67458586423e-06,-19946188.4278,1.59572990652e-05,0.0,5711452.98658,682.513486228,651.508355551,66712138.34,1774.40370792,38633618.1521,68962529.8908,4612.06279796,4602.99071317,0.0
1.02915453389,1.11773068216,9.94947858397e-06,-61032758.3536,1.25388283159e-05,0.0,5921182.48958,677.95078358,646.201987328,67257152.898,1667.47062547,43286050.3403,71051591.8974,4272.02047018,4264.69785577,0.0
1.01445048024,0.803303889377,1.00905204905e-05,-77659338.2789,1.49736900741e-05,0.0,5932053.0427,677.636939639,645.2614487,67241232.7391,1647.65083956,55306610.5479,70842248.515,4210.98394348,4203.78239998,0.0
1.1515324792,1.10796762175,9.80908186602e-06,-6853294.07022,1.92252736156e-05,0.0,5550361.16416,684.854213272,654.051546095,66239268.227,1825.07066403,46193657.3588,68805180.99,4780.01132116,4769.94922596,0.0
1.02385925008,0.908633697262,9.62549932103e-06,-70737819.6591,1.43014845625e-05,0.0,5936937.64887,678.202909805,645.866751538,67290481.3935,1660.45719645,50022982.5687,70931190.3113,4250.03974708,4242.79282934,0.0
1.01345030129,1.07602611288,1.01350536e-05,-80835113.6945,1.29462140249e-05,0.0,5874919.24273,677.637100165,645.176931231,67059564.3204,1642.79795959,57854826.6014,70619762.6239,4206.83220065,4198.30404327,0.0
1.04592041289,0.867000408381,9.62672610606e-06,-50005540.0699,1.52664940461e-05,0.0,5827304.73659,679.042337292,647.236687608,66984645.2434,1687.06113854,37583265.5778,71118969.4984,4341.61563391,4332.80934181,0.0
1.1608658798,0.904355624173,9.69387305439e-06,-2059009.14086,2.1850634088e-05,0.0,5460094.65375,685.66575852,654.675039249,65943310.0127,1834.67160037,48976118.3399,68094327.0215,4818.75426705,4807.86566929,0.0
1.07509649237,1.19985787821,1.0317144755e-05,-30470744.5877,1.33429477896e-05,0.0,5786872.02508,679.943896222,649.194583581,66894168.2918,1727.27029163,35298730.9675,69284507.8164,4462.72553983,4454.22200573,0.0
0.903763179911,0.965282531005,1.01730464548e-05,-91287904.2439,1.30081881009e-05,0.0,6126510.71113,691.501331685,638.134844601,67663774.5141,1592.96696357,66644513.6482,67663774.5141,3751.52095981,3744.81408874,0.0
1.07738577319,1.12213778374,9.67142069276e-06,-31883482.6146,1.37644632182e-05,0.0,5813438.54642,680.369944652,649.213176929,66985321.0379,1730.67245933,35180456.0622,69796917.174,4472.22834451,4463.78465418,0.0
1.05752685071,0.79811660232,9.6482476716e-06,-43957171.7697,1.65821066993e-05,0.0,5792181.40711,679.614449631,647.966653893,66891170.0698,1702.53740305,35546174.6368,70336602.9764,4389.7939573,4380.79442342,0.0
1.07313607807,0.937629726348,1.03230679722e-05,-31251075.5292,1.609257579e-05,0.0,5774717.73464,679.921488104,649.05641731,66853126.5893,1724.88898999,35164069.8687,69303689.62,4454.58786007,4446.11490866,0.0
1.04666952057,1.0833730849,1.00305371157e-05,-48166879.9608,1.33800601943e-05,0.0,5829648.61505,678.675165655,647.294515788,66997344.6945,1688.41297563,36842864.3953,70714738.6964,4344.72517989,4336.08351984,0.0
1.11897513998,1.00999931819,1.00669653208e-05,-14762540.3398,1.82708736312e-05,0.0,5606244.29333,682.725635688,651.916295653,66369773.6189,1782.0695278,41384902.1559,68579693.9662,4644.86580606,4634.78383636,0.0
1.13312667844,0.885124331447,1.02285380359e-05,-11385041.203,2.20522686004e-05,0.0,5614415.9473,683.537344377,652.898411993,66423339.319,1803.58424031,43488474.6583,67678195.5194,4703.6088422,4694.50352544,0.0
1.08636936574,1.11985836696,9.53948724645e-06,-28408835.0827,1.41466498495e-05,0.0,5788820.19076,681.190627809,649.946075965,66916896.7984,1742.23771941,35904191.6717,69497285.6031,4509.51923719,4500.84021878,0.0
1.20170569046,0.911362160848,1.02250232937e-05,8770314.30989,2.57505794215e-05,0.0,10132934.9593,687.861415455,657.188720315,65266162.2465,1883.23790234,54953954.3537,66617337.58,4988.2803211,4976.43174495,0.0
0.995650846059,0.856674111254,9.75143468441e-06,-95712395.3931,1.45630500193e-05,0.0,5995218.77263,679.217726925,644.067254094,67405619.1848,1622.42083787,70539239.2548,70778179.992,4132.94666199,4126.10004364,0.0
1.03381058397,1.26156964002,9.71838300401e-06,-59270081.8386,1.15127844587e-05,0.0,5925117.40969,678.276182331,646.496030762,67274236.4924,1673.56281047,42357767.1012,71171794.5232,4291.34773406,4283.95971664,0.0
0.978859682969,0.977659851933,1.00197438226e-05,-94757710.4555,1.37701836493e-05,0.0,6009168.94669,681.512979005,642.985604258,67423846.5626,1614.34923155,69698769.1659,69935658.4367,4063.246544,4056.29318564,0.0
1.0443961852,0.796275689942,9.97444791197e-06,-50933891.591,1.60807792904e-05,0.0,5863902.29803,678.747321304,647.252598418,67104496.3216,1688.01663927,37981394.0116,70920911.2498,4335.28856477,4327.74766285,0.0
1.18389761174,1.12641697266,1.03754267658e-05,5265608.53289,2.04530767966e-05,0.0,6769090.2614,686.434492159,656.069311044,65671853.6414,1862.57630072,52682541.306,66795447.4738,4914.35898633,4903.37896627,0.0
1.08525584701,1.00784846106,1.00320504529e-05,-27620499.5273,1.58186800707e-05,0.0,5765809.2837,680.820684055,649.86730553,66847013.7927,1741.0758649,35882091.5061,69311454.3614,4504.89702094,4496.33253954,0.0
0.981275094415,1.11155096895,1.01170604043e-05,-94866938.5294,1.25234008456e-05,0.0,6006733.4344,680.819725298,643.14019439,67423722.3758,1613.70192359,69795025.2519,70033423.8917,4073.27291692,4066.28348411,0.0
1.11817411207,1.10100491074,9.72939210958e-06,-15755884.0754,1.65863521357e-05,0.0,5633601.04905,682.842959319,651.869489674,66461562.864,1780.9541774,41018498.2363,69372669.3756,4641.5407392,4631.47260685,0.0
1.04611936491,0.987181064605,1.02748125496e-05,-47071199.1771,1.43198838051e-05,0.0,5813188.29673,678.48439767,647.251373201,66945842.0636,1687.60119442,36391129.7073,70152726.6957,4342.44148374,4333.72006669,0.0
0.973821645054,1.16595518399,9.82761745055e-06,-94763657.0334,1.21412549436e-05,0.0,6051236.81086,682.408166098,642.667065241,67540359.6649,1614.03531235,69703946.7145,69938661.4985,4042.33364862,4035.70307362,0.0
1.23570441348,1.15241215988,1.01076037177e-05,16831323.1506,2.40819994308e-05,0.0,18383314.5723,689.603199454,659.226654557,65171355.1878,1924.35318506,61659043.4372,66989135.1485,5129.40902036,5117.81318332,0.0
1.11337994813,1.12750487721,1.02630606202e-05,-15983818.3489,1.63039811812e-05,0.0,5656778.03334,682.143950663,651.569186337,66530382.5948,1775.81451682,40707376.8803,69366176.4185,4621.64016469,4612.14347592,0.0
1.14470560716,0.835357991491,9.76269908394e-06,-7830650.4074,2.25578094585e-05,0.0,5509133.31434,684.590172919,653.552011357,66100743.4101,1815.09446913,45819989.3342,68392414.5657,4751.67297532,4741.13431984,0.0
1.13846409728,1.22310474988,9.68553781499e-06,-10069168.8301,1.69080199674e-05,0.0,5648816.31712,684.03412365,653.244847872,66542278.0442,1810.00544315,44606057.7898,68096930.0054,4725.76446781,4716.55243143,0.0
1.12404531865,0.890544560693,9.55710862347e-06,-14463987.566,1.98109004516e-05,0.0,5628031.46862,683.424334608,652.261506859,66451361.6884,1789.91718255,41744733.1039,68816730.8544,4665.91211772,4656.11223559,0.0
1.07149206826,0.687014214454,9.8236812007e-06,-33748449.0864,1.85682718421e-05,0.0,5794131.08951,680.156085238,648.878766301,66917503.5562,1723.27972115,34794942.6889,69931446.7934,4447.76357535,4439.411767,0.0
1.0874226392,0.730314484515,9.79161576286e-06,-27542020.9974,1.93267447995e-05,0.0,5749984.83379,681.239276593,650.007382178,66797605.3151,1744.15562154,35958287.7226,69325002.2558,4513.89137532,4505.29309747,0.0
1.11396195849,0.932225932919,9.99218678941e-06,-16423702.3595,1.88008530665e-05,0.0,5671512.78877,682.452455814,651.63827567,66571225.4098,1777.74619902,40590825.5357,69272378.8107,4624.05608969,4614.84804911,0.0
1.15836524104,0.702215870231,1.00151972562e-05,-3000857.11485,2.58228358315e-05,0.0,5427413.5987,685.489013838,654.514693848,65846685.9863,1831.96479789,48034516.8545,67624919.7079,4808.37411556,4797.54232796,0.0
1.1291839157,0.898269109886,9.93088055788e-06,-12209068.6017,2.05318872151e-05,0.0,5592800.40121,683.412509735,652.535161157,66346946.7981,1796.23053858,43072666.1342,67315834.005,4687.24243407,4677.38111363,0.0
1.12465340754,0.798048925325,1.01298589803e-05,-12442241.9991,2.18995588576e-05,0.0,5613547.57924,683.095968535,652.324630447,66413029.6512,1791.37090863,42892674.2888,67849124.33,4668.4362947,4659.05766776,0.0
1.1376657391,0.896371383172,9.88792462917e-06,-10506073.0573,2.14504539973e-05,0.0,5582695.05812,684.079505681,653.177751062,66325207.2333,1808.11962658,44183361.6113,67802433.0507,4722.450483,4712.72520703,0.0
1.04925851122,0.887630561549,1.05165434959e-05,-42988166.4849,1.5181393178e-05,0.0,5804450.40575,678.412163063,647.441071065,66923648.269,1692.3541603,35299065.9467,70290082.7861,4355.47208007,4346.93513472,0.0
0.963767895649,0.977488829937,9.77978468859e-06,-94150560.3369,1.38885209805e-05,0.0,6065709.47148,684.611795728,642.019284685,67574250.4405,1615.85970326,69164283.155,69392217.6142,4000.60053484,3994.10443963,0.0
1.2118413408,1.03453205926,1.01722593917e-05,11298268.8755,2.40627957839e-05,0.0,12566591.3531,688.369868525,657.805893428,65256979.9509,1895.45595927,57002334.0157,66258622.0827,5030.35340566,5018.51931815,0.0
1.0411346939,0.687379051972,9.91715666444e-06,-51370356.783,1.6860161817e-05,0.0,5816167.83958,678.663655814,646.932205334,66945706.9401,1680.88118051,38162366.1356,70818395.4068,4321.75011438,4313.02244186,0.0
1.08761984933,1.09317387567,1.01401223096e-05,-26499792.9249,1.50009576457e-05,0.0,5760858.00274,680.829500596,650.006590204,66836703.8489,1744.09073011,36089677.7437,69261894.6828,4514.70999457,4506.10863804,0.0
1.08145393279,0.766699674622,9.69287438729e-06,-30016155.0088,1.82254523298e-05,0.0,5777753.03278,680.74934453,649.48518415,66883784.2908,1736.29234645,35539743.5635,69370103.0659,4489.11527501,4480.6099619,0.0
1.18494206123,1.03295796428,9.67626167203e-06,4317398.68171,2.13519223763e-05,0.0,6137388.80639,686.971365248,656.150683518,65820240.0807,1865.02702797,52515258.6298,67121520.5313,4918.69449617,4907.79407278,0.0
1.07285303689,1.14267525923,1.00808455455e-05,-33401235.6785,1.37778807784e-05,0.0,5815099.86243,679.836201672,648.928752701,66989063.6562,1725.37196352,34861299.6399,69782068.7146,4453.41295613,4445.23257702,0.0
1.04535163125,0.89088687594,1.02195035585e-05,-47716829.7595,1.51650868548e-05,0.0,5811345.62838,678.53360703,647.205375896,66938130.9613,1686.63679383,36641563.0041,70389040.3872,4339.25462132,4330.54573521,0.0
1.02038221152,0.899458512755,1.04569357011e-05,-68110577.3062,1.44967732941e-05,0.0,5856920.18162,677.408250889,645.618798324,67042820.1187,1653.42722862,48070948.7614,70633258.5956,4235.60656002,4227.38544632,0.0
1.16010649793,0.910839624746,1.00247600744e-05,-2585414.57862,2.38776879691e-05,0.0,5523529.28995,685.367661535,654.651153991,66155790.9422,1837.05876756,48547997.7976,68336042.2726,4815.60207291,4805.92512933,0.0
1.01515773204,1.03597545223,1.02938831058e-05,-76427106.8891,1.31684628352e-05,0.0,5934473.45065,677.366396882,645.312723436,67266077.7602,1648.69820834,54332488.5173,70915196.1555,4213.9197457,4206.79676592,0.0
1.01907274278,0.976862247912,9.9112174497e-06,-73858753.6273,1.36245667841e-05,0.0,5940874.05365,677.813511794,645.561588618,67294966.8646,1654.10773606,52352116.1839,71276429.8118,4230.17095528,4222.99217263,0.0
1.04678893699,0.988370168129,1.03974697258e-05,-46189064.2837,1.43614738761e-05,0.0,5806834.99593,678.4100262,647.288944854,66930018.9311,1688.50179773,36110218.2991,70254489.5527,4345.22087745,4336.48852573,0.0
1.13822577653,0.976499110787,1.00221550155e-05,-8822897.38086,2.03661813358e-05,0.0,5552264.27666,683.968386586,653.189864317,66229222.7575,1807.14980855,45276051.6889,68093581.645,4724.77519838,4714.63602362,0.0
1.19395463229,0.899241999439,1.00804987263e-05,7177984.94436,2.49606296576e-05,0.0,8626709.1632,687.462753528,656.755136781,65489715.392,1875.02338248,53917035.2862,66549214.3265,4956.10567864,4944.82497659,0.0
1.1297896823,1.15311869186,9.67132912361e-06,-12506317.1273,1.68447037628e-05,0.0,5642502.4002,683.567867697,652.658834291,66510021.0072,1797.67772862,42831403.5443,67939183.0904,4689.75697123,4680.16346802,0.0
1.12928313467,0.702702204431,1.04841897591e-05,-9593043.64757,2.30433880061e-05,0.0,5562203.31071,683.109504306,652.551396085,66229714.0807,1796.34278909,44462269.6924,67698131.8842,4687.65429202,4677.85947602,0.0
1.08893307469,0.825270292537,9.92475304615e-06,-26649919.4382,1.81860083205e-05,0.0,5747705.50234,681.176868362,650.094226104,66794536.4345,1746.04970586,36121889.6129,69285049.3116,4520.16119304,4511.539324,0.0
1.17956517986,0.850130950115,1.00150731652e-05,3726223.30274,2.47815917512e-05,0.0,5742100.25199,686.576908209,655.808436464,65709611.8279,1858.11648558,51973018.1856,66955341.5812,4896.3750616,4885.46474918,0.0
1.06190659398,0.928159943436,1.00010225675e-05,-38037426.8378,1.51569923302e-05,0.0,5815519.38301,679.432540198,648.264486779,66970291.2261,1709.98260324,34680143.8535,69996229.4397,4407.97427161,4399.5822047,0.0
1.13294301789,1.06147681585,1.03942404665e-05,-11126040.6067,1.9476505232e-05,0.0,5621469.57357,683.335379471,652.885216471,66448139.856,1803.11913382,43416438.1196,67754370.392,4702.84646726,4693.74405571,0.0
1.1450437554,0.946777014306,9.84982561369e-06,-7503052.50965,2.13076618788e-05,0.0,5569276.73964,684.417306994,653.589679858,66302898.152,1817.36473779,46098641.0093,68511172.0322,4753.07662867,4743.33769654,0.0
0.986866612689,0.958077883662,1.04493042708e-05,-94924846.5143,1.38558250043e-05,0.0,5922012.33107,679.080554058,643.482294151,67169197.6825,1608.53546166,69846245.947,70088239.7095,4096.48330927,4088.46833692,0.0
0.999108297658,0.749348984959,9.84149543827e-06,-95820253.1907,1.54008574574e-05,0.0,5978869.12693,678.689160754,644.288675311,67362334.772,1627.16773051,70634309.0924,70858318.6995,4147.29854358,4140.4010254,0.0
1.02479788149,0.825676795044,9.62667516009e-06,-69585488.9005,1.50594392022e-05,0.0,5930400.89282,678.247826025,645.925894092,67272613.2733,1661.75349089,49178814.0757,71000172.9114,4253.93600606,4246.67569491,0.0
1.16084505943,0.993205699331,1.00887365786e-05,-986476.58476,2.08322116848e-05,0.0,5481388.42086,685.306116083,654.672274277,65986630.3552,1835.18378961,49385831.8187,67930614.5454,4818.66784169,4808.20792903,0.0
1.08978267992,1.12553398875,9.72398682826e-06,-26635247.3953,1.44305607728e-05,0.0,5772056.57123,681.239591611,650.150915177,66873359.3851,1746.71238929,36165885.963,69428316.8439,4523.68790435,4514.95508508,0.0
1.13169827995,0.917522686835,1.0377052316e-05,-11002028.3225,2.09629583597e-05,0.0,5564364.89384,683.293130301,652.705569681,66254865.7323,1799.45784571,43533194.1569,67579348.9112,4697.67956007,4687.77523242,0.0
1.05279388788,0.657563617886,9.6072359238e-06,-44541427.2136,1.74147987506e-05,0.0,5809393.99511,679.425070495,647.68649783,66932049.0792,1696.66145755,35729718.5783,70605845.036,4370.14742859,4361.37270835,0.0
1.13166866687,1.11787625157,9.75174001079e-06,-11900992.5825,1.75314005515e-05,0.0,5628795.36991,683.6545569,652.785694769,66472119.6974,1799.96800105,43317422.667,67541448.3619,4697.55663618,4687.9316846,0.0
1.01558675703,1.19451584665,9.78175844423e-06,-79303400.953,1.17422689917e-05,0.0,5965801.47821,677.838310352,645.33478507,67355823.3735,1649.28062235,56637390.1739,71035429.9809,4215.70062843,4208.57129529,0.0
1.16384611723,0.937477003661,9.80266754804e-06,-2244905.02946,2.34530072013e-05,0.0,5522386.84883,685.727200147,654.886253949,66160415.2323,1841.8444039,48867464.3854,68278670.7512,4831.12523262,4821.3811271,0.0
1.15462887665,1.02926364044,1.02674651991e-05,-2542210.11041,1.99491245571e-05,0.0,5506942.30164,684.790458534,654.288524762,66070333.1422,1827.74960985,48546104.8874,68193257.1622,4792.86446697,4782.6176418,0.0
1.05518723556,0.900645061871,1.00709472592e-05,-42009504.1902,1.53552224368e-05,0.0,5840853.41929,678.984174379,647.820435749,67043626.3602,1701.79214521,35206332.2163,70122886.5078,4380.08221481,4372.19530887,0.0
1.00936576465,0.765398299786,9.90857023313e-06,-85578966.955,1.51442324301e-05,0.0,5956499.04037,677.850585404,644.938459949,67306962.7421,1641.13290183,61801733.998,70889318.5277,4189.87728906,4182.83583914,0.0
1.00352686276,0.869814510662,9.86959672549e-06,-96104515.6923,1.46377213121e-05,0.0,5920336.0575,678.518193804,644.556526723,67180731.4258,1630.78084574,70882676.5165,70882676.5165,4165.64000732,4157.6846844,0.0
1.14310557742,1.08233276217,9.96165601568e-06,-8826556.37244,1.89780221675e-05,0.0,5560126.33926,684.108749368,653.38423803,66248486.8503,1813.93051072,45013454.5942,68306259.2179,4745.03125187,4734.9077375,0.0
1.17086018983,1.18415896657,1.0271366085e-05,1724906.5913,1.86984902003e-05,0.0,5438057.0363,685.68662681,655.272786666,65855492.9812,1846.59080034,50717502.3865,67118761.3849,4860.24064798,4849.38314565,0.0
1.14110067292,1.03920798565,9.877830161e-06,-8568723.97733,1.95049248988e-05,0.0,5591034.91596,684.141933005,653.371858956,66363172.3564,1812.23916052,45484521.4956,68270469.7682,4736.70889329,4727.03514353,0.0
1.09600038071,0.962925638181,1.02664621529e-05,-23288176.2255,1.73697820267e-05,0.0,5722171.29248,681.2932414,650.550774326,66718773.8205,1755.13119493,36970556.3167,68916909.1063,4549.49758033,4540.76497742,0.0
1.01679020126,0.84395205038,9.72781909629e-06,-78270734.7716,1.47162721426e-05,0.0,5947921.07331,678.032058192,645.420118335,67306444.7951,1651.07651425,55806261.6067,70984027.1308,4220.69612543,4213.54973765,0.0
1.10584198512,1.12245942405,1.01478455112e-05,-20741848.2433,1.60408840829e-05,0.0,5710396.76376,681.881411871,651.178903147,66697736.3752,1767.81160992,38142478.1669,68765462.6164,4590.35008023,4581.4623145,0.0
1.12057739262,0.906436000032,1.02225379535e-05,-14423747.8344,1.97614173954e-05,0.0,5613435.68502,682.753174714,652.041988482,66390671.8142,1785.46048479,41595249.2606,68396810.6379,4651.51675677,4641.89982713,0.0
1.11812335066,0.899389282913,1.00449045751e-05,-15111100.5956,1.96869324359e-05,0.0,5652427.36463,682.679263429,651.878055927,66520540.9474,1783.12390319,41206856.0865,69173618.6998,4641.33002859,4632.05360642,0.0
1.21740653436,0.970152254653,1.00475838187e-05,12438259.7817,2.55885383412e-05,0.0,13732154.4832,688.879527834,658.186526478,65143326.8976,1901.8831071,57924084.4021,66341107.3487,5053.45452413,5041.43047469,0.0
1.18327163235,0.873645055338,9.94931980305e-06,4378739.77668,2.46420881148e-05,0.0,6155855.4168,686.795070609,656.033155964,65756421.0856,1863.32048664,52394397.8907,67017637.8129,4911.76054588,4901.01769408,0.0
1.03650881418,1.07551518695,1.00776419093e-05,-53871873.0324,1.29975415449e-05,0.0,5845616.98289,678.165795189,646.634663832,67028431.8592,1674.46819276,39280642.6015,71166315.0631,4302.54808766,4293.89478299,0.0
1.18969255386,0.947808857991,9.541884063e-06,5213614.55778,2.30744482163e-05,0.0,6914676.88623,687.397252595,656.446059076,65759734.5709,1871.10532118,53128639.1546,67093934.7976,4938.41379107,4927.44302065,0.0
1.03281956662,1.00381276251,9.79961459454e-06,-57243498.5095,1.32970088169e-05,0.0,5867071.28721,678.244336977,646.411844536,67068812.7417,1669.56805978,41132218.1829,71221710.0054,4287.23402104,4278.76485041,0.0
0.91808632708,0.885196836935,9.81127065682e-06,-92105408.9468,1.43765085677e-05,0.0,6165120.59881,690.940630299,639.076300224,67814142.1937,1605.25659609,67364174.9576,67814142.1937,3810.97634371,3805.19684971,0.0
1.16655131714,1.03733317002,9.94039900189e-06,96181.3244508,2.03174312656e-05,0.0,5440672.70983,685.746071859,655.018000399,65877455.7465,1841.19046456,50038621.2253,67723469.3707,4842.35451745,4831.36565189,0.0
1.15282869347,0.886576796493,9.86634649612e-06,-7356629.09874,2.35064408974e-05,0.0,5455770.44426,685.155896954,654.118983022,65947251.8285,1825.14537754,45593211.4273,68181515.8689,4785.39190659,4774.47421522,0.0
0.999074087928,0.786496879153,1.00437013477e-05,-95529571.8661,1.53232470067e-05,0.0,5896269.37561,678.547864435,644.265846209,67101084.1757,1623.79176179,70378855.7197,70705399.8071,4147.15653899,4138.86322021,0.0
0.969380609488,0.877811396443,1.0145900214e-05,-94434453.4524,1.46059180147e-05,0.0,6036011.19412,682.437432002,642.379855107,67496659.3437,1611.27662196,69414180.2647,69645796.2234,4023.89890998,4017.41138975,0.0
1.05219115917,0.722339239887,9.98377132414e-06,-43979343.8827,1.70685136908e-05,0.0,5796123.85596,679.074217609,647.636525338,66897870.5273,1695.7522641,35527637.4546,70492659.0803,4367.64550171,4358.88229917,0.0
1.14409754135,1.04724689548,1.01952058106e-05,-8403178.46717,2.0364424081e-05,0.0,5592490.87178,684.05564675,653.509308389,66369808.0378,1817.38409071,45189105.1529,68361257.4436,4749.14889414,4739.84422575,0.0
1.1537512073,0.985465587161,1.01741670798e-05,-5744563.18596,2.2260831178e-05,0.0,5556837.4163,684.670681166,654.120509613,66272311.5907,1829.68867101,46705034.4114,68557394.6305,4789.2212615,4779.76014255,0.0
1.04031592835,0.983245425339,9.56267368459e-06,-54545176.2547,1.4144733648e-05,0.0,5839475.90196,678.808544696,646.874040989,67012362.3037,1678.90436222,39697546.5451,71358148.438,4318.35141858,4309.46382379,0.0
1.08329012962,0.810014158459,9.96641652198e-06,-28473170.6347,1.79821437863e-05,0.0,5760448.45506,680.851203031,649.7525186,66826214.3558,1738.66695522,35742214.7557,69284957.1616,4496.73732805,4488.20345964,0.0
1.08114529066,0.976187065235,9.90278817726e-06,-29467284.0359,1.58103946344e-05,0.0,5780087.41031,680.684176428,649.597613597,66882024.6138,1735.71881912,35612402.554,69351161.5576,4487.83410153,4479.33358436,0.0
1.14976273623,1.10896891822,9.99890845694e-06,-7332493.70734,1.96562904937e-05,0.0,5588054.90484,684.578188285,653.943457877,66360820.863,1824.59592639,45895640.1836,68711675.5009,4772.66511809,4763.26975466,0.0
1.15415948656,1.16559564439,9.92978917613e-06,-5770562.69505,1.87167212484e-05,0.0,5540113.48627,684.919162931,654.227463002,66211607.2057,1828.20101878,46627720.991,68617384.2245,4790.91602871,4780.80940146,0.0
1.17075462279,1.00791532635,1.00465029898e-05,1172454.19442,2.13161914438e-05,0.0,5446752.33329,685.932272516,655.293403028,65887927.0098,1847.57974131,50504181.0278,67531988.7172,4859.8024392,4849.15582226,0.0
1.05973250824,1.13931344464,9.67661664702e-06,-40483329.0841,1.29470014074e-05,0.0,5828537.56604,679.480662211,648.105185673,67002265.5594,1705.86295424,34977673.8033,69848154.307,4398.9496417,4390.24314252,0.0
1.00218707084,1.05349272784,9.85468510573e-06,-95829497.3703,1.30738680519e-05,0.0,5934723.48476,678.583469166,644.469764313,67222593.4325,1628.86083643,70642408.3269,70939151.6236,4160.07853106,4152.14397429,0.0
1.0197690875,0.919059404003,1.02757524597e-05,-71115418.3025,1.42713847643e-05,0.0,5917668.29683,677.47412194,645.596586241,67229767.0336,1654.92133778,50257545.3566,70648020.0101,4233.06148221,4225.87308653,0.0
1.0782137071,0.964846016287,1.0239938432e-05,-29399160.3647,1.59266177403e-05,0.0,5761985.67612,680.28698866,649.409176874,66830025.5238,1731.20591858,35420656.1384,69234502.1098,4475.66509817,4467.01888603,0.0
1.01446782293,0.949890540979,9.85591824546e-06,-79837591.5243,1.37731962781e-05,0.0,5953707.20315,677.835664081,645.254701712,67306510.7583,1647.90499082,57064750.2253,70805063.4936,4211.05593298,4203.94244124,0.0
1.03228050908,0.957777370413,1.02890394949e-05,-58141140.9662,1.43109962949e-05,0.0,5837933.2104,677.885701921,646.367450706,67001888.1133,1669.05939659,41557213.5794,70877936.0884,4284.99639319,4276.49870349,0.0
1.07405234622,0.784578735295,1.01357825946e-05,-31227374.7772,1.77235063128e-05,0.0,5769539.24445,679.987118353,648.986501774,66844352.5293,1725.88165816,35209610.0946,69401227.4147,4458.39128916,4449.81067684,0.0
1.06277300142,1.01730432606,9.57894247383e-06,-39355354.2488,1.40673836516e-05,0.0,5832146.19792,679.887701521,648.407777563,67015486.6645,1710.97415784,34849948.39,70008695.8705,4411.57072889,4403.16514375,0.0
1.09206457745,0.961505574307,9.86491522709e-06,-25794447.2475,1.67656898001e-05,0.0,5750789.62693,681.30413877,650.261302299,66808126.1057,1750.02599691,36336415.3776,69300297.5482,4533.160061,4524.4891974,0.0
1.14902978323,0.870401901453,9.83488354175e-06,-7368896.33838,2.2791908063e-05,0.0,5519807.12676,684.819357787,653.866765415,66130334.4658,1821.73983246,45847632.5187,68598352.6888,4769.62263019,4759.39595316,0.0
1.15127406088,0.933378582302,1.00843141017e-05,-6630037.7849,2.27978887583e-05,0.0,5562651.05094,684.730159335,654.059238105,66286310.991,1826.6572283,46220532.2633,68677669.0189,4778.93862671,4769.51900787,0.0
1.22275690012,1.09756764948,9.77470746372e-06,13177114.1726,2.30680171967e-05,0.0,14516944.6877,689.261100945,658.535943527,65218009.5445,1908.68000986,58612763.6166,66548194.2282,5075.6638924,5063.6784403,0.0
1.18843438567,0.844218146232,9.85713936189e-06,5468734.20343,2.54874330107e-05,0.0,7105424.06564,687.222038133,656.366608032,65661845.1633,1869.37731131,53154722.6103,66937981.2993,4933.19113492,4922.22918728,0.0
1.19003476643,0.770188557202,1.030911393e-05,6738773.35657,2.79476528449e-05,0.0,8221389.88506,687.199418047,656.492104937,65405193.0968,1870.07403212,53490150.6853,66456458.3044,4939.83431545,4928.53023691,0.0
1.07889741465,1.0149012918,1.02503359984e-05,-28675554.1142,1.56423506432e-05,0.0,5763508.45692,680.29985133,649.462237185,66826204.4704,1731.96513024,35557132.4478,69259303.5437,4478.50316821,4469.88826087,0.0
1.05556636538,0.878498397622,1.02684497779e-05,-41082968.849,1.56206768337e-05,0.0,5802012.42249,678.921464393,647.827651543,66916645.273,1701.01833904,34946129.9104,69565695.6782,4381.65598269,4373.10869995,0.0
1.0580529776,0.696775343972,1.04886984839e-05,-37156202.9388,1.75845379e-05,0.0,5792043.9422,678.920438518,648.013475784,66888340.9138,1704.87028125,34565175.6599,69832863.9687,4391.97791002,4383.64760714,0.0
1.209366478,0.803800045113,9.68857024801e-06,10367054.1907,2.79135216826e-05,0.0,11789275.1617,688.643104695,657.64395846,65317699.9892,1893.79364614,56352758.8502,67083376.3786,5020.08025018,5008.4218807,0.0
1.19767114285,1.11563873486,9.86061751928e-06,7340966.96489,2.10122335806e-05,0.0,8818402.15257,687.663183138,656.986541325,65594488.4154,1879.5873171,54110550.7488,66692703.9026,4971.53291397,4960.20316023,0.0
1.01544460057,0.867810766849,1.03764687549e-05,-75233162.4866,1.45306295556e-05,0.0,5922722.81753,677.316123878,645.316806622,67235283.2166,1649.18109505,53393683.0838,70633400.2096,4215.11053697,4207.98349517,0.0
1.1227255629,0.940342562703,9.98118205432e-06,-14009004.7757,1.95438984147e-05,0.0,5643247.67136,682.999875539,652.181946398,66498468.0971,1789.04038628,41837469.1773,68624001.4134,4660.4338116,4651.08255591,0.0
1.13573352418,0.81695219268,9.9072785886e-06,-10929999.1116,2.2546089651e-05,0.0,5581401.40236,683.992098855,653.055166403,66318517.11,1805.74035697,43876825.406,67647781.087,4714.42985887,4704.73670506,0.0
0.99308668983,1.06165219445,1.00132431275e-05,-95333877.4849,1.29583733876e-05,0.0,5928190.5752,679.140820194,643.88355943,67191014.4558,1615.61045074,70206352.4482,70464141.6183,4122.30284948,4114.10664096,0.0
1.0644725631,0.908402163215,1.01358605711e-05,-36299419.2941,1.55668980663e-05,0.0,5799709.59899,679.601696474,648.517431061,66917880.022,1713.39458549,34625496.9389,70102825.3341,4418.62560943,4410.1934808,0.0
1.04879241162,1.03265204038,9.88225255099e-06,-45070868.1336,1.35963054552e-05,0.0,5846746.25005,678.824445072,647.426706184,67040127.5389,1691.81239601,35915301.9021,70514898.4331,4353.53730063,4345.168965,0.0
1.2289065221,0.847933969176,1.04491920199e-05,15318627.3868,3.02949026213e-05,0.0,16839802.818,689.524330104,658.920177438,64829866.3266,1914.76949356,60257109.1074,66455691.9677,5101.19097324,5088.92758234,0.0
1.19216988943,0.992431693488,1.01578445154e-05,6222554.17241,2.33134500771e-05,0.0,7730525.96205,687.280702499,656.618787936,65433547.8135,1871.9035959,53192114.4708,66561060.2441,4948.69721102,4937.04399268,0.0
0.986470930897,0.700755723091,9.89472384318e-06,-95235623.8838,1.5531963359e-05,0.0,5983508.03772,680.152833199,643.475311522,67341522.779,1612.86672637,70119554.2109,70362377.0772,4094.84083415,4087.70045591,0.0
1.02683060315,0.859444510867,1.02596183804e-05,-61842618.3481,1.47414019431e-05,0.0,5850133.34328,677.751668875,646.030308727,67027359.9192,1662.05423285,43821169.9361,70899902.4053,4262.37383368,4253.96369763,0.0
1.08478160806,0.860104692894,9.66941350328e-06,-28499900.8754,1.70591361212e-05,0.0,5769911.90204,681.115863258,649.841378894,66858186.7937,1740.36841193,35808714.7926,69399138.6491,4502.92845506,4494.27441673,0.0
1.16422300388,0.963767320706,9.84882929745e-06,-912752.276799,2.13225522647e-05,0.0,5445661.40998,685.729019736,654.876915296,65888408.7255,1838.6310466,49487227.3957,67778906.071,4832.68968911,4821.74081484,0.0
1.02721496774,0.907741652034,9.88299098252e-06,-63983151.0765,1.43614408671e-05,0.0,5917998.71177,678.013317243,646.068068888,67244421.5163,1664.99152281,45270985.8989,70895598.3334,4263.96933109,4256.67448185,0.0
1.14635724165,0.896718812618,1.00586552139e-05,-8013279.90863,2.29237129746e-05,0.0,5578361.67304,684.391349914,653.683054723,66326340.377,1820.48132488,45413516.9816,68446757.3081,4758.52891009,4749.18643674,0.0
1.17491556973,1.13576393122,1.0044326663e-05,2140883.63492,1.93868416427e-05,0.0,5422413.40649,686.114413525,655.524765388,65822206.7724,1851.67255659,51003220.0314,67051250.8056,4877.07452995,4866.03830061,0.0
1.10174536948,0.75997932576,1.02525428212e-05,-21494843.4184,2.05821563638e-05,0.0,5689852.75559,681.756537956,650.932191957,66629091.8537,1762.82693015,37653234.5187,68504828.7526,4573.34502871,4564.52134693,0.0
1.09087111394,0.904198916913,1.0343976951e-05,-24913664.2535,1.77855977456e-05,0.0,5735004.97918,680.90893685,650.171692587,66757036.319,1748.84583713,36457827.8118,69036061.7241,4528.20599396,4519.65124723,0.0
1.12890663681,1.01723538421,9.47891047284e-06,-13096561.2413,1.8387753003e-05,0.0,5620410.36943,683.722511122,652.575882803,66430211.2267,1795.78249109,42509327.694,67930259.4196,4686.0914494,4676.10901395,0.0
1.07595525321,0.770054428074,9.56482979707e-06,-32808395.4845,1.76731934131e-05,0.0,5797835.48068,680.523869606,649.128051382,66933710.3231,1729.04933826,34982160.2995,69910156.0337,4466.29025607,4457.87021963,0.0
0.97686217742,0.985916510371,1.04962627366e-05,-94508379.1687,1.34810043678e-05,0.0,5947399.39423,680.38641022,642.840291799,67226411.0513,1605.84260151,69479490.3084,69716395.7217,4054.95489847,4047.09762113,0.0
1.1312603362,1.12077040983,1.00419813928e-05,-11442804.6788,1.76480040345e-05,0.0,5599865.36522,683.453587228,652.760982995,66360274.3086,1798.49398351,43594765.0981,67613680.0773,4695.86165557,4686.00993346,0.0
1.17830097416,0.885161257162,9.89238535362e-06,2788478.24682,2.3813575117e-05,0.0,5386483.93596,686.586995047,655.733919352,65712145.0553,1856.32116287,51425960.5192,66939301.9385,4891.12734374,4880.03045326,0.0
1.0708421607,0.836584761968,1.04153997745e-05,-31915986.2315,1.71255894837e-05,0.0,5770596.97596,679.749010508,648.897959055,66837749.0355,1721.93545369,35010637.4354,69352394.8191,4445.06580907,4436.6285857,0.0
1.11114608816,0.682632867058,1.00234644485e-05,-17098563.3135,2.23611022939e-05,0.0,5655429.59341,682.44775555,651.48521162,66517922.6489,1774.3542859,40194819.341,69033205.5169,4612.36741195,4603.20397842,0.0
1.23370926191,1.08702007386,1.00428446293e-05,16236118.3968,2.49140694753e-05,0.0,17777393.5884,689.747666272,659.231846702,65148466.1697,1922.03420471,61140007.4049,66870830.1308,5121.12714619,5109.45080777,0.0
1.07808001924,0.984936298147,1.03209089918e-05,-29512413.1952,1.58771708392e-05,0.0,5776098.45785,680.212607353,649.406406057,66876235.2443,1732.03999356,35483752.6135,69221976.9014,4475.11015987,4466.75280187,0.0
1.18933781687,1.04584538273,1.00346280793e-05,5356510.29807,2.19427790412e-05,0.0,6916585.56762,687.099242578,656.410858334,65541608.4317,1868.55357571,52781761.1407,66781214.5218,4936.94127783,4925.34038547,0.0
1.12256706138,0.897421533029,1.01942949872e-05,-13431210.2992,2.01404752702e-05,0.0,5600923.74065,682.901898361,652.169134207,66367414.0668,1787.67222513,42300261.2208,67860328.7841,4659.77587179,4650.02629614,0.0
1.11612293386,1.05492080704,1.01548123154e-05,-15442789.5375,1.7376549117e-05,0.0,5646690.55464,682.414061072,651.741376001,66500348.3954,1779.42676426,41019449.1351,69214281.114,4633.02629845,4623.4831097,0.0
1.20209939014,1.04456178925,1.02762809594e-05,8851880.94292,2.32751982482e-05,0.0,10211321.4,687.740493339,657.204453026,65313096.2224,1883.41181002,55017203.9349,66688869.0759,4989.91456847,4978.05865859,0.0
1.08142565291,0.8077308688,1.01705121109e-05,-28486484.5315,1.80108537309e-05,0.0,5756979.38958,680.595494677,649.631168224,66815823.081,1736.20563837,35667964.6248,69220327.5745,4488.99788523,4480.4930116,0.0
0.950336485937,1.25520592528,1.01867423913e-05,-93454655.2158,1.13377732945e-05,0.0,6081159.17259,685.40969393,641.148045521,67606944.3914,1608.6890827,68551686.3943,68771143.6949,3944.84675312,3938.32458536,0.0
1.05222417618,1.12592855003,1.02346648343e-05,-44181163.5658,1.31488742004e-05,0.0,5809565.78484,678.746421185,647.632553998,66946624.9423,1695.60832007,35555697.6505,70393103.6622,4367.78255532,4358.9612379,0.0
1.06477253236,0.998573423354,1.02403236412e-05,-36167222.9534,1.4804867079e-05,0.0,5805889.09593,679.387942846,648.453382491,66946621.4822,1714.05097929,34633808.4049,70037878.0533,4419.87078183,4411.52754624,0.0
1.05799876009,0.786784742474,1.01169826762e-05,-39366062.2552,1.64632106249e-05,0.0,5812013.62725,679.184314379,648.0099571,66954639.8249,1704.89233088,34748861.344,69720444.7232,4391.75285313,4383.42164794,0.0
1.12017275943,0.993348077599,9.71089313165e-06,-15201052.5966,1.82473351507e-05,0.0,5617043.00663,683.040158148,651.995202759,66413303.3614,1783.65291319,41283398.7838,69010835.0109,4649.83712439,4639.73429882,0.0
1.04730828821,1.15435719426,1.02847008252e-05,-44332618.9473,1.2600851773e-05,0.0,5838283.83035,678.404233128,647.334734043,67021053.8905,1689.69079667,35677424.3247,70507748.6054,4347.37670436,4338.96073325,0.0
1.04696228479,0.70669859718,9.9340713871e-06,-47051532.4632,1.68974921057e-05,0.0,5810291.33974,678.866897131,647.308913446,66928905.5323,1688.78830938,36527101.2144,70269651.0801,4345.94044416,4337.26233888,0.0
1.0401252593,0.742590385658,1.01240315305e-05,-52107897.2925,1.63990689238e-05,0.0,5820180.69143,678.430859366,646.873990351,66957407.6225,1679.99364403,38442055.983,70773057.7634,4317.55995135,4309.0240378,0.0
1.08721033005,0.989934810698,9.70855976549e-06,-27534066.5379,1.57895410339e-05,0.0,5770644.56254,681.171136753,649.996091263,66865043.5126,1743.45201049,35973278.0867,69416508.4434,4513.01008004,4504.31763679,0.0
1.11402555298,1.10461487993,1.00691976152e-05,-18148351.7102,1.678048858e-05,0.0,5683655.972,682.387866014,651.655079047,66622002.5409,1778.1541041,39647100.1962,69139166.2901,4624.32007042,4615.20047886,0.0
1.0473751504,0.989407917501,9.70570104064e-06,-48993837.5502,1.41424575443e-05,0.0,5828771.93588,679.010983105,647.342891988,66989241.242,1688.91213216,37198505.941,70909858.3349,4347.65424931,4338.82400282,0.0
1.17297485663,0.993484632052,1.00992920369e-05,1616365.05387,2.18932765482e-05,0.0,5384895.8453,686.090743723,655.396106086,65686520.7173,1848.67581803,50674807.9291,66963925.2666,4869.01862987,4857.70546449,0.0
1.04176618721,0.913195384024,1.01307569653e-05,-50651973.6745,1.48393664726e-05,0.0,5826666.49947,678.400425357,646.950617582,66980229.7029,1682.05175739,37780356.9727,70873254.7385,4324.37144311,4315.80906382,0.0
1.12736480226,1.08255669598,9.59187471446e-06,-13723145.06,1.77992897655e-05,0.0,5676131.3986,683.467413236,652.496569393,66615759.453,1795.91600745,42192266.9111,68765956.3912,4679.69129418,4670.54786365,0.0
1.15407562697,1.0005656742,1.00771002567e-05,-6014303.40465,2.19155307044e-05,0.0,5558824.83576,684.866880248,654.230945282,66279692.7701,1830.14723662,46621226.4695,68588211.1917,4790.56792755,4781.10158897,0.0
1.11301738203,0.846430926091,1.01265348524e-05,-16283894.346,1.98225176181e-05,0.0,5640708.20162,682.368965569,651.562598311,66476308.204,1775.6551687,40534000.0569,69251726.4506,4620.13515281,4610.64448289,0.0
1.1219106104,0.928332942247,9.48638832325e-06,-15068434.7138,1.89307486656e-05,0.0,5638171.54186,683.305581396,652.114663378,66473588.4625,1786.95637071,41389687.1421,69212190.1629,4657.05094377,4647.21266905,0.0
1.04665384119,0.772923655498,1.00612929393e-05,-47976638.2521,1.64191404611e-05,0.0,5808799.84902,678.774761094,647.292182794,66933806.2451,1688.62657199,36769822.2608,70567879.983,4344.66009478,4336.01868872,0.0
1.15199705404,1.00176486083,1.00010487605e-05,-6665816.14067,2.16251218366e-05,0.0,5570217.0801,684.795187769,654.108143098,66308047.6734,1827.54950602,46273443.6442,68721436.3567,4781.93977132,4772.50685499,0.0
1.22227260789,1.00115724756,1.00524986672e-05,13311946.1747,2.55752359741e-05,0.0,14565458.2639,689.180119786,658.498787118,65084030.826,1907.61627252,58657027.1992,66455849.3369,5073.65359535,5061.53619204,0.0
1.02980793849,1.0525227052,9.72455950125e-06,-62905221.5342,1.31547468183e-05,0.0,5927469.59737,678.205144583,646.241701715,67274530.0448,1668.46365736,44586982.7928,71082584.2687,4274.73275267,4267.44052602,0.0
1.02250965625,0.850392708682,1.01425917761e-05,-68089467.9348,1.49728420977e-05,0.0,5858885.94682,677.779012463,645.754926192,67047197.4651,1656.08556353,48061036.551,70793719.8485,4244.43758309,4236.09700349,0.0
0.929726020273,0.990533975046,9.76112109075e-06,-92581890.7707,1.40873932854e-05,0.0,6141336.89616,689.810404747,639.826082309,67761937.2119,1610.40217817,67783472.3307,67990831.1005,3859.29271015,3853.35951812,0.0
1.04158628054,0.905962916899,9.91575648199e-06,-51178198.9779,1.47768095915e-05,0.0,5829035.2501,678.586966697,646.952831105,66985769.2864,1681.31852973,38081462.6442,70931950.4072,4323.62465052,4314.88957146,0.0
1.20655333647,0.811517570755,1.01906453759e-05,10350539.8712,2.84717981426e-05,0.0,11647440.4699,688.213613571,657.446499501,65156760.2952,1889.03314144,56162724.4361,66760177.492,5008.40289969,4996.47688378,0.0
1.08340968329,0.849619022056,9.66642570516e-06,-29424213.8819,1.72506297663e-05,0.0,5775310.42571,681.034715851,649.745339418,66878667.1888,1738.78121935,35718943.5973,69386945.2526,4497.23359534,4488.69786635,0.0
1.18559355144,0.956807625848,1.00798242698e-05,5052981.01183,2.3392722474e-05,0.0,6668170.32258,686.814053839,656.181522747,65719412.6467,1865.83327467,52741430.3799,66980518.1536,4921.39883203,4910.6019541,0.0
1.13534929645,0.966944889573,9.60861782194e-06,-11286703.7404,1.98609684467e-05,0.0,5617562.03942,684.057356375,653.033635625,66430183.9882,1805.32258036,43623398.0667,67677297.377,4712.83492956,4703.25288121,0.0
1.08640425834,0.89359900799,1.00001450652e-05,-27299288.9799,1.71820547556e-05,0.0,5756118.4002,680.953898384,649.937735103,66818360.1481,1742.67464523,35956103.9118,69291121.4205,4509.66407637,4501.08168946,0.0
1.08772656575,0.988741408829,1.00689203679e-05,-26654658.287,1.62631584134e-05,0.0,5756112.30916,680.934799166,650.015921616,66821110.8158,1744.32568529,36068438.7831,69273596.286,4515.15297443,4506.54995174,0.0
1.09230460397,0.77140644505,9.73808515336e-06,-25345046.2403,1.91434486586e-05,0.0,5743518.7277,681.494732487,650.280011827,66782993.4114,1750.51213089,36484042.9904,69360033.6928,4534.15641108,4525.47664706,0.0
1.07628784287,0.907161290652,9.49375750832e-06,-31916145.7658,1.57912970537e-05,0.0,5790827.97449,680.516319139,649.129903954,66901232.4957,1728.10267086,35234069.3092,69821947.1235,4467.67083575,4458.86588693,0.0
1.19967684256,0.799393184499,1.00990003219e-05,9168814.59542,2.78933822029e-05,0.0,10596049.3335,687.822472612,657.093029444,65440893.2777,1882.40525464,55401414.1964,66725439.7065,4979.85857347,4968.71392577,0.0
1.09473801989,1.04073146975,9.85613052277e-06,-24732222.5309,1.58756628801e-05,0.0,5752260.01913,681.409414468,650.41781021,66815149.1858,1753.58657648,36644607.5093,69251648.0994,4544.25752056,4535.54462907,0.0
1.13295149551,1.17140791065,9.80133955737e-06,-11528530.8123,1.69781599723e-05,0.0,5629648.42747,683.579897502,652.792157328,66460023.091,1801.66293371,43520191.396,67623835.2442,4702.88165786,4693.23496638,0.0
1.0610125767,0.871470095057,1.01013159552e-05,-38034680.674,1.5741409433e-05,0.0,5810335.03368,679.327160694,648.205841673,66954466.1839,1708.84724705,34660846.1717,69941331.4622,4404.26320588,4395.88507866,0.0
0.996954044617,0.972638538723,1.01302285091e-05,-95413156.4376,1.40237337785e-05,0.0,5910117.80931,678.618712807,644.128741361,67143928.997,1621.0300227,70276215.5461,70642542.334,4138.35623921,4130.17805631,0.0
1.13086927852,1.15165845722,9.77549381391e-06,-13082217.4809,1.73391003549e-05,0.0,5576828.80447,683.65100297,652.710641026,66292580.9821,1796.8534722,42592438.8748,67564628.167,4694.23837514,4683.80647309,0.0
1.13182260847,0.893464969392,9.74532321651e-06,-12790584.1704,2.1121755868e-05,0.0,5549288.52902,683.891981809,652.775360095,66217010.782,1798.50844334,42621404.3623,67399150.0823,4698.19564776,4687.74990175,0.0
1.10530865678,1.17421248547,9.89051999618e-06,-19245603.7271,1.48118153257e-05,0.0,5699273.87506,682.004346729,651.142539517,66647989.5331,1765.45059681,39139432.6179,68741877.2844,4588.13623429,4578.67590954,0.0
1.12226544791,0.782257408868,1.03008261886e-05,-14001626.6239,2.24929650183e-05,0.0,5638327.97615,682.786693655,652.155937665,66490219.9867,1789.74799396,41913820.4028,75773779.2725,4658.52387427,4649.59053777,0.0
1.05452052353,1.06767599985,1.01242502706e-05,-42887898.9017,1.39435422441e-05,0.0,5806913.34441,678.953159312,647.770200261,66935339.6752,1698.76642066,35272191.2698,70383852.6209,4377.31469317,4368.54537475,0.0
1.19323434202,1.10313286577,9.99877954694e-06,6192612.91528,2.12251007409e-05,0.0,7708109.37965,687.360681433,656.688695694,65508475.2663,1873.15800138,53284620.0625,66681415.1855,4953.11575373,4941.42293481,0.0
1.10759655092,1.07539674792,1.00711654313e-05,-17299167.0031,1.62668227633e-05,0.0,5708190.30907,681.970693012,651.274720832,66674377.9314,1769.45703185,40057069.5744,69054403.5813,4597.63328287,4588.64722095,0.0
1.12662112624,1.15892882418,1.03359597829e-05,-12392805.2776,1.70200356568e-05,0.0,5606639.7429,682.858101277,652.364437561,66374959.2375,1792.72166792,42808589.7165,67258158.6379,4676.60429502,4666.7858973,0.0
1.1506424598,1.07867852763,1.01343109079e-05,-6740266.90516,2.03476607134e-05,0.0,5575828.3565,684.581744775,654.019752991,66326892.1372,1825.67445745,46165423.3331,68722358.1527,4776.31685063,4766.90737151,0.0
1.00689710841,0.883832132523,1.00508079625e-05,-88626220.5284,1.46850107616e-05,0.0,5881711.07359,677.96216325,644.763676605,67068651.984,1634.16504448,64377910.3242,70758614.3383,4179.62989701,4171.20920699,0.0
1.07315700182,0.725101949598,1.02711660191e-05,-31409089.5937,1.85929887259e-05,0.0,5762966.61919,680.044301023,649.055519224,66828684.5288,1725.08102686,35133667.561,69315905.3326,4454.67471455,4446.20143697,0.0
1.0720160124,0.992795736219,9.55254337342e-06,-34581486.8692,1.4851139059e-05,0.0,5822886.82771,680.271305632,648.9211134,67002133.3704,1723.74132959,34799793.425,70199075.1427,4449.93846747,4441.57912696,0.0
1.09092111197,0.837861566398,1.02876478855e-05,-24142571.531,1.79591804499e-05,0.0,5687305.53473,681.021016838,650.156374819,66587122.6064,1746.68625207,36592307.5539,68866566.1142,4528.41353579,4519.00952719,0.0
1.09443620181,0.784928915147,1.00661194808e-05,-24336193.7045,1.93434645262e-05,0.0,5722337.36341,681.384055663,650.415635917,66727032.7115,1753.27761281,36663195.2652,69000416.4429,4543.00467371,4534.29587367,0.0
1.21843397139,0.705004525728,1.03373820436e-05,13189215.0734,3.28394852043e-05,0.0,14382706.2978,689.050697794,658.252187424,64931036.5115,1903.5612575,58443638.6004,66250134.8598,5057.71941524,5045.76582579,0.0
1.16476238194,0.843556953019,9.7449572112e-06,-2031397.47127,2.52727742388e-05,0.0,5511970.19166,685.912032757,654.978761606,66128361.0059,1843.15245899,49034959.4686,68237721.3771,4834.92864743,4825.1695425,0.0
1.07801704273,0.739565011004,9.67947777826e-06,-31518600.5166,1.8315661077e-05,0.0,5785711.83928,680.563145329,649.255914463,66901995.4385,1731.79602844,35215379.3608,69668911.8125,4474.84874437,4466.39677387,0.0
0.963904740309,1.00978482689,1.0057273966e-05,-93981796.6766,1.37475592052e-05,0.0,6040450.66398,684.14435239,642.022265684,67505516.5313,1614.36244232,69015735.6957,69242253.6316,4001.16857702,3994.45666047,0.0
1.24424100228,1.07087196483,9.27595899584e-06,17608466.1389,2.48716784748e-05,0.0,19124486.9422,690.830913829,659.832780297,64992479.762,1934.13607053,62213732.2161,67119891.6201,5164.84440046,5152.41505152,0.0
1.11531245209,0.888513683507,1.00619733333e-05,-15869990.0055,1.95485159642e-05,0.0,5660122.23657,682.498294074,651.701264384,66540485.8994,1779.50369038,40818055.4739,69377159.9254,4629.66198863,4620.43195441,0.0
0.99520781626,1.0292137603,9.74427957591e-06,-95725671.46,1.31582138404e-05,0.0,6004389.18409,679.234305708,644.0427312,67432926.1849,1621.7329442,70551097.787,70787364.8827,4131.1076453,4124.26719196,0.0
1.19265214639,1.00340754914,1.01484582138e-05,6311929.70339,2.31308764452e-05,0.0,7808604.95122,687.31030043,656.651549438,65433967.0279,1872.47488671,53251116.5101,66551833.9481,4950.69905966,4939.03692198,0.0
1.18013528377,1.20285636829,9.75904930721e-06,2853117.00667,1.84651052968e-05,0.0,5424856.02925,686.56451359,655.851533313,65830358.356,1858.26981324,51569872.9566,67081421.9054,4898.74156293,4887.62498053,0.0
1.19692521334,0.836682895053,9.95372008827e-06,7624430.35512,2.6399136543e-05,0.0,9064655.83561,687.764104914,656.937852933,65472514.8883,1878.9036614,54288197.2518,66566462.4896,4968.43656057,4957.12274511,0.0
1.03288239544,0.875078190439,1.0247236253e-05,-56569550.183,1.48101298614e-05,0.0,5838318.80386,677.965117354,646.410425309,67001911.6791,1670.08028107,40672725.1369,70853216.9075,4287.49482347,4278.98708648,0.0
1.14917315124,0.927459765291,1.00680007704e-05,-7263332.45359,2.26791271324e-05,0.0,5570219.11366,684.591213345,653.905689974,66307121.4247,1824.01024384,45876771.4827,68637757.5146,4770.2177508,4760.83184279,0.0
1.18169706816,0.89237370942,9.97937358636e-06,4128249.26576,2.41784745457e-05,0.0,6005860.02736,686.671790224,655.939819293,65763267.657,1861.26391306,52231220.5534,67035334.4658,4905.22452993,4894.49101856,0.0
1.18434314352,0.916845651022,9.94480403551e-06,4853216.97362,2.38504493347e-05,0.0,6493834.554,686.823142784,656.099068185,65763020.9809,1864.41899833,52703494.5933,67047737.3869,4916.20838875,4905.44930857,0.0
1.15646301793,0.567563780914,1.00738779848e-05,-5042049.86707,3.17686824661e-05,0.0,5497553.24737,685.38702791,654.429651087,66089973.302,1833.76742854,47054742.155,68331750.0895,4800.47798743,4790.97320183,0.0
1.08118805399,0.963475642684,1.00493311682e-05,-29005776.157,1.60437836375e-05,0.0,5773070.38625,680.603999695,649.611206631,66862838.9328,1735.78890282,35646057.9988,69300661.586,4488.01161211,4479.51043051,0.0
1.1118516579,0.786998522264,1.03139326789e-05,-16468876.4519,2.07550912349e-05,0.0,5630663.59034,682.233130103,651.490733311,66432288.5029,1774.45700148,40376524.114,69112688.5217,4615.29623194,4605.82514658,0.0
1.16332661166,0.765386693307,1.01415648867e-05,-518064.106572,2.52016091346e-05,0.0,5409793.25371,685.635257112,654.814753723,65765510.8696,1837.65887306,49522583.766,67556610.5007,4828.968765,4818.06190382,0.0
1.21750943375,0.952732437406,9.54381843083e-06,11740547.19,2.54127199832e-05,0.0,13052784.3836,689.177251598,658.172358115,65214181.5913,1902.60066856,57473456.5518,66334099.2628,5053.8816595,5041.73665629,0.0
1.0683016921,0.935944594459,9.902334206e-06,-35490252.4463,1.53734309524e-05,0.0,5803983.68451,679.850855629,648.680255074,66945102.1373,1718.38778143,34699677.8487,70096845.1813,4434.52032391,4426.02826722,0.0
1.15924244727,0.942263570783,1.03898817033e-05,-3374567.78505,2.31523604485e-05,0.0,5457904.83949,685.162868125,654.571653046,65921282.2232,1834.12286486,47653715.1475,67603025.4837,4812.01539862,4801.6125798,0.0
1.0850687037,0.715472136268,1.01342807339e-05,-27284061.7706,1.95890215075e-05,0.0,5741465.7879,680.8610748,649.852317495,66772823.3241,1741.06611618,35882350.0346,69208124.3751,4504.12018906,4495.55862406,0.0
1.12377150106,0.829769328188,9.98239460217e-06,-13511434.6784,2.10106416164e-05,0.0,5600776.36877,683.16045731,652.250848604,66363488.7617,1789.34742883,42285233.3894,68017789.499,4664.7755009,4655.00562252,0.0
1.13492056874,0.963831267982,9.6735024585e-06,-11283407.3547,1.99375834446e-05,0.0,5615579.71414,683.992984095,653.006926151,66424917.7842,1804.75290854,43610126.0839,67663658.1109,4711.05528084,4701.48029039,0.0
1.03743692989,1.136177732,9.87970204006e-06,-56391688.9381,1.26421640376e-05,0.0,5859006.71328,678.388558236,646.711529065,67070758.1402,1676.10842764,40608054.6929,71114205.3083,4306.40069597,4297.90806949,0.0
1.05062884015,1.01948521109,1.01146034047e-05,-43079441.6492,1.38604393183e-05,0.0,5833016.43055,678.735474874,647.54297638,67005789.9307,1694.31051855,35370398.5261,70545035.0116,4361.16031546,4352.76309475,0.0
1.17651592358,0.971400150418,1.01338553607e-05,2858565.34666,2.21043381495e-05,0.0,5394692.21601,686.254449052,655.617609176,65716500.7376,1853.734327,51334679.2597,66962085.7826,4883.71759878,4872.66273487,0.0
1.21162973711,0.925528381586,9.78476607322e-06,10995798.5018,2.55616020456e-05,0.0,12338581.4168,688.608965406,657.775800063,65319304.2699,1896.08956046,56828320.1922,66661936.4027,5029.47503874,5017.77543803,0.0
1.16474625524,0.842412185278,9.91171388873e-06,-613092.650039,2.35676088441e-05,0.0,5425146.79898,685.806836033,654.907099477,65826902.5256,1839.41077191,49617438.1159,67701843.5543,4834.8617055,4823.90364828,0.0
1.12089817919,0.79023714706,1.02661289646e-05,-14200946.3206,2.15283003861e-05,0.0,5599136.21433,682.813622505,652.064006126,66347882.4459,1785.98485438,41699324.164,68206965.6585,4652.84834182,4643.22605912,0.0
1.16212757279,0.881000980019,1.01588467597e-05,-4266932.7738,2.46626391045e-05,0.0,5409188.22629,685.612408102,654.744813455,65786495.0242,1836.86473517,47041444.445,67691276.2619,4823.99155465,4813.00755737,0.0
1.26397615918,0.929575543792,1.01933617161e-05,22383837.2607,3.22862730119e-05,0.0,24348426.0893,691.811495907,661.1064383,64501795.9226,1955.9200685,65871638.4434,66782172.6836,5246.76503676,5234.21918159,0.0
0.977103412934,0.878378434863,9.95147165387e-06,-94818294.6772,1.45823427813e-05,0.0,6023969.64209,681.725778747,642.877025806,67464276.8342,1613.76155533,69752159.5375,69989259.2533,4055.95626709,4049.28164228,0.0
1.12907526098,0.943813370051,9.78482040361e-06,-12457465.2434,1.98028471528e-05,0.0,5622484.43561,683.548411647,652.611306201,66435361.1964,1796.86030861,42821259.9476,67772383.068,4686.79140833,4677.23487817,0.0
1.15041774296,0.971360157951,9.78613183644e-06,-7061021.89369,2.13073694984e-05,0.0,5541640.31515,684.864253482,653.967843117,66209497.8049,1823.85329661,46014817.1055,68704521.9453,4775.38405103,4765.34082882,0.0
1.09724349996,1.19718976048,1.02997960371e-05,-22859388.0767,1.46519493486e-05,0.0,5733893.02231,681.254203985,650.642986474,66757536.5216,1756.56472646,37121618.1572,68722965.8281,4554.65776833,4545.90486962,0.0
1.03408511376,1.09463813658,1.01148897058e-05,-56500964.3563,1.28400441651e-05,0.0,5854107.18672,678.045872808,646.489581034,67050928.3471,1671.52214189,40642868.0292,70992834.8437,4292.48730722,4283.96011903,0.0
1.17878574503,0.988230864971,1.00749329608e-05,3279289.89781,2.19129006135e-05,0.0,5390780.33062,686.412650092,655.753607966,65706548.7116,1856.52864705,51597121.9339,66982622.0687,4893.13962762,4882.04411102,0.0
1.15337623768,0.74460582864,9.9083790846e-06,-5861029.95255,2.59006417035e-05,0.0,5498934.55481,685.15992127,654.180025462,66085288.053,1827.7762865,46557120.92,68529652.8201,4787.66476261,4777.57142087,0.0
1.20367479582,0.917897345737,1.0522551945e-05,9653491.10371,2.60223005514e-05,0.0,10974408.7007,687.719835383,657.270011057,65250574.95,1885.6494481,55557648.0047,66791833.4502,4996.45407745,4984.8076181,0.0
1.11885105065,1.03531426939,9.70787255785e-06,-15591166.1221,1.7514531034e-05,0.0,5626053.36961,682.935380068,651.912205269,66438984.251,1781.90220938,41089560.0282,69268086.3789,4644.35071125,4634.27083362,0.0
1.11130734389,0.673726264734,9.91011306713e-06,-16184700.6378,2.2180212502e-05,0.0,5664704.63647,682.499817116,651.496502445,66551108.8653,1774.45221655,40709639.3966,69148436.2052,4613.03678449,4603.8904999,0.0
1.01132214886,0.885884181505,1.00365608096e-05,-83980500.8705,1.47403360208e-05,0.0,5871233.4412,677.862433401,645.042352471,67043435.9379,1640.06805329,60456359.9362,70656732.8562,4197.99823992,4189.50504258,0.0
1.04708930961,1.16683336933,1.02884046931e-05,-44432143.3972,1.2485082461e-05,0.0,5839324.55729,678.385734282,647.320481338,67023869.5679,1689.39287782,35702528.263,70507671.6034,4346.46772419,4338.05522147,0.0
1.05445599923,0.787038445662,9.80699110412e-06,-44782759.0797,1.65786446205e-05,0.0,5793411.33959,679.3478869,647.780637978,66891802.2415,1698.51080198,35739363.4793,70407636.1808,4377.0468528,4368.09824398,0.0
0.982521090484,1.14558993347,1.06409263586e-05,-94742969.1582,1.20569569897e-05,0.0,5937280.67418,679.116128676,643.203196442,67209335.2168,1605.54979411,69686072.5552,69925370.4618,4078.4450466,4070.50038438,0.0
1.2648376724,1.00610846732,1.01987685657e-05,22357402.7117,3.06630177221e-05,0.0,24350871.059,691.838503781,661.16297187,64443429.5181,1956.14821277,65784722.3431,66744918.284,5250.34117813,5237.54381669,0.0
1.06654971096,0.891093589621,9.75546255682e-06,-36870318.0544,1.5691986424e-05,0.0,5811154.60097,679.883635901,648.566304443,66961089.4472,1716.12024406,34684305.7148,70230479.7555,4427.24785019,4418.78323454,0.0
1.17306009646,0.686832514826,1.05083335451e-05,2821188.15927,2.88071676821e-05,0.0,5315658.67233,686.09868434,655.381725823,65437507.1923,1848.86883995,51110964.5892,66754444.2135,4869.37246041,4858.07226824,0.0
1.1179098142,0.922610491687,1.02255991337e-05,-15108604.0083,1.9285027472e-05,0.0,5626676.13667,682.560052179,651.857092456,66427825.3083,1782.05469475,41165186.2852,68852374.931,4640.44363874,4630.87117764,0.0
1.08737281725,0.866591387011,1.00838358894e-05,-26689328.751,1.76483729288e-05,0.0,5748049.54684,680.956102375,649.993970798,66795878.3925,1743.95789574,36039297.5054,69240954.8985,4513.6845644,4505.08706426,0.0
1.04327558408,1.0240511431,1.0587097725e-05,-46528060.5233,1.39063881028e-05,0.0,5819081.9856,678.039123985,647.072939507,66959422.5262,1684.18672205,36248823.9574,70095482.0853,4330.63694952,4322.19581806,0.0
1.04608944177,0.935873571643,9.84904956887e-06,-46611560.383,1.43999580108e-05,0.0,5848495.66818,678.769116249,647.263363442,67038839.0713,1688.27354538,36364424.8038,70862353.3736,4342.31727279,4333.9913781,0.0
0.941714607579,1.09041822112,1.0390212757e-05,-92814797.2255,1.27806325095e-05,0.0,6030836.92575,686.41344663,640.576790265,67437770.8096,1604.08980589,67988719.2239,68201428.2343,3909.05733606,3901.74765212,0.0
1.08552436354,0.956258998308,9.86322033108e-06,-28046567.4371,1.63132266641e-05,0.0,5768628.55663,680.98507286,649.891275514,66853576.7861,1741.47683625,35871797.7375,69353166.6943,4506.01163305,4497.44296644,0.0
1.13590949491,0.945061818415,9.95639620037e-06,-10815994.5417,2.0629883098e-05,0.0,5589771.30103,683.894578325,653.06476284,66345483.3903,1805.80635871,43944716.6084,67709491.9924,4715.16031337,4705.46423589,0.0
1.00436895717,1.08240131342,1.01646245182e-05,-89858386.3618,1.24572183023e-05,0.0,5950051.26108,677.585097128,644.613863767,67270724.3645,1632.9497708,65435274.3094,70910036.9755,4169.13554121,4161.73464839,0.0
1.10591613452,1.13729217746,1.01938927455e-05,-19996556.0182,1.56889095483e-05,0.0,5686804.10892,681.857450225,651.171556712,66620333.9404,1766.57774167,38748146.3287,68732014.6643,4590.65787439,4581.37229072,0.0
1.1135476887,1.09014975889,9.79131766508e-06,-18765600.4799,1.66095750744e-05,0.0,5698979.08035,682.577324806,651.648866222,66677311.5443,1777.72597856,39324583.9952,69083398.9604,4622.33645579,4613.224553,0.0
1.04913294903,1.11090405566,9.69231507888e-06,-48127721.5815,1.29727510694e-05,0.0,5833447.00216,679.040522368,647.448763036,67007167.6965,1691.15127461,36852650.7735,70570380.9829,4354.95087142,4346.09147946,0.0
1.27760410359,0.947820845701,9.51248130696e-06,23993436.7578,3.04268400331e-05,0.0,25809394.3392,692.98761236,661.956578232,64301808.1706,1970.94617001,66876829.8758,67849017.3204,5303.334634,5290.08731384,0.0
1.07547240248,1.1796937761,1.00140457459e-05,-31177074.8423,1.33440337895e-05,0.0,5796755.09026,679.99768782,649.082133665,66928586.2239,1727.44686956,35285686.5735,69527791.6276,4464.28594269,4455.68296747,0.0
1.09229824989,0.876530260783,1.00865607892e-05,-25016879.5778,1.79286633345e-05,0.0,5734752.71173,681.18334454,650.262092159,66762345.6926,1750.40258132,36488918.0858,69114047.8988,4534.13003529,4525.45475836,0.0
1.12127734714,0.741303597356,1.04370938021e-05,-13690910.6076,2.27023099952e-05,0.0,5584051.9054,682.770577411,652.088094085,66305028.3656,1786.55142295,41968573.1774,67797655.3424,4654.42226798,4644.79371808,0.0
1.02859296769,1.01927402888,9.99902671074e-06,-61188076.7288,1.34291806107e-05,0.0,5915219.02982,677.922092828,646.165461509,67238687.3002,1666.78181608,43378936.2589,71030366.5085,4269.68940888,4262.37483799,0.0
1.01993088898,0.988437781676,1.02396479683e-05,-69714423.7001,1.37631143397e-05,0.0,5868983.0661,677.573871737,645.587115523,67072568.0113,1652.576005,49240032.9139,70904018.1654,4233.73312016,4225.43400929,0.0
1.13612920818,0.812339801052,9.84167102015e-06,-10530586.6183,2.26330478672e-05,0.0,5582056.14372,684.051322344,653.080245126,66320994.4951,1806.10879785,44131315.3569,67743056.7287,4716.07234316,4706.37289799,0.0
1.08532905636,1.19021689453,9.65856866253e-06,-28409362.7769,1.34753252462e-05,0.0,5790598.08613,681.022777782,649.879440849,66922334.5812,1740.83434899,35863386.1502,69473680.0402,4505.20091295,4496.53826498,0.0
1.0835174946,0.801439943568,1.02950760146e-05,-27521438.1293,1.84569921044e-05,0.0,5750699.15843,680.620223273,649.755037381,66792356.3053,1739.3031087,35824528.2028,69179900.5794,4497.68112008,4489.24083069,0.0
1.0689603568,1.12217322801,1.01821100415e-05,-33378318.4932,1.36248019438e-05,0.0,5803324.83591,679.574600709,648.702789924,66938150.9978,1718.92432129,34894316.5856,69763788.3491,4437.25444108,4428.7523515,0.0
1.20570255329,1.26663874389,9.81165635718e-06,10041621.8679,1.94122581734e-05,0.0,11417326.3389,687.985713971,657.443000506,65621180.0004,1889.37220896,56197413.2725,67198370.9762,5004.87129871,4993.70336647,0.0
1.006936782,1.04730594421,9.58854493317e-06,-92215839.4447,1.28899496323e-05,0.0,5925179.04621,678.514387514,644.773511723,67186371.8997,1634.48216225,67478691.2309,71039333.1681,4179.79458208,4171.59000599,0.0
1.1796650041,1.22409762535,9.69744838622e-06,2639354.26163,1.81279653318e-05,0.0,5423948.29437,686.568406808,655.821123277,65839418.4791,1857.42621806,51467218.1415,67090456.774,4896.78943202,4885.57577382,0.0
1.19724578078,1.0846724783,1.04709751381e-05,9181482.95829,2.23680415055e-05,0.0,10528506.8035,687.215417832,656.927013789,65510724.0964,1878.59141579,55306197.442,66766337.3853,4969.76723602,4958.70858498,0.0
1.08177085672,1.08234991569,9.90641461713e-06,-29262812.3734,1.4592708739e-05,0.0,5785748.64718,680.680839343,649.643593168,66900618.44,1736.45838214,35675728.8198,69372081.4562,4490.43082624,4481.92040585,0.0
1.08148645336,1.05170065158,9.9162623381e-06,-29336844.3581,1.4937151809e-05,0.0,5783966.31725,680.666834022,649.624078519,66894799.0792,1736.11136525,35656513.3686,69363409.5664,4489.2502679,4480.74444939,0.0
1.02733504553,0.941718972518,9.96410013412e-06,-61334088.603,1.39778582535e-05,0.0,5913921.39769,677.918173421,646.081051179,67227506.6604,1664.93876443,43552979.1369,70986898.5716,4264.467774,4257.0807414,0.0
1.23346002595,0.895438637001,1.00578358346e-05,16082205.9934,2.88541213068e-05,0.0,17576600.6716,689.885041597,659.224614999,65074107.4537,1922.31258537,60987745.2084,66755718.4963,5120.09256772,5108.42121502,0.0
1.14405694594,0.992108695693,1.02375935707e-05,-8279123.89659,2.13458550951e-05,0.0,5585625.4518,684.084461702,653.529516986,66349065.3087,1817.37228513,45200915.4493,68356868.6912,4748.9803826,4739.67636281,0.0
1.20970506527,0.97725904523,9.81246178618e-06,10564685.2368,2.45576427363e-05,0.0,11909799.4049,688.461699163,657.652071305,65303911.3433,1893.10049749,56488909.4575,66910887.13,5021.48572594,5009.59905214,0.0
1.01569449853,0.828136406697,1.00473990962e-05,-76647891.073,1.48314959082e-05,0.0,5931092.36482,677.675629383,645.339579367,67250547.6011,1649.29470965,54509177.8254,70787432.0548,4216.1478634,4208.92852663,0.0
1.0980588631,1.15827045894,1.02149397498e-05,-22985907.8672,1.5066773711e-05,0.0,5732724.07662,681.377477414,650.695272845,66753964.5117,1757.65386946,37356561.5576,68736114.6679,4558.04234073,4549.27737601,0.0
1.05615101624,0.722520228161,1.00123940033e-05,-39848506.732,1.67595824327e-05,0.0,5783537.53387,679.210794688,647.859128153,66849215.418,1700.68155859,34772194.4631,69792147.9463,4384.08286841,4375.0739823,0.0
1.2614250664,0.814085704816,9.88947991404e-06,22033164.2887,3.42508587773e-05,0.0,23908608.2518,691.848582384,660.966729502,64655434.5303,1954.50940494,65775731.1543,66552240.041,5236.17545063,5224.02999468,0.0
1.09146802268,0.753218642664,1.01982440893e-05,-24914680.3565,1.96693788217e-05,0.0,5722996.8936,681.115100128,650.208437066,66712371.2604,1749.4136928,36458236.6589,69018789.763,4530.68376214,4522.02132015,0.0
1.09036661698,0.936797387123,1.00144482362e-05,-25900547.2858,1.70068343898e-05,0.0,5747529.25434,681.115388867,650.157260659,66797503.0545,1747.83045605,36261380.0251,69245306.9183,4526.11182708,4517.4667927,0.0
1.05350216131,1.07366305004,9.92100382289e-06,-44831638.5375,1.3548472489e-05,0.0,5811725.65632,679.080579833,647.719666767,66948584.7905,1697.03511815,35763544.8262,70433112.9134,4373.0874716,4364.15604896,0.0
1.07789594881,1.02085504511,9.64463384661e-06,-31763353.0532,1.49153299052e-05,0.0,5806408.00647,680.461035506,649.247359512,66964683.8771,1731.41471481,35201698.3361,69769335.966,4474.34608351,4465.89598994,0.0
1.00019273839,0.999131612226,9.93739952577e-06,-95655109.8342,1.36778149293e-05,0.0,5909098.35873,678.587630044,644.337670695,67140991.7316,1625.11980194,70489273.2175,70755143.0394,4151.80005706,4143.48854366,0.0
1.06485099554,0.969734650365,1.03630380089e-05,-34832988.5101,1.52599929753e-05,0.0,5800263.63937,679.299753008,648.458990057,66928483.4729,1713.96452393,34671996.1479,69895847.5079,4420.19648249,4411.85227998,0.0
1.16775970407,1.09510672031,9.95397129521e-06,130058.398225,1.97727049982e-05,0.0,5468843.89759,685.769409561,655.107863717,65966386.576,1843.82479468,49994112.0046,67649025.118,4847.37053159,4836.74692296,0.0
1.21689134721,0.760247639957,9.89687820808e-06,12163648.226,3.0079066148e-05,0.0,13423665.5147,689.097755158,658.152606146,65140996.2381,1902.66072589,57709513.2959,66201211.7057,5051.31598227,5039.51960433,0.0
1.09314790777,1.05256871575,1.02146815016e-05,-24399426.075,1.59600431441e-05,0.0,5739508.126,681.081133212,650.32863007,66766377.7108,1751.3346315,36618386.131,68996306.5914,4537.65696515,4528.96912567,0.0
1.07549267236,1.01805200451,1.05869364295e-05,-30242258.2874,1.55535046776e-05,0.0,5776453.27303,679.858915068,649.240931292,66870404.8398,1728.832696,35155403.6874,69138251.0332,4464.37008297,4456.14816217,0.0
1.20170129639,0.744665543435,9.92625886921e-06,9526732.39695,2.92622526459e-05,0.0,10937746.6402,688.092593945,657.219866278,65415262.6876,1885.04823871,55720608.4021,66805872.2781,4988.26208131,4977.08216434,0.0
1.20878628499,0.8704574347,1.01601943281e-05,10793207.1107,2.70048919719e-05,0.0,12089051.943,688.252244905,657.594333966,65283546.9423,1892.6906249,56628732.7492,66607143.9181,5017.67186899,5006.14097939,0.0
1.1395446638,0.779992381939,1.02471544957e-05,-9368573.90172,2.39578281213e-05,0.0,5548156.86034,683.989124339,653.262606049,66232158.9904,1810.51873677,44674042.9086,68016461.3794,4730.24989943,4720.5191565,0.0
1.0209463734,1.06128670099,1.04022045196e-05,-68090777.6046,1.31194084426e-05,0.0,5867105.85165,677.415861877,645.65495412,67074572.4427,1654.06538047,48064076.8589,70697169.8277,4237.94839598,4229.71832448,0.0
1.17936249494,1.08813361783,1.02158369542e-05,3807973.33908,2.07226174614e-05,0.0,5787789.91438,686.253857802,655.789430024,65814605.726,1857.95517683,51937804.4064,67074001.1267,4895.5337165,4884.84537032,0.0
1.01472377735,0.715443104766,1.00569071542e-05,-77685157.5768,1.57025873676e-05,0.0,5927686.65311,677.698777874,645.280373053,67234833.5791,1648.05963428,55327247.021,70843390.1964,4212.11839978,4204.9129489,0.0
0.969631015937,1.0867235573,9.96892641292e-06,-94364870.5817,1.28550211227e-05,0.0,6020890.25642,683.017616048,642.387396496,67435657.8357,1612.36177506,69352966.7187,69583252.4416,4024.93834715,4017.79408178,0.0
1.05372065318,0.943619387958,1.03404649064e-05,-41718535.6297,1.49059918758e-05,0.0,5807599.61603,678.750287605,647.714844895,66931816.0108,1698.52330246,35095331.0448,69996330.6171,4373.99443135,4365.47654736,0.0
1.19079206471,1.15626242357,9.85197324157e-06,5378210.46595,2.00426498671e-05,0.0,6985797.59039,687.225645919,656.506917894,65587544.3881,1870.31775901,52934393.3935,66885211.9297,4942.97786061,4931.33026379,0.0
1.02169216054,1.13873273029,9.84109108295e-06,-71333373.9986,1.22375545349e-05,0.0,5945492.68976,677.861551826,645.724769526,67311272.609,1657.51099853,50442796.9351,70974738.8042,4241.0441584,4233.82812279,0.0
1.21472466237,0.931056906249,1.03917761548e-05,12537527.5832,2.66919003219e-05,0.0,13761551.937,688.486834392,658.029896426,65238764.6407,1899.83323568,57988684.0796,66388408.051,5042.3220735,5030.90903052,0.0
1.03193799613,0.81825574023,1.03011355195e-05,-58328352.0521,1.55002601227e-05,0.0,5830363.29772,677.909894864,646.342153326,66978133.9368,1668.69830006,41659023.0548,70825027.1832,4283.57462194,4275.08246537,0.0
1.08620128745,1.00326956042,9.92134351515e-06,-27648139.7204,1.5877057841e-05,0.0,5767600.25912,680.958795757,649.928760587,66851951.5671,1742.31911466,35922550.407,69349007.014,4508.8215442,4500.24232304,0.0
1.20630107112,1.34675585039,9.89911997518e-06,9702380.0354,1.858134854e-05,0.0,11074973.6133,687.993272031,657.451695771,65418038.6754,1888.23739586,55858522.1862,67045621.5001,5007.35574622,4995.4074666,0.0
1.20530029621,0.920846223046,9.97096184855e-06,9788824.90244,2.55689630311e-05,0.0,11158203.9643,688.18134311,657.388668016,65257476.1457,1887.57472248,55839489.608,66856784.7236,5003.20152957,4991.2719567,0.0
0.996291914566,0.9527951607,9.85293775518e-06,-95442688.6773,1.43018279095e-05,0.0,5921022.89378,679.349309487,644.091424767,67172185.6081,1620.04118018,70302156.6756,70532126.5091,4135.60773736,4127.44021287,0.0
1.19756526986,0.992306871261,9.8503354425e-06,7362066.02589,2.31983894454e-05,0.0,8834213.89233,687.750036985,656.980358077,65549497.5964,1879.6562759,54109628.2002,66646801.5018,4971.09343519,4959.76558761,0.0
0.984422881596,0.902028871015,9.82838585013e-06,-95015715.0037,1.45343397842e-05,0.0,5999622.65679,681.26204991,643.344315295,67400614.9085,1617.46217654,69925912.038,70165449.5464,4086.3393815,4079.30498245,0.0
1.11981831966,0.868621664561,9.93242308135e-06,-14802433.3391,2.00930792895e-05,0.0,5596929.57309,682.948579047,651.971956218,66337938.0733,1783.32951499,41448484.9894,68626298.6224,4648.36584491,4638.26833821,0.0
1.05402963044,0.948575424579,1.01212585584e-05,-40688594.8431,1.47354040225e-05,0.0,5817435.9805,679.001827492,647.818245533,66963613.5858,1698.70418517,34945418.8407,70039520.0506,4375.27699596,4366.82656578,0.0
1.10417271159,0.97456050825,9.72890410985e-06,-20359848.6375,1.71841444101e-05,0.0,5651870.68715,682.20009983,651.06534869,66493670.9431,1762.54718081,38654055.9063,68560117.4528,4583.42092581,4573.31009872,0.0
0.968503903147,1.22357196316,1.00781410269e-05,-94209962.2456,1.19139599684e-05,0.0,6041278.80529,683.32668919,642.318358815,67515042.2108,1615.04201665,69216609.9009,69445617.4794,4020.25970196,4013.48294016,0.0
1.02270642703,1.08548492984,1.00880306642e-05,-68419094.7631,1.29389858759e-05,0.0,5874284.76086,677.754444288,645.771250577,67093811.0875,1656.17651529,48306959.7343,70811637.5371,4245.2543786,4236.9108036,0.0
1.11639919254,0.811942141237,1.01102919571e-05,-15322744.0286,2.06961939561e-05,0.0,5595069.91393,682.64524414,651.749806174,66332169.3766,1778.95152831,41092960.0567,69002716.8189,4634.17304823,4624.13574734,0.0
1.01705071446,1.04087756691,9.93853650645e-06,-76006111.1398,1.30055243932e-05,0.0,5947992.56136,677.750670991,645.43722421,67311440.0123,1651.36167438,54012922.7784,70836448.533,4221.77751572,4214.62743378,0.0
1.067326297,0.766899682917,1.0366295758e-05,-34503320.9588,1.75434022578e-05,0.0,5781313.04305,679.512405992,648.611397045,66875908.8487,1717.54781682,34686777.8078,69719209.126,4430.47145885,4422.08862857,0.0
1.05396989448,1.00183826689,9.88041105314e-06,-44733054.7197,1.43235797401e-05,0.0,5807127.17457,679.166741467,647.748468931,66934041.6148,1697.71094653,35733780.4086,70410676.5397,4375.02903199,4366.08847383,0.0
1.02696883743,1.051260482,9.58230205632e-06,-67417931.6987,1.30819843477e-05,0.0,5937537.20287,678.268577863,646.063474802,67299426.7283,1664.51511332,47643112.1492,71156740.2103,4262.94764417,4255.65631512,0.0
1.17439503466,1.06240116249,1.01931468089e-05,2562712.2755,2.06962382759e-05,0.0,5384657.99607,686.047460885,655.475915316,65689495.721,1849.98920738,51217216.0769,67015530.2662,4874.91378887,4863.57834717,0.0
1.15226393605,0.840421679888,9.92700502974e-06,-6741658.22633,2.43907085884e-05,0.0,5558329.03812,684.932539581,654.122931418,66267074.7488,1828.09666675,46296226.3751,68687781.5225,4783.04759854,4773.61039358,0.0
1.10341306215,0.679317207457,9.67424184082e-06,-20593583.2856,2.11394419518e-05,0.0,5676654.22087,682.307337537,651.039639466,66575320.4864,1763.7186366,38518588.3392,68502956.9476,4580.26762098,4570.93453637,0.0
1.06553636161,0.896088291832,9.85435201045e-06,-36928368.2725,1.56290362876e-05,0.0,5810261.38124,679.753544186,648.501342743,66958209.9804,1714.8021124,34668904.4441,70179216.3798,4423.04143704,4414.59267677,0.0
1.20550561865,0.704903127504,9.69738386956e-06,9956708.39748,3.05092666465e-05,0.0,11377641.3458,688.472703608,657.445016596,65427406.2872,1890.33029182,56104501.3655,66950178.6076,5004.05382302,4992.90958743,0.0
1.22231753823,0.916256026151,1.01329639845e-05,13549030.786,2.72085355438e-05,0.0,14832279.9902,689.174982117,658.508363201,65085697.911,1908.20557444,58860129.8737,66485992.6751,5073.84010119,5061.94646339,0.0
1.15738205913,1.01766134442,9.59168761243e-06,-4718551.49382,2.08500289098e-05,0.0,5538196.67861,685.390995205,654.438142274,66209944.1664,1832.84853257,47637644.5188,68644703.3132,4804.29292745,4794.2255145,0.0
1.11553672754,0.882088191191,1.02639540367e-05,-15618074.5149,1.96954120398e-05,0.0,5630001.44696,682.409001442,651.703435923,66433812.0742,1779.1168254,40915215.9866,69153551.4654,4630.59295602,4621.05913108,0.0
1.1132228351,0.920443428219,1.00977610618e-05,-16426762.1261,1.8858620572e-05,0.0,5622636.68976,682.41045022,651.573022545,66416758.915,1774.93503569,40517150.1948,69218480.6657,4620.9879885,4611.10152369,0.0
1.15183622458,0.994049653493,9.98232458718e-06,-6773868.76837,2.17251868942e-05,0.0,5571098.16076,684.799409861,654.097276156,66309776.6406,1827.35667849,46267034.7552,68720960.6008,4781.27216823,4771.84183594,0.0
0.997383791382,0.81668565402,9.9793268749e-06,-95468767.4209,1.51091930068e-05,0.0,5904498.53148,678.838564922,644.155673088,67122875.4193,1621.49997158,70325131.2824,70778404.5041,4140.14011803,4131.87426107,0.0
1.089272039,0.72875655766,9.80833716442e-06,-26841347.5578,1.95299087187e-05,0.0,5743857.38664,681.330545384,650.119269323,66781505.4454,1746.5816839,36084879.8335,69307573.5795,4521.56823389,4512.94100582,0.0
1.01206784224,0.699909575524,1.00086339555e-05,-78817448.4627,1.60191352998e-05,0.0,5881026.95099,677.911448206,645.097864984,67074031.913,1642.18373587,56242329.1503,70629498.9993,4201.09361314,4192.9199438,0.0
1.08425267358,1.19214411398,1.03046161218e-05,-27334445.7292,1.3961509735e-05,0.0,5773623.47909,680.499133833,649.800492334,66864645.1338,1739.97024496,35904610.0456,69255322.9123,4500.73284803,4492.28121937,0.0
1.01710278675,1.0108659283,1.00668401871e-05,-74754823.6155,1.33763698687e-05,0.0,5934489.34732,677.621172564,645.427389116,67267083.8085,1651.09213321,53039087.5557,70790789.8303,4221.9936678,4214.75416565,0.0
1.04068427213,0.867166380393,9.66041883242e-06,-53868648.5972,1.52464880253e-05,0.0,5827535.16952,678.785188186,646.894993591,66975208.3997,1679.49657545,39358507.6379,71106429.1192,4319.88041361,4310.98668485,0.0
1.30113972388,1.14343534035,9.86225646188e-06,27994584.2985,2.98328381599e-05,0.0,29393564.4766,694.138331977,663.429784765,64013739.4872,1996.70810672,68848699.8838,70035271.2795,5401.03099383,5387.5678093,0.0
0.995135774293,1.02553610608,1.01891274321e-05,-95339398.1276,1.34896028825e-05,0.0,5915951.07902,678.649718769,644.013665276,67159704.0402,1618.57155469,70211245.3022,70461526.5564,4130.80859909,4122.65967164,0.0
0.950131178022,0.856400099925,1.00032815169e-05,-93503435.4159,1.45436426317e-05,0.0,6085810.26132,685.950686458,641.140545968,67621839.8156,1610.84066407,68594598.3973,68814197.4879,3943.99451997,3937.76107414,0.0
1.09285024871,1.16873851611,1.0088947755e-05,-24891345.8493,1.44894609551e-05,0.0,5753636.50921,681.071847713,650.294223051,66822363.8905,1750.86829859,36508662.1069,69147935.3824,4536.4213824,4527.73820861,0.0
1.06927776099,1.0800482078,1.02529708217e-05,-34171626.1619,1.41307462204e-05,0.0,5800623.745,679.573790677,648.725455455,66936829.1016,1719.88341072,34771808.8535,69757628.7609,4438.57198587,4430.15884743,0.0
1.10976317119,1.17993550407,1.00772311687e-05,-17516765.7883,1.53008426751e-05,0.0,5657309.05555,682.122320377,651.387135272,66517199.9698,1770.21852978,39850833.0599,69045170.3261,4606.62692361,4596.79973356,0.0
1.07329352711,1.26166001428,1.0092110762e-05,-31791862.245,1.25748473904e-05,0.0,5803328.13159,679.785502704,648.934130804,66945804.0035,1724.53782896,35179251.13,69600221.3287,4455.24143103,4446.67275879,0.0
0.981018537556,1.04498205421,9.77733208626e-06,-94945703.2576,1.30773394085e-05,0.0,6016258.63688,681.633473803,643.125560269,67440347.4762,1615.68771016,69864224.5171,70103578.1142,4072.2079494,4065.13987255,0.0
1.06788334384,0.910226986613,9.83111499267e-06,-35959904.9776,1.55937607254e-05,0.0,5806115.50079,679.892958606,648.653296183,66949772.733,1717.85649466,34681089.1726,70166222.8992,4432.78376028,4424.29825942,0.0
1.04197178199,1.13283111322,1.01303580081e-05,-50495635.0626,1.28053781185e-05,0.0,5839773.04229,678.32362738,646.964139691,67020900.2015,1682.17015453,37706465.3924,70927241.36,4325.22486704,4316.65916947,0.0
1.02912053793,0.697332220859,1.01006777139e-05,-60991040.445,1.62374110451e-05,0.0,5841846.48951,678.039017768,646.179067919,67005017.9314,1665.1993693,43275726.1837,70841723.0916,4271.87935295,4263.43233932,0.0
1.04559106079,1.00518166127,1.01366937775e-05,-48208316.8601,1.41418444066e-05,0.0,5823129.34838,678.571921523,647.225609546,66976646.0702,1687.06068012,36861146.9911,70711242.7266,4340.24849334,4331.62429596,0.0
1.08278911111,0.897196563042,9.51459603479e-06,-30122307.5074,1.65314349493e-05,0.0,5790615.573,680.896023494,649.572651331,66922483.6056,1737.92725154,35586403.9299,69446240.9747,4494.65760022,4486.1315272,0.0
1.07095913175,0.946531715567,9.63457431658e-06,-33414624.5569,1.50403876491e-05,0.0,5765556.70398,680.201238673,648.828999989,66809347.309,1719.27505737,34872529.6356,69792024.0694,4445.55135589,4436.11596412,0.0
1.13132904808,1.09986301175,1.03124036054e-05,-11286661.1223,1.81689329884e-05,0.0,5586181.28502,683.208757391,652.682923091,66319838.3746,1798.80146151,43496062.221,67584222.3299,4696.14687858,4686.24881013,0.0
1.10700362129,0.853357919386,9.86084560089e-06,-18679742.5925,1.88128723668e-05,0.0,5670020.19574,682.273085755,651.244028807,66560133.0369,1767.9736072,39351272.1238,68771559.1438,4595.17203197,4585.68195048,0.0
1.11116299251,1.03191575445,9.63143364012e-06,-19820119.8267,1.69522379956e-05,0.0,5683692.75495,682.625529364,651.510153742,66616211.4766,1773.67527466,38929298.7884,68871331.0202,4612.43758191,4602.96595249,0.0
1.02121919779,0.895533661487,1.00918738676e-05,-69297095.4213,1.43976836194e-05,0.0,5917920.51615,677.679387545,645.693760489,67230145.6042,1656.63641942,48948216.2724,70762242.5031,4239.08089003,4231.78230766,0.0
1.06456969435,1.02153427105,1.01219678508e-05,-36348976.2026,1.43480103347e-05,0.0,5810273.46059,679.44848802,648.438326695,66950235.7313,1713.43919226,34647439.5278,70142347.4248,4419.02880125,4410.59515461,0.0
1.16284540378,1.13962330255,9.97838918349e-06,-1098081.66931,1.85303468982e-05,0.0,5464352.54866,685.448769704,654.788128956,65947414.4469,1836.5809483,49320895.478,67794096.2931,4826.97127109,4816.04726099,0.0
1.13863130096,0.984893186867,9.77658126998e-06,-9385057.14279,2.00502921662e-05,0.0,5598972.9909,684.121330703,653.244765316,66383229.5827,1809.18244356,44989667.5753,68045882.227,4726.45853029,4716.82555681,0.0
1.07011071336,1.15684944747,1.00936671878e-05,-33187810.5449,1.33169138674e-05,0.0,5805977.87792,679.684737062,648.771167544,66947135.1464,1720.41785593,34939659.0579,69763911.1954,4442.02957116,4433.50943425,0.0
1.1045978069,0.941435409058,9.67782786018e-06,-20639404.1285,1.76478336652e-05,0.0,5647822.99069,682.27995572,651.092893308,66482793.9913,1763.02947959,38690564.1755,68564005.6993,4585.18549644,4575.06736797,0.0
1.13428748263,1.09589348921,9.9233905218e-06,-10630309.2595,1.84877240932e-05,0.0,5635065.49789,683.689528009,652.972603154,66491781.2243,1804.36107928,44195354.1036,67861893.8174,4708.4273404,4699.17684681,0.0
0.956345699149,1.18717383743,1.0088617621e-05,-93789221.7208,1.19494815829e-05,0.0,6082413.75541,684.772909522,641.540373163,67624954.6635,1611.56040057,68846230.4248,69068871.5695,3969.79099717,3963.47417735,0.0
1.21356068611,0.845977989816,1.01247372773e-05,12050076.6021,2.79867465194e-05,0.0,13306506.8712,688.617207596,657.942935333,65276841.9107,1898.8787782,57602107.3214,66335188.8002,5037.49040804,5026.07020441,0.0
1.13528558898,0.751999865699,9.67501380473e-06,-11133941.8838,2.33511360632e-05,0.0,5594804.87101,684.134528759,653.033749312,66361441.5064,1805.45030405,43704368.1446,67628983.8624,4712.57047986,4702.98948042,0.0
1.12085697658,1.06082811829,1.01649507146e-05,-14000082.8553,1.76928211539e-05,0.0,5622593.82155,682.731593722,652.058400748,66429508.1564,1785.30126024,41948500.2387,68343129.5845,4652.67730978,4642.95653141,0.0
1.05021297026,0.922487205703,9.97454590004e-06,-45150216.2613,1.49090953528e-05,0.0,5814786.76551,678.906139344,647.519114188,66950713.841,1692.96115545,35883168.3255,70499949.5438,4359.43403955,4350.70307042,0.0
1.03724533835,0.680698299836,9.82205969556e-06,-56305168.8682,1.68489719637e-05,0.0,5883646.82532,678.498813191,646.719117029,67152830.9144,1678.50168984,40649193.9149,71058619.7689,4305.60539949,4298.16792067,0.0
1.18260196904,1.22673538353,1.04699557529e-05,4871210.89974,1.91771373488e-05,0.0,6404755.8141,686.284093678,655.972901998,65566252.4829,1859.45518729,52301806.7269,66829173.6271,4908.98077349,4897.49510445,0.0
1.02851145114,0.814846142482,9.85277504558e-06,-63142206.989,1.52584217662e-05,0.0,5913880.33674,678.108611698,646.148977744,67232975.2785,1666.89502906,44729878.8231,70951133.91,4269.35103368,4262.0772983,0.0
1.12263029141,1.16858114417,1.03501380965e-05,-13403211.3691,1.66017888448e-05,0.0,5617635.77648,682.693378609,652.174802305,66403491.1953,1787.59770572,42279777.9943,67733236.7509,4660.03833964,4650.28635761,0.0
1.00723818652,0.883572686081,9.96834550137e-06,-88998845.9777,1.47226504516e-05,0.0,5883812.72261,678.077471186,644.78336176,67074615.7088,1634.59895083,64697227.6902,70853569.0985,4181.04571224,4172.61944231,0.0
1.09212720884,0.799066851002,9.50466368544e-06,-26414731.9691,1.83245782829e-05,0.0,5751005.97167,681.66300527,650.293554825,66809129.0627,1750.06448024,36279811.7361,69415381.8816,4533.42004389,4524.65019151,0.0
1.09746529896,0.964897702385,9.91199145341e-06,-23658169.4968,1.71077393916e-05,0.0,5736381.44343,681.598253284,650.628358961,66770237.8395,1757.20919244,36935862.4799,69124058.454,4555.57845598,4546.82271668,0.0
1.00090721838,1.05865409585,9.69093268913e-06,-95973361.8206,1.29415677744e-05,0.0,5994607.01897,678.732683465,644.405565722,67411182.8109,1629.34761887,70767678.0057,70991298.5651,4154.7658635,4147.84320416,0.0
1.0878371276,0.72330425021,1.03303892864e-05,-25923086.9642,2.00259818708e-05,0.0,5731369.89883,680.846975435,649.999699984,66739231.7302,1745.02837823,36147280.3978,69093074.8742,4515.61191667,4507.10491239,0.0
1.01509295744,0.913213422387,9.677869312e-06,-80772131.3156,1.41147247193e-05,0.0,5957461.46681,678.042979003,645.298340095,67325002.7765,1648.73031754,57823609.0766,70946789.2839,4213.65086633,4206.52852606,0.0
1.19494753965,1.15111680642,9.9438133821e-06,7077306.17936,2.03106893491e-05,0.0,8511430.93142,687.420968958,656.818185903,65622271.6409,1876.00303439,53923824.1319,66709088.0817,4960.22723709,4948.93544044,0.0
1.06312077515,0.896501736997,1.04440727805e-05,-36105082.9321,1.58480586805e-05,0.0,5796754.6783,679.182120862,648.345900582,66916900.7227,1711.93185988,34611050.9925,69937233.7069,4413.01433765,4404.69813511,0.0
1.21258125786,0.78087156421,9.96887560475e-06,11358982.1015,2.92836071431e-05,0.0,12639530.1552,688.754452225,657.846832453,65128428.168,1896.82073578,57036752.1712,66226419.4639,5033.42480138,5021.48806686,0.0
1.07311606641,1.10719015923,9.82282946851e-06,-32196179.4547,1.34584368877e-05,0.0,5784538.7493,680.07887023,648.948962239,66876535.4067,1723.18112463,34940569.78,69694861.1845,4454.50479167,4445.39749752,0.0
1.07443939777,0.993361038591,9.49693335716e-06,-33723120.2217,1.49560348064e-05,0.0,5816266.23307,680.551036067,649.146530539,66984982.1249,1726.9028484,34885476.7615,70109538.4524,4459.99794014,4451.60135036,0.0
1.0269727244,0.767456494731,1.01513523814e-05,-63940707.3823,1.58183055553e-05,0.0,5843593.89627,677.90693862,646.02749788,67007504.7439,1662.1173378,45185437.2387,70835524.6636,4262.96377898,4254.55167017,0.0
1.06745787846,0.837214415065,9.86874647821e-06,-35988292.1018,1.64057145922e-05,0.0,5801048.16727,679.871008128,648.625591139,66933887.2677,1717.35591074,34669287.7056,70140962.3951,4431.01765349,4422.53881786,0.0
1.07220700915,1.27969181678,1.03453934102e-05,-31674114.6631,1.2537932563e-05,0.0,5797035.20186,679.715826343,648.990523532,66920552.7933,1723.42700422,35118801.3098,69424154.8896,4450.73129498,4442.27282139,0.0
1.11075456997,0.863455609161,1.00715926181e-05,-17178194.2147,1.93298723896e-05,0.0,5627353.66253,682.34129703,651.445625789,66426438.58,1771.81989234,40094277.1219,69018112.9564,4610.74221995,4600.89805857,0.0
1.09852895001,1.09512169869,1.01636634833e-05,-22832523.2659,1.58161850682e-05,0.0,5729327.70481,681.466266215,650.72630023,66743281.8267,1758.32257656,37191549.4901,68727837.0454,4559.99367149,4551.22130959,0.0
1.13454398939,1.1960492124,9.50531199074e-06,-11691646.3962,1.64467038514e-05,0.0,5593267.54817,684.001884706,652.963457899,66356499.5229,1801.96574826,43375571.1697,67574936.9653,4709.49209996,4699.11421967,0.0
1.18088770771,1.16285445079,1.00315432375e-05,3820609.71149,1.94403496868e-05,0.0,5786876.52754,686.421078096,655.89190542,65848881.1214,1859.90735913,52056132.2153,67131891.0347,4901.8648747,4891.15000242,0.0
1.07632475581,1.07920259089,9.73808370709e-06,-32117203.0901,1.41986990644e-05,0.0,5810518.99125,680.27777395,649.142041322,66976236.7964,1729.3101639,35124729.139,69793240.9462,4467.82406137,4459.39830553,0.0
1.18432522704,0.805651380659,1.00450282479e-05,4797725.40143,2.63434157384e-05,0.0,6449782.37973,686.86146549,656.097747608,65676639.9758,1864.5730478,52577661.5799,66949984.496,4916.13401744,4905.35926596,0.0
1.1175648067,0.864597999005,9.87533884985e-06,-15500995.9626,1.97794352951e-05,0.0,5621091.92358,682.822706074,651.831965427,66410810.3243,1780.92703298,41108978.6011,69248003.1482,4639.01151261,4629.14853271,0.0
1.00245406819,0.928397959111,9.77897932998e-06,-95388310.5181,1.38220794936e-05,0.0,5984446.29774,678.320713091,644.500048832,67382526.136,1631.70425556,70257041.8905,70942631.2711,4161.18683706,4154.24226295,0.0
1.06122491874,0.963705654606,9.98663160584e-06,-38411493.2331,1.47486720627e-05,0.0,5819858.81811,679.394129745,648.221842791,66982044.6505,1709.05649512,34697494.5609,69967142.0094,4405.14463769,4396.76320045,0.0
1.16743449059,0.837496423914,9.81073817166e-06,171080.170342,2.3768641856e-05,0.0,5418966.09266,686.022827656,655.074898302,65808419.7682,1842.68316067,50149891.1812,67712759.0335,4846.02057044,4835.01585457,0.0
1.11779991325,0.88385124641,9.94478173229e-06,-15271624.8989,1.96938438847e-05,0.0,5604994.19606,682.800516124,651.842199623,66362019.3905,1780.71013613,41120627.4538,69049240.0809,4639.9874399,4629.92496299,0.0
1.05245576505,1.12878474151,1.00359104631e-05,-43728617.3686,1.30324197124e-05,0.0,5820014.10094,678.870675232,647.648282083,66972540.3384,1695.80863085,35502796.5828,70481073.9533,4368.74388072,4359.97636295,0.0
1.09762158262,0.942169859186,9.73693213881e-06,-23935148.9038,1.71540870832e-05,0.0,5736400.32996,681.731509377,650.62595582,66763734.0495,1757.10842598,36904478.4025,69206746.8652,4556.22718946,4547.37030054,0.0
1.26336244551,0.944721257701,9.97973294799e-06,22073131.8203,3.11922729008e-05,0.0,24016785.9792,691.871358346,661.065185539,64532893.5946,1955.29975228,65622682.031,66496539.762,5244.21751131,5231.56539939,0.0
1.13782761124,0.775735040514,1.02051715632e-05,-9948473.55663,2.42314768797e-05,0.0,5583768.16935,683.898144485,653.186483672,66328288.7213,1809.41149696,44283339.1266,67918021.3488,4723.12241426,4713.83700546,0.0
1.15366084472,0.82312686366,9.87583381916e-06,-5871730.64295,2.43002096114e-05,0.0,5509076.14856,685.131514293,654.196458037,66114533.9023,1828.03543044,46545819.385,68569506.1478,4788.84616643,4778.74799798,0.0
1.0417154668,0.955174035938,9.92495787426e-06,-51100480.902,1.43246230325e-05,0.0,5831422.79809,678.560623052,646.95712471,66993709.8521,1681.45612199,38039129.8165,70946462.2332,4324.16090269,4315.42370435,0.0
1.03487740794,1.05406570046,1.02357350388e-05,-54868373.0608,1.3248121957e-05,0.0,5845166.39401,677.990394032,646.543396218,67023764.3803,1672.60532452,39770118.4288,71026138.7743,4295.77612036,4287.23610883,0.0
1.16310623608,0.86607334536,1.03087692573e-05,-65184.4026203,2.33108121613e-05,0.0,5423468.92634,685.419561803,654.801238354,65793580.3034,1837.24250153,49652437.2222,67462314.2862,4828.05398597,4817.24310014,0.0
1.04030411255,1.01265834827,1.00078627262e-05,-51476448.7723,1.37311493332e-05,0.0,5835281.52343,678.423213906,646.884416531,67004131.4666,1679.54873217,38165121.9694,70811599.9836,4318.3023712,4309.58831459,0.0
1.11753057675,1.05374275831,9.89153072912e-06,-15681893.416,1.74069374295e-05,0.0,5674071.98337,682.667567149,651.84394528,66583371.903,1782.25888016,41014424.0197,69404020.5197,4638.86942409,4629.60355297,0.0
1.07722752894,0.839653340563,9.61995886693e-06,-32097263.0347,1.6911699445e-05,0.0,5797130.46768,680.512598902,649.201033656,66934228.0083,1730.67256171,35121664.8885,69791237.6652,4471.57147263,4463.13173639,0.0
1.10195389788,0.84856940072,1.03444668976e-05,-19096792.5076,1.89264249929e-05,0.0,5642884.4289,681.67189156,650.915462484,66464587.9631,1760.43873193,38947364.6319,68569482.2112,4574.2106301,4564.51821047,0.0
0.960851898018,0.822388159888,9.85314100759e-06,-93957824.1977,1.52148728136e-05,0.0,6063481.17017,685.037274433,641.831803213,67571439.7148,1615.78650892,68994729.2482,69219684.6288,3988.49622867,3982.11865375,0.0
1.07551065497,0.803857226485,1.00704348523e-05,-30430398.1705,1.72629788701e-05,0.0,5728854.48152,680.286646191,649.15945831,66708400.8807,1725.95151842,35318745.1037,69304422.3798,4464.44472878,4455.11411049,0.0
1.11692289474,0.997300251621,9.80197137375e-06,-15873141.431,1.78945490464e-05,0.0,5632597.30783,682.777386136,651.795553839,66446698.3288,1779.80714686,40962069.5251,69432707.9825,4636.34693607,4626.39770444,0.0
1.03607101582,0.958016144189,9.98079335591e-06,-56733195.2184,1.42516781649e-05,0.0,5847681.0919,678.313196851,646.621443207,67033413.2155,1674.44772336,40779050.6616,70990370.8565,4300.73078667,4292.25875151,0.0
1.01590660931,0.848902096685,1.02550641519e-05,-73591623.3625,1.48463137898e-05,0.0,5872774.80946,677.58138835,645.33221456,67072959.1988,1647.4380236,52106000.2752,70667107.5094,4217.02833525,4208.87798546,0.0
1.22240169636,0.877783010083,1.01048444663e-05,13570813.0686,2.79805270668e-05,0.0,14853597.859,689.228192873,658.513925185,65070842.5034,1908.41419353,58860137.5607,66468617.6016,5074.18944159,5062.29425282,0.0
1.21187752794,0.870195910481,9.58846329763e-06,10909536.7779,2.64904407772e-05,0.0,12219927.8317,688.798687783,657.792432995,65298111.5771,1896.36970636,56773817.1346,66836636.8758,5030.50361848,5018.66079926,0.0
1.21279170961,0.770639461364,1.01690262619e-05,11652685.9867,2.99615770119e-05,0.0,12900005.0019,688.678145233,657.874215333,65111637.2247,1897.10650423,57236527.5939,66125282.1406,5034.29838659,5022.44672946,0.0
0.970610193892,0.945052791891,1.02904165137e-05,-94278384.9202,1.41919727778e-05,0.0,6027278.36989,682.430981221,642.456708701,67484713.0312,1613.69389955,69277001.1384,69507624.7092,4029.00291485,4022.49291205,0.0
1.16986281011,1.03786449162,1.04036480229e-05,1735354.42427,2.10078213422e-05,0.0,5420123.87231,685.636032946,655.211650047,65782982.562,1845.48158903,50621555.8953,67038485.0025,4856.10052477,4845.27379376,0.0
1.12223235117,0.871523407179,9.64007565144e-06,-14628380.8556,1.98839969938e-05,0.0,5624957.14934,683.26205329,652.137953047,66437844.1839,1787.38027531,41632960.5971,68933792.3418,4658.38648971,4648.54275113,0.0
1.04847778376,0.828595503041,9.95380548279e-06,-46014779.0078,1.57411299359e-05,0.0,5813829.49721,678.865957264,647.399650705,66943794.0437,1690.71708367,36009018.2499,70464618.7056,4352.23128039,4343.52854563,0.0
1.06091104434,1.02155547798,9.91814534347e-06,-38861927.793,1.40797725949e-05,0.0,5827004.27472,679.405383207,648.201943633,67002416.4323,1708.57287349,34754233.1106,69946029.2925,4403.84174506,4395.46520034,0.0
1.15406795226,1.11797183664,9.86377685876e-06,-5093990.63563,1.95458572811e-05,0.0,5575873.98585,684.918397146,654.234171688,66318661.6129,1829.57107384,47330400.6987,68759408.8246,4790.53606983,4780.97934996,0.0
1.09676868656,1.2479378924,9.93017773992e-06,-24118743.7964,1.38864005077e-05,0.0,5753667.50254,681.427501321,650.576938617,66825441.4214,1755.93495289,36830403.1447,69156385.9687,4552.68681791,4543.94214203,0.0
1.03507211464,0.715114313261,1.01050519423e-05,-55547299.3624,1.63235073336e-05,0.0,5829478.0289,678.244836559,646.556289165,66977668.1594,1673.09341996,40136536.1549,70919128.9702,4296.58434787,4288.04118381,0.0
1.19080785875,0.868699495457,1.03126575443e-05,6482601.7846,2.58175945925e-05,0.0,7942100.74858,687.192932036,656.536535593,65375688.4186,1870.44797149,53273081.2975,66447027.6509,4943.04342167,4931.50977528,0.0
1.05800138514,1.24568118705,1.01335429501e-05,-39910415.3688,1.22039531684e-05,0.0,5851604.10725,678.986997673,648.020733956,67087296.2181,1705.37138938,34964948.7293,69798131.0531,4391.76374972,4383.83353687,0.0
1.04017584725,0.796228933117,9.876028621e-06,-52057366.0906,1.57622137421e-05,0.0,5827101.00106,678.616797722,646.876768299,66976149.9755,1679.52430619,38370631.9179,70929247.6825,4317.76994193,4309.05798726,0.0
1.12116945193,1.03407409356,9.7086751167e-06,-15077729.6957,1.77886983872e-05,0.0,5668410.61722,683.024099435,652.079841159,66584051.0392,1786.96119935,41344778.899,69229035.1257,4653.97439496,4644.64934127,0.0
1.12103624381,0.950638525625,1.03229338353e-05,-13823543.5513,1.9403425654e-05,0.0,5605430.32202,682.716015599,652.069701436,66362384.6656,1785.79813063,41997950.4669,68067856.2003,4653.42144806,4643.69722944,0.0
1.19801244936,0.990966744335,1.01883691352e-05,7892726.71202,2.37011382877e-05,0.0,9325897.15394,687.568626873,656.990289124,65465502.7303,1879.79550941,54476578.1,66589551.8935,4972.94967729,4961.60017702,0.0
1.17953336261,0.631404832006,9.87778405924e-06,3193306.91072,3.00232350058e-05,0.0,5413338.80887,686.912292305,655.80745892,65569828.0489,1858.35365943,51643950.1183,66819851.662,4896.24298819,4885.1239831,0.0
1.02462387472,0.958037090375,1.01098465104e-05,-66439698.413,1.41328369887e-05,0.0,5861265.85445,677.821465677,645.887957215,67059038.0089,1658.83924596,46899810.9011,70948443.215,4253.21370396,4244.83935519,0.0
1.11104226591,1.15337996716,9.9021097873e-06,-17430966.8969,1.55658324183e-05,0.0,5654275.49672,682.330720391,651.46627676,66515406.5208,1771.71814904,40124829.8409,69102414.0908,4611.93644579,4601.99089994,0.0
1.14612255686,1.02056532527,1.02478187878e-05,-7686998.39268,2.10568995617e-05,0.0,5580349.55897,684.213883173,653.68882715,66337655.7913,1819.95250418,45541384.3434,68502504.7323,4757.55473353,4748.21601603,0.0
1.08638880857,1.05043399766,1.00581784659e-05,-27159024.9795,1.53764884171e-05,0.0,5764752.44858,680.842753111,649.935307353,66845466.5162,1742.52183917,35970670.057,69303984.4095,4509.59994437,4501.01779845,0.0
1.04425392256,0.884918383963,1.00942683021e-05,-49061251.8135,1.51941026654e-05,0.0,5820513.45528,678.591713033,647.142219477,66964593.0339,1685.3644305,37126496.6251,71020929.0414,4334.69803255,4326.0954666,0.0
1.13532529772,1.08434578734,9.99352152958e-06,-9853194.21258,1.8441077297e-05,0.0,5603627.55364,683.73094368,653.030994994,66390863.9623,1804.5049864,44662852.5379,67914041.3781,4712.73531084,4703.07808038,0.0
1.15279359849,0.996912663646,9.81975429422e-06,-5496662.14504,2.14216668357e-05,0.0,5569216.20766,684.939419842,654.156513851,66314597.8317,1828.06240891,47156965.0906,68795983.1264,4785.24622733,4775.69581463,0.0
0.973437848851,0.884714909313,9.312827814e-06,-94593786.1801,1.48818046805e-05,0.0,6003109.84463,684.217426929,642.63081936,67378438.6478,1617.53544041,69554555.7407,69790103.2426,4040.74051058,4033.09323974,0.0
1.11290484921,1.03086793046,1.04628206156e-05,-15903610.9163,1.76774036613e-05,0.0,5641769.55671,682.043540071,651.535009041,66470680.6759,1775.53032862,40640160.9491,69263974.8428,4619.66802907,4610.17947196,0.0
1.28934595817,0.991544076742,1.03824649408e-05,26780529.7161,3.35035519751e-05,0.0,28214876.713,693.251088703,662.634885932,63947668.7208,1982.05936458,68125513.8282,69235539.5547,5352.07507236,5338.65884425,0.0
1.08893123313,0.99966268472,9.80497910866e-06,-27053305.2145,1.60565833945e-05,0.0,5764693.46455,681.192062969,650.09924983,66845296.2402,1745.90027921,36072188.2506,69377061.7559,4520.15354872,4511.53170846,0.0
0.955429945694,0.77040826652,1.01870039106e-05,-93575491.3578,1.52308615265e-05,0.0,6045636.25972,684.974251066,641.47579789,67507392.1561,1610.70838876,68658140.8362,68879826.0068,3965.98970458,3959.396579,0.0
1.13279539424,0.956322565584,1.029886811e-05,-10904703.3569,2.04375083915e-05,0.0,5567634.52381,683.393894016,652.776452164,66264871.861,1800.83940133,43629201.962,67639945.5682,4702.23368149,4692.30994018,0.0
1.02800936131,1.06826286066,9.92563617119e-06,-63284658.2603,1.29795444579e-05,0.0,5924454.76855,677.943875038,646.114466914,67266103.9289,1666.10085395,44818785.4383,70953016.3711,4267.2668588,4260.00596608,0.0
1.04138550623,1.01469778666,9.88074168449e-06,-51476358.8438,1.37185521335e-05,0.0,5837915.91471,678.571262681,646.950201861,67012399.9765,1680.96912539,38231836.7825,70892890.0823,4322.79123636,4314.05945054,0.0
1.13666916387,1.08222927609,1.00099033026e-05,-9425339.85719,1.86480234518e-05,0.0,5599052.6913,683.701141746,653.03473323,66376665.627,1806.16698919,44914928.7556,68026281.0895,4718.31369922,4708.60843952,0.0
1.1791091679,0.999222565055,1.0194922207e-05,3399208.5006,2.21770949374e-05,0.0,5455553.32419,686.364914138,655.769887874,65681955.908,1856.83753534,51610281.5394,66937653.5383,4894.48215595,4883.37076477,0.0
1.10452005966,1.04216822446,9.96667893926e-06,-21338270.1415,1.67378398576e-05,0.0,5719247.59853,681.981508557,651.111591427,66717529.242,1766.35173472,37855793.0662,68687388.2807,4584.86276765,4575.99579459,0.0
1.16303626302,0.864376418428,1.00852117728e-05,-4142922.10817,2.50259514755e-05,0.0,5406218.2487,685.731510429,654.802278296,65776017.5058,1838.05170548,47224130.2693,67713361.1504,4827.7635278,4816.75028466,0.0
1.09266580687,1.14246418428,9.99975200924e-06,-25258681.7734,1.47044767054e-05,0.0,5756247.64416,681.150770134,650.287212878,66827988.8862,1750.65683954,36438426.6743,69219687.4818,4535.65576432,4526.97548108,0.0
1.12938793347,1.00112018695,9.79501159379e-06,-12424073.7907,1.90389518493e-05,0.0,5626174.90806,683.537686105,652.632120661,66446428.2513,1797.32418042,42844073.9775,67756038.5967,4688.08931183,4678.52795967,0.0
1.03321019306,0.724805650832,1.02853658494e-05,-57275023.0235,1.64013631839e-05,0.0,5822451.15872,678.015676713,646.429871071,66956258.7961,1670.44615313,41050208.8823,70825284.4024,4288.85551139,4280.34279575,0.0
1.04564856386,1.04367937495,1.01782380134e-05,-47823843.3077,1.36885034066e-05,0.0,5822147.83584,678.518350987,647.224938139,66970748.4338,1686.91738431,36755830.227,70451354.0424,4340.48718858,4331.7734568,0.0
1.10131818618,0.946318484247,9.8768604421e-06,-22501833.6484,1.76338938564e-05,0.0,5725412.28021,681.900835996,650.909663532,66743382.9711,1762.26572325,37381914.1246,68753211.3381,4571.57179083,4562.7553733,0.0
0.896274790916,1.22380937805,1.02621105754e-05,-90947175.0961,1.08654999475e-05,0.0,6166168.93815,692.076369012,637.654671252,67780531.8271,1590.75471519,66344793.2652,67780531.8271,3720.43665709,3714.11572403,0.0
1.085206311,0.857412670793,1.01252165837e-05,-27309542.8878,1.76279836569e-05,0.0,5751689.90492,680.811988992,649.860853909,66804843.3994,1741.12467988,35903058.7865,69241499.8718,4504.69139696,4496.12768756,0.0
1.01445048024,0.803303889377,1.00905204905e-05,-77659333.2675,1.49736892752e-05,0.0,5932050.43155,677.636944575,645.261449073,67241232.8522,1647.65084332,55306608.9062,70842245.2615,4210.98394348,4203.78239998,0.0
0.981275094415,1.11155096895,1.01170604043e-05,-94866940.5405,1.25234008997e-05,0.0,6006734.03428,680.819725467,643.140194297,67423722.4613,1613.70192459,69795026.98,70033423.6031,4073.27291692,4066.28348411,0.0
1.10629956577,0.668318228,1.01798683268e-05,-18349995.6482,2.25216409154e-05,0.0,5591969.80986,682.175753739,651.166097931,66315348.1535,1765.41838088,39417853.1565,68709331.5641,4592.24949751,4582.19740675,0.0
1.11396195849,0.932225932919,9.99218678941e-06,-16422576.9713,1.88006740965e-05,0.0,5671282.137,682.467275911,651.638092182,66571082.8016,1777.73517893,40580078.6251,69269095.4612,4624.05608969,4614.84804911,0.0
1.18494206123,1.03295796428,9.67626167203e-06,4314511.61216,2.13519457537e-05,0.0,6130442.6411,686.971227635,656.150516685,65820796.5502,1865.02619201,52519695.0887,67122733.7805,4918.69449617,4907.79407278,0.0
1.12928313467,0.702702204431,1.04841897591e-05,-9613633.23801,2.30433995686e-05,0.0,5562177.21829,683.109309779,652.551411587,66229195.4845,1796.34265911,44486743.6058,67698820.8864,4687.65429202,4677.85947602,0.0
0.978679868716,1.02961498522,1.00496946159e-05,-94689520.4874,1.33613102378e-05,0.0,5962634.28081,681.326610076,642.961105153,67270193.2448,1610.56732245,69638956.621,69876710.209,4062.50013504,4054.61404067,0.0
1.13169827995,0.917522686835,1.0377052316e-05,-11021505.2413,2.09629737057e-05,0.0,5564352.53142,683.293322846,652.705487803,66254792.2404,1799.45818146,43544710.0172,67579658.7908,4697.67956007,4687.77523242,0.0
1.14110067292,1.03920798565,9.877830161e-06,-8568717.13871,1.95049334915e-05,0.0,5591043.66694,684.141968515,653.371889223,66363153.9477,1812.23914892,45484608.6533,68270343.2454,4736.70889329,4727.03514353,0.0
1.16655131714,1.03733317002,9.94039900189e-06,91665.1212919,2.03176686996e-05,0.0,5440659.98945,685.745617905,655.017971883,65877370.0775,1841.19060235,50044765.2038,67723582.7467,4842.35451745,4831.36565189,0.0
1.15415948656,1.16559564439,9.92978917613e-06,-6038669.35719,1.85675836854e-05,0.0,5489056.85246,684.848840252,654.118996965,66044872.2728,1826.16079829,46344572.9851,68322645.3952,4790.91602871,4780.00479549,0.0
1.14902978323,0.870401901453,9.83488354175e-06,-7368401.33895,2.27918751365e-05,0.0,5519795.93387,684.81936491,653.866770031,66130320.3113,1821.73988766,45847278.9965,68598562.5031,4769.62263019,4759.39595316,0.0
1.1227255629,0.940342562703,9.98118205432e-06,-14036720.2052,1.9540882945e-05,0.0,5643377.55176,683.000585308,652.182535716,66499411.3262,1789.05108323,41867753.0978,68613598.4413,4660.4338116,4651.08349283,0.0
1.11114608816,0.682632867058,1.00234644485e-05,-17099384.2071,2.2360280677e-05,0.0,5655220.44617,682.447463286,651.484745291,66517756.104,1774.35497977,40197539.918,69029694.6181,4612.36741195,4603.20397842,0.0
1.01525261157,1.01056281797,1.00041894089e-05,-74951182.2979,1.33667060529e-05,0.0,5897067.65595,677.769066427,645.296406169,67138080.5093,1646.61003714,53198617.3477,70780161.0255,4214.31359063,4206.17342824,0.0
1.05799876009,0.786784742474,1.01169826762e-05,-39384351.8594,1.64632050635e-05,0.0,5812040.49615,679.186251075,648.010162188,66954719.4497,1704.89345975,34770966.8716,69720831.3701,4391.75285313,4383.42164794,0.0
1.15407562697,1.0005656742,1.00771002567e-05,-5589491.32305,2.09851268762e-05,0.0,5509906.39184,684.801548782,654.125012872,66108068.9267,1827.91306442,46725614.7353,67897396.8282,4790.56792755,4780.27323734,0.0
1.09497999896,0.775206671979,9.89029095587e-06,-24697026.2374,1.93815809181e-05,0.0,5727311.95262,681.533417005,650.441599311,66740315.7377,1753.99786134,36608534.9883,69118017.3875,4545.26197568,4536.54539627,0.0
1.08340968329,0.849619022056,9.66642570516e-06,-29424370.7768,1.72506300971e-05,0.0,5775312.96341,681.034709181,649.745339378,66878671.3167,1738.78122781,35719101.3941,69386899.2389,4497.23359534,4488.69786635,0.0
0.996954044617,0.972638538723,1.01302285091e-05,-95413153.1653,1.4023734084e-05,0.0,5910115.66935,678.618713521,644.128741366,67143928.9887,1621.0300223,70276212.6767,70642542.5538,4138.35623921,4130.17805631,0.0
1.0720160124,0.992795736219,9.55254337342e-06,-34584455.274,1.4850924447e-05,0.0,5822883.63745,680.272035557,648.920804197,67002254.7605,1723.74053049,34798736.8379,70192621.5908,4449.93846747,4441.57930581,0.0
1.18013528377,1.20285636829,9.75904930721e-06,2849856.5811,1.84637500168e-05,0.0,5424928.01463,686.565030279,655.851255466,65830639.9301,1858.26974335,51574490.3466,66860592.5218,4898.74156293,4887.62498053,0.0
1.0683016921,0.935944594459,9.902334206e-06,-35488848.9858,1.53734499757e-05,0.0,5804030.17636,679.851183307,648.680303907,66945047.7545,1718.38853725,34700743.5077,70095243.7878,4434.52032391,4426.02826722,0.0
1.16212757279,0.881000980019,1.01588467597e-05,-4254911.68977,2.46624908267e-05,0.0,5409154.50937,685.611837093,654.744328122,65786394.7982,1836.86346678,47042391.7223,67689705.5557,4823.99155465,4813.00755737,0.0
1.11130734389,0.673726264734,9.91011306713e-06,-17154235.64,2.23972983169e-05,0.0,5606057.65453,682.622327838,651.478871379,66367373.229,1772.61961941,40202435.6119,68981176.2998,4613.03678449,4603.08666201,0.0
1.12127734714,0.741303597356,1.04370938021e-05,-13684264.8188,2.2703424307e-05,0.0,5583772.27857,682.774031825,652.087640056,66304826.45,1786.54484621,41978623.7168,67770124.5627,4654.42226798,4644.79279592,0.0
1.1688248311,1.23008517112,1.00426598978e-05,-1532654.11382,1.94265409839e-05,0.0,5415021.10649,685.841285796,655.154183346,65818426.7569,1843.94193144,48740698.7202,67666143.582,4851.7918739,4840.46876217,0.0
1.08177085672,1.08234991569,9.90641461713e-06,-29276603.4433,1.45922618468e-05,0.0,5785741.80639,680.678693781,649.643763592,66900462.0238,1736.45750987,35667989.2344,69372030.3734,4490.43082624,4481.92058735,0.0
1.13335183919,0.825411378518,1.02778443123e-05,-11214409.4996,2.30960008991e-05,0.0,5606280.2737,683.547592216,652.911315812,66398432.0795,1803.91411964,43548595.1047,67691236.1435,4704.54348448,4695.43460551,0.0
1.09036661698,0.936797387123,1.00144482362e-05,-25912915.7072,1.70053979317e-05,0.0,5747443.80649,681.116639127,650.157237678,66797526.0979,1747.818692,36252827.1893,69247372.6028,4526.11182708,4517.46754337,0.0
1.1395446638,0.779992381939,1.02471544957e-05,-7817535.8656,2.24107960795e-05,0.0,5505135.70656,683.974748704,653.233262814,66070740.2429,1808.22314475,45694342.9637,68251433.5609,4730.24989943,4719.77689491,0.0
1.20530029621,0.920846223046,9.97096184855e-06,9706394.70079,2.55307621953e-05,0.0,11060709.6269,688.176752282,657.388663654,65266230.2654,1887.59687478,55777697.9581,66862356.4324,5003.20152957,4991.29869202,0.0
1.067326297,0.766899682917,1.0366295758e-05,-34503472.909,1.75434029499e-05,0.0,5781327.36515,679.5124143,648.611398844,66875912.5264,1717.54782904,34686840.4946,69719199.1713,4430.47145885,4422.08862857,0.0
1.1132228351,0.920443428219,1.00977610618e-05,-16429392.778,1.88550675894e-05,0.0,5622879.10101,682.406793454,651.570594237,66416990.3056,1774.94229557,40544873.3045,69222402.0166,4620.9879885,4611.10241836,0.0
1.09285024871,1.16873851611,1.0088947755e-05,-24907765.1072,1.4491069249e-05,0.0,5753762.17756,681.08745159,650.29802903,66821894.7888,1750.88378872,36528799.1552,69144651.0415,4536.4213824,4527.73745518,0.0
1.13132904808,1.09986301175,1.03124036054e-05,-11269040.8395,1.81689185628e-05,0.0,5586203.08316,683.213446436,652.683553928,66320631.7905,1798.80264156,43464856.8207,67581945.2131,4696.14687858,4686.24881013,0.0
1.21356068611,0.845977989816,1.01247372773e-05,12052275.4617,2.79866309328e-05,0.0,13304576.0673,688.617032745,657.942758765,65277269.5811,1898.87894099,57603524.8592,66335204.4877,5037.49040804,5026.07020441,0.0
1.11075456997,0.863455609161,1.00715926181e-05,-17167266.64,1.93297686094e-05,0.0,5627353.77585,682.335914981,651.441886264,66426376.7922,1771.81325516,40090101.4785,69020390.963,4610.74221995,4600.89805857,0.0
1.09800887804,1.11260057063,1.01835749294e-05,-22924545.7126,1.55759534057e-05,0.0,5731387.17879,681.414463674,650.694076496,66748916.1941,1757.64227871,37154542.8695,68781613.6236,4557.83485274,4549.06991525,0.0
0.988279976926,1.05098532013,1.01393099497e-05,-95071942.8679,1.32048348512e-05,0.0,5937159.24168,679.656432609,643.576477381,67210135.8782,1611.495266,69975722.6759,70217949.1929,4102.35018422,4094.31118227,0.0
1.05245576505,1.12878474151,1.00359104631e-05,-43704409.9658,1.30323961641e-05,0.0,5820025.43581,678.869949016,647.64756417,66972549.9501,1695.80198196,35507592.7093,70488687.3335,4368.74388072,4359.97636295,0.0
1.10195389788,0.84856940072,1.03444668976e-05,-19192704.1942,1.89260461917e-05,0.0,5642811.76226,681.672158313,650.915612495,66460354.4468,1760.43840241,39048129.084,68565835.9533,4574.2106301,4564.51821047,0.0
1.04847778376,0.828595503041,9.95380548279e-06,-46015447.4796,1.57411236856e-05,0.0,5813816.23868,678.865958114,647.399640514,66943782.8636,1690.71729681,36013077.482,70465037.0456,4352.23128039,4343.52854563,0.0
1.17953336261,0.631404832006,9.87778405924e-06,3194576.63758,3.00231187493e-05,0.0,5413511.56522,686.912284549,655.807458547,65569834.9167,1858.35366642,51642670.0114,66819831.5616,4896.24298819,4885.1239831,0.0
1.08893123313,0.99966268472,9.80497910866e-06,-27054329.4551,1.60565903612e-05,0.0,5764762.15677,681.19202516,650.099247234,66845253.1398,1745.9002479,36073326.1379,69376407.2921,4520.15354872,4511.53170846,0.0
1.03321019306,0.724805650832,1.02853658494e-05,-57274689.7963,1.64013630198e-05,0.0,5822451.098,678.0156747,646.429870934,66956256.7026,1670.44616009,41049891.6071,70825249.1412,4288.85551139,4280.34279575,0.0
0.978679868716,1.02961498522,1.00496946159e-05,-94689520.3475,1.33613102515e-05,0.0,5962634.74819,681.326610397,642.961105225,67270193.2,1610.5673223,69638956.5131,69876710.3336,4062.50013504,4054.61404067,0.0
1.09497999896,0.775206671979,9.89029095587e-06,-24697023.8996,1.9381580885e-05,0.0,5727301.30472,681.533387349,650.441598502,66740318.7976,1753.99786796,36608561.9238,69118060.9203,4545.26197568,4536.54539627,0.0
1.13335183919,0.825411378518,1.02778443123e-05,-10761763.9137,2.24497392512e-05,0.0,5554477.74214,683.511889089,652.811643897,66224781.6254,1801.70343342,43769810.3782,67635414.0918,4704.54348448,4694.61029972,0.0
1.06781996025,1.12180880571,1.00184303298e-05,-34504219.4279,1.349339859e-05,0.0,5812823.43176,679.651709214,648.650316824,66962343.853,1717.42646526,34776396.1095,70028237.5833,4432.520655,4424.03644104,0.0
1.06781996025,1.12180880571,1.00184303298e-05,-34504273.5004,1.34933990903e-05,0.0,5812768.56827,679.651675552,648.650316391,66962353.4158,1717.426599,34776390.9362,70028283.0921,4432.520655,4424.03644104,0.0
1.05601489012,0.959744641879,9.66815737701e-06,-44663977.7419,1.47721887788e-05,0.0,5807024.73311,679.455606707,647.878952849,66934295.8607,1700.40118911,35739346.1147,70454733.2731,4383.51780889,4374.54336284,0.0
1.00150823693,0.87685298208,9.80342544761e-06,-95930325.6225,1.45844092959e-05,0.0,5909571.04041,678.617373896,644.424207862,67141858.4716,1627.10787196,70730467.6735,70814902.6809,4157.2606915,4149.00863986,0.0
1.16454983031,0.697993571951,1.03798454458e-05,533133.650407,2.70614481856e-05,0.0,5389575.89833,685.597395336,654.889458962,65692407.4712,1839.25556483,49889981.7534,67250616.6733,4834.04634562,4823.20982876,0.0
1.12667708994,1.10752633074,9.99029725061e-06,-13293029.7682,1.78732291859e-05,0.0,5664099.96801,683.148456868,652.464603251,66578953.9694,1795.02493884,42474209.2229,68286776.9308,4676.83660034,4667.83482452,0.0
1.08995488301,1.05223987618,1.02011056186e-05,-25506278.6866,1.57094753538e-05,0.0,5748942.98464,680.898443891,650.118596135,66804703.7151,1747.17026367,36310709.6409,69152640.5457,4524.40271937,4515.76487592,0.0
1.26007098157,0.841410637528,1.03108564152e-05,21805288.4831,3.43546211162e-05,0.0,23808684.6026,691.577973839,660.853899641,64492282.953,1951.45633761,65445656.0284,66345415.2948,5230.5546445,5218.08187106,0.0
1.08701827134,0.948763420706,9.94463092519e-06,-27274158.9027,1.65629730406e-05,0.0,5760543.1068,681.006716168,649.978043117,66832031.8814,1743.43777274,35985014.1642,69325273.7905,4512.21284433,4503.62087773,0.0
1.01195011102,1.12029874505,1.00674999171e-05,-83179526.9219,1.25185586207e-05,0.0,5884069.04076,677.715045421,645.086844915,67084061.613,1640.74019854,59804344.4024,70671383.46,4200.60491084,4192.1014037,0.0
0.972524313949,0.883958284856,9.96247632191e-06,-94364933.5802,1.48376745337e-05,0.0,5985259.94185,682.875482415,642.56893376,67335148.6718,1613.2723711,69353161.6632,69585259.8473,4036.9484272,4029.47288277,0.0
0.998065915781,0.876157861356,1.03502744079e-05,-95428220.3337,1.46577908883e-05,0.0,5893802.96424,678.082588449,644.198101526,67098638.0293,1622.64351849,70289609.7771,70527484.8781,4142.97161641,4134.77572556,0.0
1.00150823693,0.87685298208,9.80342544761e-06,-95930324.9659,1.45844092193e-05,0.0,5909571.14711,678.617373736,644.424207997,67141858.3845,1627.10787288,70730467.3082,70814903.4207,4157.2606915,4149.00863986,0.0
1.07868214416,1.1027099227,9.93776979718e-06,-30400034.6109,1.41927002103e-05,0.0,5797879.47847,680.270209912,649.300891587,66945540.6655,1732.38949907,35460283.467,69380207.9466,4477.60958041,4469.14729788,0.0
1.10166117783,0.945874470903,9.83246021614e-06,-22513958.7334,1.7634473199e-05,0.0,5726304.22722,681.95438079,650.932747183,66745958.9839,1762.71937451,37399982.7522,68769054.2032,4572.99554917,4564.17372166,0.0
1.14313909032,1.04792033391,9.58739056925e-06,-8345279.03688,1.9155997891e-05,0.0,5586549.26518,684.453798526,653.500702098,66350175.3367,1814.34910496,45670901.8665,68359469.3935,4745.17036392,4735.26837142,0.0
1.01866955916,0.95896937071,9.7483444687e-06,-75835690.2097,1.37802922044e-05,0.0,5947451.44355,678.00144712,645.535706272,67310797.102,1653.55335924,53886112.0535,70900616.9939,4228.49734007,4221.32428414,0.0
1.0901387796,0.921010279527,9.47085271538e-06,-27234459.1192,1.65733301914e-05,0.0,5768014.92674,681.527212013,650.18054821,66856974.3298,1747.34744475,36134204.7905,69480090.4036,4525.16607412,4516.42763418,0.0
0.999110372938,0.685097782637,9.77450306231e-06,-95822751.0483,1.60017012154e-05,0.0,5977348.58316,678.859707949,644.291479131,67356521.8256,1627.19115175,70636843.3942,70889210.7302,4147.30715807,4140.40961091,0.0
1.12645369554,1.07137272586,1.02689740119e-05,-13020532.5939,1.86343633877e-05,0.0,5649875.06282,682.989938945,652.451129471,66521956.1766,1794.85313699,42474231.5634,67930110.7868,4675.90929019,4666.91011612,0.0
1.08394827962,0.785349021919,1.00819671827e-05,-27871902.524,1.84543034927e-05,0.0,5751981.32183,680.807048828,649.785651649,66802615.2892,1739.53853758,35790013.0391,69243269.8123,4499.4693087,4490.92519563,0.0
1.21159490436,1.30757185456,1.02868203276e-05,11315281.236,1.97633424191e-05,0.0,12588739.0974,688.103416623,657.80684535,65391826.314,1895.241344,57127412.1032,66406386.8185,5029.330448,5017.74859162,0.0
1.10681538824,1.03550530878,1.01909751062e-05,-18352485.3302,1.71076058652e-05,0.0,5628218.78173,681.964841696,651.197707085,66428791.81,1765.62316223,39448819.3322,68840941.4128,4594.39067658,4584.32957164,0.0
1.1550328385,0.986153904898,1.00341091283e-05,-5757866.35453,2.21959397908e-05,0.0,5556368.02621,684.970596939,654.29441186,66270024.1836,1831.38183965,46753835.5404,68590795.7732,4794.54131261,4785.05956649,0.0
1.16454983031,0.697993571951,1.03798454458e-05,581921.441658,2.73631975237e-05,0.0,5423045.13508,685.539734898,654.89730489,65802155.8701,1840.26083099,50015304.559,67397489.7294,4834.04634562,4823.62757845,0.0
1.04977551252,0.673900955097,9.8209001177e-06,-45850159.9016,1.71257892814e-05,0.0,5825799.082,679.092956101,647.491922619,66985170.8961,1693.65557214,36084060.3051,70399587.247,4357.61815247,4349.25326,0.0
1.17037482709,0.856475658467,1.01955106339e-05,1849840.13087,2.41158389777e-05,0.0,5397080.12628,685.924434037,655.242179873,65719933.8146,1846.13651553,50761560.5906,67000148.2472,4858.22590725,4847.267179,0.0
1.13326073734,0.822349020857,9.96670572953e-06,-10714990.9706,2.2614570461e-05,0.0,5614454.16816,683.729433126,652.909537055,66430441.3804,1803.33279372,44028261.9206,67731873.4845,4704.1653207,4694.95588023,0.0
1.12088075132,1.01460303072,1.00438008682e-05,-14211283.3821,1.82568736008e-05,0.0,5626998.21425,682.825348545,652.050349413,66440629.5864,1785.41281027,41833242.6603,68541496.1146,4652.77599873,4643.05482023,0.0
1.11007499606,1.07721465222,9.75148231816e-06,-18025388.4735,1.61649514217e-05,0.0,5665568.92592,682.41724184,651.42179092,66549364.4759,1770.90443364,39719593.3863,69025226.9782,4607.92130865,4598.08955795,0.0
1.0888880797,0.744218706181,9.63251921613e-06,-27130883.1844,1.89955133178e-05,0.0,5750619.21574,681.430439685,650.099238886,66804607.2396,1745.86848385,36061650.3314,69381031.4135,4519.97441883,4511.25571342,0.0
0.973749900107,1.03637659316,9.48856506962e-06,-94597602.4773,1.3542494616e-05,0.0,6030137.78673,683.788602987,642.656590987,67469950.8694,1618.28819065,69557852.8493,69792296.6559,4042.03583534,4034.85999722,0.0
1.13075425449,1.00931972401,9.96471592403e-06,-11751264.4527,1.91377529103e-05,0.0,5595366.93486,683.435340152,652.642432994,66358523.6018,1798.10160582,43375951.3996,67473171.3633,4693.76091039,4683.87299591,0.0
1.18653734548,0.571811263109,1.00904941893e-05,5502854.88199,3.34144474858e-05,0.0,7096389.62667,687.220690235,656.244925813,65518879.3828,1867.74423865,52942458.6089,66749925.8356,4925.31652109,4914.51675837,0.0
0.97847778189,0.979857540293,9.56171024591e-06,-94763073.0739,1.41062771528e-05,0.0,6012416.40084,682.947538027,642.960077414,67423919.3827,1618.66929459,69703562.4773,69940405.4466,4061.66127263,4054.41556884,0.0
1.12667708994,1.10752633074,9.99029725061e-06,-13292927.2666,1.78732292068e-05,0.0,5664099.0117,683.148445551,652.464604111,66578945.1818,1795.02499328,42474279.6417,68286800.116,4676.83660034,4667.83482452,0.0
1.13733153289,0.826733796583,1.00500022364e-05,-10511868.1278,2.31600895439e-05,0.0,5606009.08409,683.936442669,653.168606549,66399760.5219,1809.16183761,44029840.3808,67891711.2715,4721.06319303,4711.89114726,0.0
1.02504726559,0.880482564165,1.04394704871e-05,-65212143.3504,1.47960798763e-05,0.0,5822506.04376,677.528493373,645.889042253,66946672.2382,1658.26295037,46038177.0783,70446319.7642,4254.97119946,4246.16766966,0.0
1.08839924555,0.904461222851,1.01797212457e-05,-26051891.677,1.73405366907e-05,0.0,5743608.71282,680.91085293,650.039717917,66785507.7876,1745.26286618,36154729.6243,69181992.3443,4517.94526828,4509.33174003,0.0
1.06714031653,1.0257339668,1.0103477861e-05,-35253099.2438,1.44254500228e-05,0.0,5804894.94008,679.603708109,648.605865388,66938474.3702,1716.79870284,34686733.023,70006611.4827,4429.69945392,4421.22559175,0.0
1.19132438004,0.977522749874,9.81758216018e-06,6073277.98065,2.29542047957e-05,0.0,7618847.18313,687.340993984,656.55416305,65662643.3313,1872.35335266,53442286.9001,66876936.0155,4945.18750155,4934.06169386,0.0
1.08856205232,0.711120785593,9.93036632311e-06,-26721964.9163,1.98348630792e-05,0.0,5739426.72937,681.206746324,650.071549087,66769229.858,1745.66495314,36086807.653,69261034.879,4518.62107918,4510.00500752,0.0
1.05240419664,0.927237349961,9.80009310649e-06,-42759202.5259,1.44705972733e-05,0.0,5839740.83066,679.096880946,647.661062018,67023796.0415,1696.80438777,35315165.6216,70686219.9208,4368.52982025,4360.10294614,0.0
1.14081767094,0.976485685136,9.52844623878e-06,-9856555.82033,2.02997407733e-05,0.0,5533565.9604,684.524575953,653.3613743,66176086.7013,1809.71208382,44526911.9316,67939373.4858,4735.53415207,4724.85903263,0.0
0.996566235043,0.76063107368,9.91098380136e-06,-95663770.6525,1.51415659532e-05,0.0,5962530.17457,678.769289442,644.120542612,67293093.9034,1622.57794859,70496707.4889,70813058.1968,4136.74644166,4129.45864505,0.0
1.10989729178,1.02222801991,1.00571931708e-05,-17510986.3302,1.72274395194e-05,0.0,5644728.02583,682.222488003,651.395506436,66477891.7629,1770.55164876,39916551.577,69013240.9302,4607.18365818,4597.35417285,0.0
1.08995488301,1.05223987618,1.02011056186e-05,-25506606.835,1.57094739573e-05,0.0,5748944.24917,680.898403684,650.118577474,66804690.522,1747.17017825,36311098.1191,69152885.6851,4524.40271937,4515.76487592,0.0
1.06415206785,0.852847567394,9.99295379593e-06,-36296589.4026,1.58502131218e-05,0.0,5771920.5724,679.621636114,648.393406112,66828042.9137,1711.19626734,34569404.9045,70065080.277,4417.29523365,4408.15335041,0.0
1.08371403758,0.809084467642,9.89103618983e-06,-28568833.3966,1.79710131247e-05,0.0,5762305.40228,680.929750116,649.779699395,66831381.789,1739.21977571,35750754.1202,69306352.4411,4498.49696999,4489.95650368,0.0
1.02249578149,1.13815574454,9.59847838454e-06,-72768196.5782,1.2264419467e-05,0.0,5953388.16002,678.133637767,645.784470467,67336356.7846,1658.53127719,51537469.7271,71143331.6343,4244.37998896,4237.15250791,0.0
1.19454167375,0.958005969204,9.55769716887e-06,5929194.31963,2.34098592415e-05,0.0,7562572.40127,687.776850311,656.747423016,65526058.5414,1875.48409823,53406714.0832,66852305.4469,4958.54248774,4946.81214635,0.0
1.05092725412,0.966488666053,9.66081504915e-06,-45434066.8293,1.41760347453e-05,0.0,5832207.82383,679.152691879,647.561255835,66999067.7694,1693.94726513,36039277.6391,70681501.8641,4362.39903185,4353.65474822,0.0
1.01898626623,0.996888233896,9.84964695639e-06,-74468874.8235,1.34656760828e-05,0.0,5944410.04469,677.871440395,645.556161974,67304081.9688,1653.94894777,52825022.1635,70949709.8101,4229.81199112,4222.63443693,0.0
0.974668492207,1.00499834042,1.00098950283e-05,-94593772.1003,1.34848612664e-05,0.0,6021174.52171,682.122289963,642.716416729,67453338.9194,1613.47669746,69554407.4753,69788563.0135,4045.84891115,4038.95644674,0.0
1.11688536619,0.870936234442,9.78376004995e-06,-17717220.0104,1.97773808711e-05,0.0,5671817.02239,682.851784969,651.832873509,66583816.2307,1782.24025645,39893523.7374,69221537.9228,4636.19115505,4627.02559375,0.0
0.996455698841,1.08357022949,1.00482985375e-05,-95465057.5203,1.27526743968e-05,0.0,5920373.8868,678.667041831,644.09873248,67171240.4468,1620.10234814,70321875.6116,70704914.7478,4136.28760589,4128.0368118,0.0
1.10405822601,0.907091283285,1.01136842206e-05,-21251975.0725,1.86381739715e-05,0.0,5701050.7904,681.91301452,651.076367527,66665743.1074,1765.70293458,37846882.3784,68636606.5609,4582.94569617,4574.08549496,0.0
1.26007098157,0.841410637528,1.03108564152e-05,21829250.8928,3.43542734908e-05,0.0,23797225.6916,691.577551912,660.853492126,64492523.6511,1951.45441856,65477690.6609,66331899.5351,5230.5546445,5218.08187106,0.0
1.07536683527,0.976136580556,1.00741506372e-05,-30999275.4057,1.55131320868e-05,0.0,5781509.71948,680.030525982,649.076079659,66882757.4768,1727.45710851,35316864.6436,69414718.5824,4463.84773321,4455.24642126,0.0
1.08376127226,1.02447603806,9.73529867506e-06,-29120072.4486,1.53105619321e-05,0.0,5783596.30708,680.93711225,649.773477188,66905933.8052,1739.10831016,35764775.181,69407575.9003,4498.69304115,4490.15183952,0.0
1.1883893567,0.980201659234,9.57775048684e-06,4962260.73742,2.24391727692e-05,0.0,6655683.83607,687.27159739,656.362990769,65780729.7891,1869.43578343,52952978.8284,67104472.62,4933.00421966,4922.05662222,0.0
1.07246480107,1.09413460465,9.89804288392e-06,-32876349.5834,1.39369826235e-05,0.0,5804277.03144,679.9677146,648.911716025,66942991.1385,1723.54463243,35022705.3318,69792646.4255,4451.80138924,4443.2457493,0.0
1.07702090564,0.901883798213,9.6594439315e-06,-32053344.4939,1.61848753367e-05,0.0,5800243.83882,680.447559764,649.187935945,66944236.2005,1730.35619739,35129044.7292,69778560.1804,4470.71377931,4462.27724369,0.0
1.16859417431,0.874232331703,1.01857475358e-05,946159.030703,2.36736276545e-05,0.0,5432256.75803,685.802074129,655.155937777,65843173.3158,1844.98504377,50297807.2068,67446831.5902,4850.83441756,4840.2254328,0.0
1.09851438057,1.05179159585,1.02680898197e-05,-22554346.7584,1.64470066457e-05,0.0,5721575.97727,681.415508131,650.72557642,66721331.9154,1758.32861623,37268658.3477,68509954.9225,4559.93319375,4551.16106114,0.0
1.06072931404,0.895284542082,1.01742250462e-05,-37874623.8625,1.55050092431e-05,0.0,5809650.81571,679.24622997,648.186265729,66952976.0662,1708.46039962,34644908.4724,69931947.425,4403.08738258,4394.71367006,0.0
1.01132509254,1.10795320203,9.28771318845e-06,-89578340.938,1.24462887018e-05,0.0,5992154.9888,678.600242864,645.077299623,67410384.7465,1643.39901539,65236849.2997,71261487.6536,4198.01045913,4190.94138029,0.0
0.941091886579,0.86543064939,1.0023870703e-05,-93142701.243,1.41908748657e-05,0.0,6106974.60515,687.019566806,640.558243238,67671049.4886,1607.65910577,68276979.2882,68492097.7097,3906.47242119,3900.35924012,0.0
1.08701827134,0.948763420706,9.94463092519e-06,-27279847.593,1.65629562253e-05,0.0,5760571.17206,681.006765459,649.978051896,66832026.4709,1743.43770788,35983313.5399,69325267.4852,4512.21284433,4503.62087773,0.0
1.01569593094,0.888092509482,9.67241381357e-06,-80109256.3878,1.43363182778e-05,0.0,5954839.30493,678.055922838,645.337330983,67321008.6218,1649.53945282,57289227.2126,70873523.2617,4216.15380933,4209.02292975,0.0
1.11969758285,1.13279275014,9.75305004356e-06,-17055778.7098,1.65263507647e-05,0.0,5684219.63501,682.889163194,651.986846437,66625511.5651,1785.64959451,40319741.6878,69429176.2263,4647.86466641,4638.65379535,0.0
1.06594442253,0.988584266179,1.00930697502e-05,-35815389.0466,1.47809701481e-05,0.0,5805700.67251,679.560369502,648.527772726,66938568.0562,1715.26672755,34653578.5163,70071022.1681,4424.73529792,4416.28015438,0.0
1.07822362486,0.865710758431,9.89924469591e-06,-30655137.6112,1.68510531515e-05,0.0,5784991.3339,680.367446739,649.269875224,66904540.4918,1731.97151109,35380766.4459,69335559.1197,4475.70626679,4467.2510939,0.0
1.135438529,0.983668129667,9.64531569606e-06,-11184322.6847,1.96672342661e-05,0.0,5616838.6368,684.033741423,653.041004074,66428832.3906,1805.40497659,43658659.0162,67694422.902,4713.20533388,4703.62181628,0.0
1.18300485252,0.812923989867,1.03513767616e-05,5313809.10914,2.63188679384e-05,0.0,6866610.34176,686.613490408,656.012756049,65558843.5773,1861.89508996,52696437.3338,66806348.6818,4910.65314281,4899.68471379,0.0
1.10519712601,0.93082556406,1.02243059671e-05,-18637100.1495,1.81826737202e-05,0.0,5672806.98562,681.847526196,651.119935275,66571268.5039,1765.60249359,39418124.8371,68772617.3495,4587.67327007,4578.40994747,0.0
1.13594431617,1.07143537729,9.88801722012e-06,-9780395.02617,1.8638355306e-05,0.0,5603843.91391,683.846678938,653.069139475,66388771.9158,1805.3246346,44674709.4034,67926926.1055,4715.30485642,4705.61171201,0.0
1.0973210979,1.19203018907,9.74009627338e-06,-24064430.8471,1.42996189684e-05,0.0,5754070.16589,681.605163275,650.603891462,66816475.8412,1756.52340081,36873330.6366,69252167.9995,4554.97987738,4546.1277575,0.0
1.12411477843,1.1895820014,1.02163247087e-05,-13285629.7094,1.63511717471e-05,0.0,5620806.14646,682.861292216,652.272983139,66412231.3672,1789.53138985,42387047.4406,67687468.6702,4666.20044526,4656.42435729,0.0
1.01195011102,1.12029874505,1.00674999171e-05,-83179551.8406,1.25185587675e-05,0.0,5884067.87853,677.715046944,645.086844821,67084061.088,1640.7401931,59804367.3053,70671381.4791,4200.60491084,4192.1014037,0.0
1.03852417439,0.78907755397,9.77951509286e-06,-55690588.4256,1.58451653549e-05,0.0,5887556.34407,678.533818058,646.783634532,67166618.1488,1680.1307841,40298131.9738,71132555.6647,4310.91384789,4303.45791769,0.0
0.998309331598,1.09785081695,1.00874255078e-05,-95521892.5898,1.26159890214e-05,0.0,5915059.7346,678.395776759,644.21602133,67158662.5544,1622.57923414,70372041.5205,70785506.5292,4143.98203546,4135.70114603,0.0
1.09456544495,0.911484325252,1.04572459663e-05,-21407651.1761,1.77844763328e-05,0.0,5652993.71175,681.138545828,650.447487614,66491255.7671,1750.21197707,37949333.2907,68135242.0118,4543.54116199,4533.78653139,0.0
1.03668687502,1.1198016791,9.99273727076e-06,-55489226.584,1.27129642444e-05,0.0,5900774.36854,678.168221068,646.668482101,67207046.8667,1677.53515474,39981030.6658,71082413.2363,4303.28721821,4295.85635227,0.0
1.13886963737,1.12778094195,9.97605457955e-06,-8945628.73652,1.81523511427e-05,0.0,5594455.9396,683.920729813,653.241272656,66365923.0049,1808.93923954,45217847.6615,68177303.386,4727.44786472,4717.70768445,0.0
1.13687694378,1.03091235342,1.04250201136e-05,-10069826.7006,2.03396879433e-05,0.0,5604183.35532,683.553886704,653.117045178,66401688.8186,1808.16672752,44157628.1855,67966929.1217,4719.17619363,4710.0114709,0.0
1.1379357944,0.846095914793,9.7952851464e-06,-9554675.47941,2.2019711029e-05,0.0,5562287.9648,684.07382235,653.108707237,66262333.6103,1807.41602257,44833619.2142,67940968.9682,4723.57148255,4713.53639073,0.0
1.11641017308,1.23315185685,1.00956776874e-05,-15488842.7085,1.52604507966e-05,0.0,5633071.37926,682.433332979,651.752199701,66448960.4717,1778.51784389,41032916.1759,69190216.1459,4634.21862846,4624.18024288,0.0
1.07818373836,0.975905209024,9.81326041929e-06,-31024726.4321,1.55553684944e-05,0.0,5795676.60544,680.380046538,649.267339457,66935733.4739,1731.83526117,35315588.5108,69373923.0759,4475.54069793,4467.08614339,0.0
1.13877629245,0.960483185577,9.83771652932e-06,-8918583.50843,2.04659611025e-05,0.0,5558094.97996,684.140821659,653.238556083,66244569.1373,1807.96878281,45227525.564,68070613.8239,4727.06038996,4716.91181205,0.0
0.972524313949,0.883958284856,9.96247632191e-06,-94364933.2848,1.48376752972e-05,0.0,5985260.8063,682.8754842,642.568933833,67335148.8464,1613.27237793,69353161.3796,69585260.5088,4036.9484272,4029.47288277,0.0
1.17769121318,1.08195822415,1.00851962035e-05,1839874.1466,2.19015829577e-05,0.0,5450736.16212,686.311046616,655.713443056,65918075.6065,1857.72371194,50897925.0375,66999208.6677,4888.59622591,4878.29217874,0.0
1.13339756461,0.782869763966,1.02093779002e-05,-10866209.2342,2.30838305444e-05,0.0,5553101.10325,683.584836026,652.814971786,66219245.6666,1801.83771183,43711549.7987,67605646.1533,4704.7332907,4694.79932977,0.0
1.21037735482,0.917899894101,1.01672922875e-05,11046765.1233,2.62405795843e-05,0.0,12327687.6191,688.368214407,657.701692231,65199203.7397,1893.67727456,56770248.192,66307032.768,5024.27639986,5012.38751073,0.0
1.14209446401,1.05983002366,9.98313348196e-06,-7495227.00184,1.94469082577e-05,0.0,5535569.16274,684.116612786,653.380194443,66166531.5866,1811.30761529,46241989.0176,68506167.4735,4740.83412011,4730.46910551,0.0
1.09960378056,0.886262754749,1.01377795434e-05,-22523239.792,1.8489985202e-05,0.0,5711548.83434,681.647468609,650.797343819,66689971.366,1759.91013614,37289279.5886,68506391.1492,4564.4552931,4555.66600834,0.0
1.11525741469,0.913656423798,9.58420970456e-06,-16691693.2128,1.85806612377e-05,0.0,5655326.96597,682.888467334,651.734796316,66517883.5085,1778.40641788,40367657.6172,69272145.7146,4629.43352838,4619.70796917,0.0
1.09279420388,1.03750974293,9.99346241423e-06,-25198911.686,1.5977712715e-05,0.0,5748917.41883,681.20579632,650.29400196,66805314.7054,1750.90763316,36481700.187,69197766.1302,4536.18874031,4527.50644489,0.0
1.05982126348,0.905336874726,9.77728527672e-06,-42207270.192,1.55682652345e-05,0.0,5789282.33622,679.559953464,648.094627652,66888741.3582,1705.5450509,35133190.3412,69620434.7979,4399.31806471,4390.28040642,0.0
1.09494871232,0.956802555436,9.78633489475e-06,-24844012.3552,1.68916291579e-05,0.0,5748425.18693,681.511158223,650.432250637,66802449.4701,1753.94440584,36627417.9666,69271092.4534,4545.13210484,4536.41590626,0.0
1.10690847892,1.06336545512,9.37694811735e-06,-20430183.181,1.59785691097e-05,0.0,5666936.64885,682.550063153,651.244006207,66551090.6962,1766.05060604,38721018.331,68686400.1895,4594.777096,4584.61818767,0.0
0.998065915781,0.876157861356,1.03502744079e-05,-95428220.2149,1.46577903556e-05,0.0,5893803.73944,678.082588251,644.198101573,67098637.94,1622.64352166,70289608.947,70527491.4896,4142.97161641,4134.77572556,0.0
1.00602209685,1.10788202281,9.60281089062e-06,-93969068.9129,1.23527355206e-05,0.0,5930637.22196,678.531089124,644.716723856,67201824.8223,1633.23169469,69013774.3911,70971145.6436,4175.99772402,4167.80778473,0.0
1.01399374705,1.0361181186,9.90336774737e-06,-79998680.225,1.3013062823e-05,0.0,5957267.16745,677.749080217,645.224745339,67317247.549,1647.22887663,57194698.3521,70794337.4063,4209.088044,4201.98125949,0.0
1.21100725235,0.998336775321,1.02454953532e-05,11236524.7708,2.48141836532e-05,0.0,12485874.9963,688.301070522,657.753142904,65247793.702,1894.48467435,56924795.6375,66238876.599,5026.8911045,5015.09981706,0.0
0.973804670234,0.909217375181,1.05731766287e-05,-94342215.7879,1.39207333559e-05,0.0,5980204.95176,680.828241819,642.652340751,67336496.4353,1607.42439712,69333226.5978,69566696.5224,4042.26318614,4035.08669144,0.0
1.2417709784,0.840836019239,1.05382900385e-05,18629264.0438,3.23155723947e-05,0.0,20384750.6686,690.208823048,659.699733641,64794473.4993,1930.63867333,62997133.9552,65675100.8096,5154.59133134,5142.68296031,0.0
1.04353852498,0.793342387753,1.00134467846e-05,-49819289.3205,1.60636367538e-05,0.0,5819374.64317,678.640862032,647.077113798,66959216.1518,1684.45798314,37371087.5241,70950041.6989,4331.72841719,4323.1374155,0.0
0.976607817431,1.16211319635,9.81079800007e-06,-94881121.4316,1.22086487979e-05,0.0,6045283.33342,682.060487067,642.846223116,67525791.0455,1614.81668911,69807344.2765,70044238.2531,4053.89905016,4047.2299839,0.0
1.01556335787,0.695970227838,9.84677198147e-06,-78578938.0359,1.58789426776e-05,0.0,5939169.98727,677.935236569,645.341010973,67273893.3195,1649.53565527,56049350.3709,70922226.2121,4215.60349852,4208.47449681,0.0
1.01178447398,0.849949860961,1.02193224846e-05,-81134472.6832,1.46439353309e-05,0.0,5937756.00251,677.460883244,645.084939742,67260467.4167,1644.23355352,58105739.0705,70791854.4108,4199.91735149,4192.84206239,0.0
1.03786573903,0.966373315712,9.54681079361e-06,-56234042.7405,1.42247184139e-05,0.0,5844746.07229,678.747357791,646.733932958,67023485.124,1675.66792781,40494224.8792,71104086.1185,4308.18068271,4299.33384757,0.0
1.12268312172,0.988440432493,1.04707776411e-05,-13370885.5329,1.92118601259e-05,0.0,5600971.35369,682.701845955,652.180958609,66360130.0184,1788.05142406,42254406.933,67510339.631,4660.25763826,4650.60468584,0.0
1.10369677535,0.875300198957,1.02731722463e-05,-18811855.267,1.86550183325e-05,0.0,5642950.23366,681.803800472,651.021364283,66465848.8656,1762.66718558,39193845.0811,68668952.0233,4581.44531448,4571.72321599,0.0
0.993132769011,0.815168124371,1.02889191984e-05,-95195460.4968,1.50531555575e-05,0.0,5905939.72738,678.723951562,643.885304994,67126992.4117,1616.0398089,70084538.737,70332659.1423,4122.49412416,4114.37737535,0.0
1.06222993481,1.07482345851,9.94943053293e-06,-38129436.1095,1.36035026283e-05,0.0,5826132.95484,679.430788081,648.286210279,67002287.682,1710.29753731,34704409.3176,70041100.1255,4409.3164594,4400.91934856,0.0
1.26186550147,0.87177014688,9.83824171346e-06,22008694.1133,3.25746458668e-05,0.0,23902833.6853,691.829810402,660.977775985,64689132.6418,1954.99015409,65674331.0024,66515171.3907,5238.0036966,5225.85019062,0.0
1.02484294973,0.908517279338,9.6138835744e-06,-69677640.3233,1.43225281481e-05,0.0,5934666.52646,678.232365545,645.926171645,67285795.7147,1661.77203683,49247464.9931,71012205.7265,4254.12308433,4246.86212983,0.0
1.09507185394,0.829399630223,1.01063066404e-05,-24035479.441,1.87915735914e-05,0.0,5722116.04741,681.382025725,650.464582605,66713029.7211,1754.0507322,36762692.8837,68978934.4168,4545.6432657,4536.92524434,0.0
1.08423454526,0.998160740117,9.99889350619e-06,-28052036.3808,1.58503819494e-05,0.0,5769294.83552,680.798811471,649.807564306,66855654.8851,1739.74870084,35787042.3579,69319673.7924,4500.65759737,4492.10902677,0.0
1.22123521472,1.35371264219,9.87475340685e-06,13009682.9304,1.93025764154e-05,0.0,14291209.9108,688.948371094,658.439756174,65322943.9744,1906.46119448,58464614.8659,66609744.7402,5069.3473763,5057.44607973,0.0
1.14461915683,0.96790874164,1.02261434978e-05,-8190800.96011,2.17663237008e-05,0.0,5582077.79944,684.128631302,653.557865615,66339278.7025,1818.11559381,45305085.0875,68385957.9609,4751.31412,4742.00111593,0.0
1.05971388509,0.899501346264,9.882363138e-06,-39548911.5553,1.52858893393e-05,0.0,5823688.8926,679.412713549,648.121051692,66988621.3745,1707.05870945,34816841.6874,69822247.4649,4398.87233701,4390.51444231,0.0
1.07868214416,1.1027099227,9.93776979718e-06,-30388951.1553,1.41928091942e-05,0.0,5797872.70149,680.269917854,649.300644763,66945542.7368,1732.38865069,35441944.7417,69380725.2683,4477.60958041,4469.14729788,0.0
1.02772507913,0.779710907215,9.81437316706e-06,-64025184.4462,1.55204563281e-05,0.0,5913387.91526,678.133212156,646.101432822,67230180.2965,1665.72568238,45305862.6297,70907551.7316,4266.08680347,4258.78465627,0.0
1.24966459194,0.702073048695,9.862596131e-06,19520888.6643,3.55889228224e-05,0.0,21234101.5073,691.287975376,660.177631135,64553250.7232,1939.87984647,63565958.6595,64651501.217,5187.35772114,5174.7756819,0.0
1.03406183299,0.878512587604,1.02407225618e-05,-55496999.9805,1.48219217717e-05,0.0,5836180.64652,678.021124099,646.489917234,66994870.1146,1671.64643869,40108115.3077,70885599.1583,4292.39066874,4283.86385723,0.0
1.1040485553,1.08212350797,1.0067200703e-05,-21422357.6923,1.63549711983e-05,0.0,5716533.81857,681.863477501,651.07790519,66711977.4559,1765.54215462,37804632.5049,68675584.5456,4582.90555305,4574.04550467,0.0
1.07890490289,1.03861317136,1.00625225145e-05,-29766276.9429,1.50143543137e-05,0.0,5783800.78864,680.410766872,649.448507659,66892377.7471,1732.72864634,35537530.5246,69322203.4387,4478.5342519,4470.06851446,0.0
1.17666794041,0.81217088566,9.94792383546e-06,2676785.37527,2.50706795731e-05,0.0,5417381.36032,686.443623393,655.642648026,65807942.1883,1855.43925844,51399761.8635,67106978.2376,4884.34862064,4873.7159312,0.0
1.04786954345,0.920000159163,1.01464418442e-05,-47079321.1518,1.502836383e-05,0.0,5812221.77097,678.702777424,647.364772138,66948630.6176,1690.14237781,36464249.3897,70207914.5052,4349.70647486,4341.04536701,0.0
1.05382817317,1.12207645759,9.99837829844e-06,-42993272.4462,1.29395496993e-05,0.0,5828659.88874,678.967195203,647.738105649,66997586.615,1698.24167203,35345656.4915,70551802.4699,4374.44074683,4365.83055952,0.0
1.05867924663,0.841573356623,9.55638344875e-06,-43786723.4113,1.61176943778e-05,0.0,5795992.33312,679.720309896,648.037965174,66903429.6935,1704.00792501,35516812.6892,70358407.1927,4394.57755276,4385.55887849,0.0
1.07987792063,1.09910449365,9.56966744018e-06,-31214585.5392,1.4091640462e-05,0.0,5809678.34148,680.597950914,649.379757611,66976953.5795,1733.95273824,35354690.9634,69522211.1197,4482.57324854,4474.09241318,0.0
1.00227571556,1.04256617399,9.97416515691e-06,-95924997.3448,1.32189835302e-05,0.0,5905874.67817,678.309894074,644.468029583,67134542.8103,1627.87432524,70726417.7788,70726417.7788,4160.44649529,4152.10105994,0.0
1.14313909032,1.04792033391,9.58739056925e-06,-8287227.35045,1.91782355802e-05,0.0,5585675.19651,684.462767023,653.502201271,66346842.8872,1814.32956053,45691341.6083,68361578.6512,4745.17036392,4735.25363855,0.0
0.986361272433,0.950709489313,1.04059101583e-05,-94914282.2155,1.39187111539e-05,0.0,5925340.904,679.25712645,643.451111229,67175888.7415,1608.60675628,69836948.3236,70078352.9416,4094.38564187,4086.37729582,0.0
1.05092636038,0.936771402578,9.66599385884e-06,-45369107.6067,1.44587485583e-05,0.0,5827246.30961,679.275371793,647.640913715,66983849.4747,1693.96805779,35976524.3594,70664619.9326,4362.39532194,4353.65105286,0.0
1.12307853575,0.89586878702,1.02876926917e-05,-13333504.3668,2.02991269871e-05,0.0,5595390.52607,682.911769774,652.205318427,66335688.0938,1788.48245113,42307653.9725,67655242.193,4661.8990019,4652.14038554,0.0
1.14571331211,0.887823238206,9.88744199559e-06,-8181413.53802,2.22257767056e-05,0.0,5534379.38275,684.413004532,653.534471267,66171794.6898,1817.51001627,45362988.2242,68420814.232,4755.85595857,4745.6878336,0.0
1.21376677954,0.849573254035,9.51830353421e-06,11156887.4072,2.69536058818e-05,0.0,12517829.8471,688.957340483,657.909228077,65312292.0452,1899.08678217,57000361.5449,66657354.2797,5038.34590187,5026.57953738,0.0
1.12856961878,0.861414816844,9.82934071957e-06,-12713061.5654,2.09862809901e-05,0.0,5615869.73381,683.532466657,652.577315031,66414645.178,1796.39986206,42881795.9372,67796509.848,4684.69248756,4675.14463809,0.0
0.976010935726,0.960164450078,1.00699796698e-05,-94628070.4883,1.3826852102e-05,0.0,6013324.49579,681.784467914,642.802218896,67432789.4775,1613.21773517,69584610.3325,69819490.3587,4051.4213942,4044.5097959,0.0
1.15090342372,0.828631845705,1.01639639854e-05,-6538210.56383,2.47689051481e-05,0.0,5550237.97271,684.712728581,654.034045737,66248638.5011,1826.26223383,46243399.5359,68618281.2729,4777.40011186,4767.98644376,0.0
0.910120954835,1.17324303999,1.03851599284e-05,-91536170.6331,1.14783708191e-05,0.0,6139876.12884,690.263483032,638.549272453,67722377.1943,1595.61678264,66863145.2246,67722377.1943,3777.91208352,3771.65060881,0.0
1.02688811215,1.07610158601,9.80261277761e-06,-65292322.6403,1.28556519339e-05,0.0,5930497.86079,678.036742247,646.057215331,67279846.8728,1664.44399801,46162517.511,71017620.2983,4262.61255353,4255.32237887,0.0
1.01866955916,0.95896937071,9.7483444687e-06,-75835711.6897,1.37802919229e-05,0.0,5947443.96325,678.001448303,645.535704704,67310791.7449,1653.55335798,53886114.9798,70900647.0505,4228.49734007,4221.32428414,0.0
0.989609296474,1.05609474514,1.0275067471e-05,-95099083.8163,1.31052940808e-05,0.0,5928247.9325,679.09936289,643.660205019,67189949.1583,1611.5285577,69999623.6701,70245630.18,4107.86818966,4099.80812068,0.0
1.00276162626,1.03124230901,1.02340320141e-05,-94038550.2342,1.34998734133e-05,0.0,5894918.8772,677.89706839,644.500649528,67108101.56,1628.7720029,69076515.6541,70665664.396,4162.46351061,4154.19415424,0.0
1.0360684244,0.990637084087,1.00936078952e-05,-54139081.2733,1.38482955297e-05,0.0,5840104.17602,678.177934244,646.612426443,67011019.0158,1673.95067343,39412447.2139,71097434.0758,4300.72002968,4292.07392115,0.0
1.29077471976,1.11748789692,1.02357463657e-05,26936501.7555,3.03964017557e-05,0.0,28397374.5659,693.258616975,662.732045925,64138965.2822,1984.97920664,68383598.5925,69486118.4061,5358.00586172,5344.92593566,0.0
1.08671087439,0.951949129735,1.01368937453e-05,-26797843.1377,1.66361021433e-05,0.0,5753432.32899,680.843875757,649.95033901,66812327.9697,1743.01802373,36021852.2107,69243332.065,4510.93683959,4502.34966948,0.0
1.12082458343,1.07044946242,1.01674118822e-05,-14014158.8963,1.75615778508e-05,0.0,5623384.68185,682.723284427,652.055684091,66431416.9656,1785.24270876,41946169.3488,68360688.7399,4652.54284582,4642.82169585,0.0
1.03469338655,0.873134460664,9.8444773884e-06,-57897158.1012,1.48919580596e-05,0.0,5899007.32032,678.312828992,646.549199062,67198164.0263,1674.98551754,41533278.2912,71093063.9202,4295.01224757,4287.61009685,0.0
1.14308152345,1.03554892296,1.01727217686e-05,-8396294.78722,1.99316183943e-05,0.0,5545016.39415,683.981468403,653.361667514,66207530.2606,1813.84909508,45184748.9505,68355255.2483,4744.93140384,4734.80837245,0.0
1.14931435248,0.940580927556,9.7597172695e-06,-7375607.99001,2.16763121484e-05,0.0,5543971.8655,684.815953995,653.88275943,66214789.0651,1822.51791401,45844510.94,68636715.0465,4770.80387714,4760.77932197,0.0
1.12366635706,0.979621036229,9.87795072641e-06,-14001508.9393,1.90061978888e-05,0.0,5647989.42547,683.109372961,652.24467947,66512988.0477,1790.25320175,41893266.0223,68637484.1788,4664.33904816,4654.97340314,0.0
1.0901387796,0.921010279527,9.47085271538e-06,-27241051.347,1.65733934909e-05,0.0,5768050.89316,681.526472238,650.180501344,66856919.4921,1747.34747872,36133208.9397,69479877.4059,4525.16607412,4516.42763418,0.0
1.07311407826,0.885205635704,9.91741560034e-06,-33824700.6545,1.65340601731e-05,0.0,5804963.69664,680.081511999,648.9611377,66955684.9874,1725.8981367,34827883.858,69849709.1539,4454.49653886,4446.31220475,0.0
1.09515615736,1.01360443416,9.68491188753e-06,-24888182.1031,1.61040663452e-05,0.0,5750818.68073,681.568423418,650.44401312,66803606.2817,1753.83357751,36602239.602,69267356.8171,4545.9932092,4537.17541844,0.0
1.06912613152,0.814012627429,1.01342484774e-05,-33405503.9804,1.69990164681e-05,0.0,5784814.56603,679.744959297,648.715381671,66881083.8268,1719.37448294,34864612.6107,69731102.8698,4437.94257194,4429.43788257,0.0
1.02600688414,0.826308579142,9.94742607325e-06,-64876516.5342,1.50326722244e-05,0.0,5914867.99243,677.950880385,646.000798193,67232763.6269,1663.4293836,45866678.2407,70847605.9719,4258.95457607,4251.67699803,0.0
0.932394876764,0.980662685054,9.43133476539e-06,-92689412.3679,1.3791717668e-05,0.0,6082880.50306,690.253892659,639.980672915,67552167.2681,1609.80243886,67878109.5627,68088599.74,3870.37113345,3863.05934152,0.0
1.11061329489,0.667168832335,1.01925043556e-05,-17028484.7175,2.27997423267e-05,0.0,5630615.99612,682.317353515,651.435164946,66449493.0674,1772.93433212,40165100.7151,69028115.26,4610.15578709,4600.8036491,0.0
1.00996082151,0.970167999134,1.01585891746e-05,-83692313.9498,1.39685261367e-05,0.0,5874966.07894,677.676505176,644.952920944,67054477.5565,1638.22607007,60101187.95,70652852.1149,4192.34737009,4183.87650561,0.0
1.1558236739,1.05942575494,9.85568594274e-06,-2760664.28795,1.89877065481e-05,0.0,5525916.45714,684.89954766,654.231215885,66134369.613,1829.09790988,48753723.2299,68441033.0564,4797.82407036,4787.46645074,0.0
1.14447557052,0.9486582472,1.01239920728e-05,-8436786.73181,2.19516871934e-05,0.0,5586023.56179,684.2035485,653.556726376,66348657.9566,1818.01216705,45192313.0266,68347761.7972,4750.71809323,4741.40571653,0.0
1.03478406346,0.918522892496,9.87225934141e-06,-57535356.8368,1.44883972679e-05,0.0,5899836.02372,678.277763451,646.555886803,67201000.8524,1675.09463572,41303040.9077,71167615.8235,4295.38864742,4287.98519157,0.0
0.999110372938,0.685097782637,9.77450306231e-06,-95822749.6699,1.6001701353e-05,0.0,5977351.40338,678.859707421,644.291479291,67356519.7344,1627.19115301,70636842.7569,70889208.6378,4147.30715807,4140.40961091,0.0
1.17329344389,0.866656616856,9.79883859302e-06,1400429.26364,2.37211628735e-05,0.0,5396303.20836,686.374761795,655.434303202,65743094.3274,1849.89365625,50674155.8522,67477659.8414,4870.34108559,4859.17730696,0.0
1.16149443564,1.16589416852,9.86593276715e-06,-2717500.34475,1.79516086204e-05,0.0,5478177.47425,685.429590951,654.709338258,66002652.1636,1835.2525026,48344052.5733,68962485.8479,4821.36340234,4810.46290925,0.0
1.07831389105,0.916622198378,9.9223318089e-06,-30564737.9701,1.62747306472e-05,0.0,5787146.47576,680.34395388,649.277610538,66911014.842,1732.05044031,35401429.7187,69341462.3762,4476.08096175,4467.62438942,0.0
1.18032178434,0.97648112399,1.02201345407e-05,4088692.03316,2.28087106097e-05,0.0,5983164.17672,686.379490223,655.842526279,65762879.4701,1859.2714499,52081383.9274,67024146.9714,4899.5157268,4888.81069992,0.0
1.07260932251,0.986810926783,9.79271828649e-06,-33478322.576,1.50821315019e-05,0.0,5811376.71616,680.107659847,648.936851656,66972680.9736,1724.5111661,34868936.5609,69981202.0044,4452.40129774,4444.03297902,0.0
1.23032551553,0.744338464343,1.01845857154e-05,15579677.4648,3.26289501783e-05,0.0,17094207.1642,689.767412187,659.035213489,65021499.0902,1918.85219647,60554910.0516,66636293.4447,5107.08121497,5095.49500109,0.0
1.05778109009,1.06489462863,1.02926612018e-05,-39195322.7326,1.37349417872e-05,0.0,5825819.12084,678.938407375,647.998021324,66992912.2373,1704.70109935,34767559.575,69738070.1573,4390.84930496,4382.6155261,0.0
1.10236085564,0.914892215597,1.02959559347e-05,-19149807.1218,1.80377416499e-05,0.0,5649937.68202,681.692679222,650.942725484,66485538.2484,1760.90998611,39012703.0648,68608548.8586,4575.89991176,4566.19907215,0.0
1.11599178613,0.900408291311,1.02264962438e-05,-15342549.0844,1.93898979437e-05,0.0,5630391.98114,682.43519645,651.731608257,66437361.5987,1779.323629,41049195.6228,69091164.3051,4632.48190423,4622.94083633,0.0
1.09672060375,1.19339346453,9.5341013087e-06,-24864733.0023,1.41101251769e-05,0.0,5764547.47714,681.687797739,650.543908383,66857911.8078,1755.75048257,36695802.0264,69370786.7883,4552.48722617,4543.64463366,0.0
1.12645369554,1.07137272586,1.02689740119e-05,-13005777.6766,1.86343487702e-05,0.0,5649897.01052,682.990089041,652.451103546,66521955.373,1794.85112471,42470681.1397,67930431.6275,4675.90929019,4666.91011612,0.0
1.08192380664,0.993417842132,9.68495331146e-06,-29892513.6891,1.55402287684e-05,0.0,5792307.77311,680.686144003,649.516672933,66929163.9979,1736.72766353,35584076.5037,69424525.5926,4491.06572136,4482.55310483,0.0
1.04660218941,1.1142117238,9.7696768251e-06,-49986580.4533,1.31108560365e-05,0.0,5825716.95416,678.8689697,647.289131719,66979468.9653,1687.20776544,37560439.3903,70744534.3875,4344.44568824,4335.45317813,0.0
1.17991424267,0.98196312898,9.57032069543e-06,2625604.98204,2.17767550127e-05,0.0,5401397.48155,686.81550938,655.838862985,65765263.1013,1858.13772288,51479001.2977,67016332.3276,4897.82402132,4886.58611256,0.0
1.1647582177,0.935564877046,9.99923005339e-06,8181.74860241,2.19905941265e-05,0.0,5431675.51528,685.666917684,654.904775579,65829747.8855,1838.98488282,49980147.1579,67698155.168,4834.91136167,4823.950253,0.0
1.1134577585,0.963121907783,9.95103297196e-06,-16448657.7089,1.82150747404e-05,0.0,5639826.89998,682.50337561,651.599654351,66463023.184,1775.51436281,40446189.7231,69227483.4057,4621.96315553,4612.16927723,0.0
1.07214207277,0.853408493257,9.28628134343e-06,-34524099.0344,1.59685936344e-05,0.0,5817374.6828,680.526003504,648.928912946,66981916.9061,1723.32587727,34821552.2944,70360398.2516,4450.46174407,4441.91093766,0.0
1.12951799439,0.786053087833,9.64940002364e-06,-12525717.5515,2.21115994156e-05,0.0,5612452.01677,683.754743067,652.638686556,66415347.9088,1797.71840243,42789331.1887,67897138.0998,4688.62919471,4679.04018636,0.0
1.15857840995,0.653228707911,1.01587985217e-05,-2475240.6397,2.72750850729e-05,0.0,5454051.42322,685.372507355,654.535714385,65926648.6287,1833.5581263,48453942.637,67877320.7303,4809.2589797,4798.94101639,0.0
1.18470083317,0.886017286641,9.88596580536e-06,4621925.90663,2.43088066903e-05,0.0,6284343.34152,686.925075336,656.124930159,65714089.5895,1864.80078463,52602921.7098,67018467.4567,4917.69315849,4906.81699343,0.0
1.1516217099,0.921220940266,1.00001742957e-05,-6745480.32449,2.29448430643e-05,0.0,5564419.58161,684.81286587,654.083797713,66289722.9257,1827.15735043,46237147.8194,68698977.6565,4780.38171779,4770.95462956,0.0
1.08394827962,0.785349021919,1.00819671827e-05,-27874407.7213,1.84543541558e-05,0.0,5751906.52472,680.807075752,649.785649657,66802597.8649,1739.53828559,35793621.838,69243158.3508,4499.4693087,4490.92519563,0.0
1.04142918002,1.07350301353,9.80871046519e-06,-51762766.379,1.31051605802e-05,0.0,5844899.42319,678.609698275,646.957638995,67032383.0334,1680.97631732,38331313.2808,70916564.2733,4322.97252626,4314.24002412,0.0
0.976427218773,1.12806300128,1.00951680646e-05,-94829949.9628,1.21426373071e-05,0.0,6022473.76837,681.107059141,642.829691641,67452276.6669,1610.08368479,69762304.4888,69998301.9231,4053.14938513,4046.2383039,0.0
1.03873835779,0.9969851093,9.56256886755e-06,-55416218.9304,1.39729913244e-05,0.0,5844081.98938,678.759379463,646.793072994,67023396.9629,1676.80625578,40053053.7888,71151804.5126,4311.80292319,4302.94158034,0.0
0.959853213026,0.913960050316,1.04117833324e-05,-93773564.2873,1.41489572187e-05,0.0,6030401.92049,683.582672721,641.758549531,67463762.3998,1608.84843511,68832552.8033,69055210.4331,3984.35068727,3977.66597458,0.0
1.1381205736,0.984434242169,1.00112066439e-05,-8837582.4949,2.02284098308e-05,0.0,5553898.65041,683.96483785,653.184905524,66234161.0029,1807.01102654,45244852.8075,68083672.8619,4724.33850101,4714.20113601,0.0
1.11288191721,0.742836084726,1.01943094227e-05,-16445124.2107,2.16231105522e-05,0.0,5645623.91853,682.360014414,651.559091062,66496047.1535,1776.34466272,40519111.2556,69184286.5138,4619.57283834,4610.38238847,0.0
1.0854580783,0.780844537022,9.8704740007e-06,-27994737.7816,1.84831737731e-05,0.0,5756188.17446,681.0507828,649.885467357,66815057.4339,1741.52976343,35820088.1484,69310121.5892,4505.73648302,4497.16884963,0.0
1.01678854131,0.91039952067,1.04284444164e-05,-71543205.4193,1.43304899412e-05,0.0,5866949.10361,677.390137279,645.391703694,67061508.9765,1648.61115592,50572194.8883,70666921.2864,4220.68923498,4212.52508852,0.0
1.05377561551,1.04629920592,9.94146166995e-06,-43233963.3026,1.36396233014e-05,0.0,5823511.67367,679.162440341,647.819684227,66980984.3189,1698.21792972,35470668.1947,70548588.8221,4374.22257998,4365.61182204,0.0
1.18480459291,0.924415992266,1.03615193588e-05,5017371.50917,2.41842703779e-05,0.0,6538204.10924,686.658946731,656.130737338,65607967.7916,1864.28660139,52454928.2381,66775479.6023,4918.12386517,4907.12380107,0.0
1.21159490436,1.30757185456,1.02868203276e-05,11313331.968,1.97633386905e-05,0.0,12588409.9537,688.103416931,657.806843492,65391821.0267,1895.24133695,57127267.1015,66406282.2643,5029.330448,5017.74859162,0.0
1.14903644689,1.00896989235,1.03231017931e-05,-6741892.7928,2.16063441027e-05,0.0,5565330.31361,684.404650765,653.914977496,66295640.5753,1823.61881555,46087493.0172,68646920.2817,4769.65029104,4760.26489668,0.0
0.966844290793,1.07535473425,1.04148989478e-05,-94123297.4652,1.28811610638e-05,0.0,6037710.0512,682.505531182,642.21379769,67513907.27,1611.16963705,69140487.5239,69369000.2841,4013.37065108,4006.91189392,0.0
1.08209586544,1.06485359507,1.00271469627e-05,-28771553.676,1.48898250889e-05,0.0,5778707.357,680.629568727,649.673900266,66881620.4345,1736.89760642,35707946.9886,69327124.0664,4491.77993744,4483.26464589,0.0
1.13978900108,1.11740561087,1.01183168355e-05,-9620873.3926,1.85122118193e-05,0.0,5584055.95297,683.916729202,653.2907511,66338040.0179,1810.45225051,44615664.3119,68089968.312,4731.26414348,4721.50344986,0.0
1.1496158301,0.854351445852,9.77005759001e-06,-7227033.32999,2.31851360273e-05,0.0,5533312.61601,684.886703988,653.908706547,66182709.5556,1823.00054836,45890163.6754,68627738.0381,4772.05531075,4762.02565658,0.0
1.07354399174,1.03436788746,1.01148189729e-05,-31548279.0747,1.47488680547e-05,0.0,5788758.41172,679.865182424,648.951393996,66902154.0644,1725.01290871,35171606.016,69514227.8339,4456.28110971,4447.70849714,0.0
1.16973989198,0.783447153631,9.88277886324e-06,75112.7035338,2.67785600331e-05,0.0,5413816.64286,686.214795916,655.229976482,65818285.5139,1846.90578237,49999434.3564,67643411.9719,4855.59029161,4844.88978018,0.0
1.1514487233,0.748688790938,9.96449540245e-06,-5317566.65367,2.57341856677e-05,0.0,5519771.30756,684.939526169,654.062039795,66142869.7634,1825.64882144,47143423.2546,68615450.2788,4779.66365042,4769.81669736,0.0
1.20788734513,0.860770361287,1.01485322217e-05,10517627.0186,2.7314992898e-05,0.0,11836428.5644,688.268909717,657.528118138,65173149.6406,1890.56880757,56329797.626,66685977.03,5013.94036963,5001.98944294,0.0
1.08959959867,0.609731163055,1.00107662841e-05,-26090422.5622,2.17228831838e-05,0.0,5724226.25149,681.241628468,650.116782988,66724821.815,1747.11836526,36180181.7545,69179688.5524,4522.92793408,4514.29564632,0.0
1.10681538824,1.03550530878,1.01909751062e-05,-18289495.1258,1.6953718105e-05,0.0,5677621.81839,681.910752888,651.218253309,66588438.8001,1767.59008738,39608511.8206,68894597.0301,4594.39067658,4585.10148368,0.0
1.24614790519,1.03433196347,9.87896480826e-06,18718092.209,2.66555486358e-05,0.0,20291054.9877,690.699584706,659.972720819,64860218.7415,1935.49845185,63016135.5175,66064348.1834,5172.75995444,5160.41631324,0.0
1.11567103381,1.0644781545,9.98670241742e-06,-15998123.9282,1.71860061021e-05,0.0,5676592.52583,682.471546467,651.724406021,66589707.636,1779.813116,40811768.2414,69420874.0424,4631.15046135,4621.91474295,0.0
1.24152118397,0.959937750186,1.03971192882e-05,18279706.8936,2.91008512071e-05,0.0,20026902.217,690.182898726,659.686124117,64842759.5677,1930.10451899,62716315.3659,66274418.282,5153.55443466,5141.53452793,0.0
1.12092646008,1.18837801665,9.67927269964e-06,-14992258.2045,1.56462406028e-05,0.0,5654620.03729,682.987323205,652.051226696,66527905.8799,1785.36664272,41425995.4103,69189837.3393,4652.96573579,4643.14416659,0.0
1.12003614851,1.00503686233,9.65357668136e-06,-15229198.1605,1.79297418188e-05,0.0,5643142.08461,683.040922509,651.993845871,66489880.8031,1784.41908903,41257480.9046,69283415.1434,4649.27005246,4639.46358621,0.0
1.11988651817,0.958126555196,1.03873976505e-05,-13965308.6072,1.92553493785e-05,0.0,5607022.56262,682.596182109,651.993883212,66366333.0548,1784.29482033,41838314.2232,68172205.5436,4648.64893692,4638.94406154,0.0
1.15871256545,1.04081904169,9.66898976466e-06,-4161773.42546,2.06319629947e-05,0.0,5532168.49487,685.406998724,654.517038826,66192535.4211,1834.41522269,47858041.3275,68497395.7361,4809.81585918,4799.72598002,0.0
1.1428702936,1.13688976842,9.96802935875e-06,-8894574.48122,1.81881515491e-05,0.0,5565791.06088,684.063247683,653.371546153,66265160.5148,1813.57021129,44947954.611,68304795.1946,4744.05458873,4733.935102,0.0
1.12265574154,1.09195392498,9.65812464437e-06,-14539292.4969,1.69356597442e-05,0.0,5642063.33266,683.161458335,652.166346213,66491487.6133,1787.68532427,41718282.9566,68910961.5367,4660.14398313,4650.29305264,0.0
1.05023423174,0.907852425432,1.00601178296e-05,-44722736.8833,1.50692950452e-05,0.0,5810501.28688,678.845749929,647.519349031,66939433.0386,1693.01796506,35719558.8759,70460386.136,4359.52229595,4350.79098063,0.0
1.04977551252,0.673900955097,9.8209001177e-06,-45850149.5196,1.7125789186e-05,0.0,5825802.45929,679.092956729,647.491922651,66985170.4694,1693.65557177,36084030.9844,70399588.0463,4357.61815247,4349.25326,0.0
1.16000564999,1.01247980965,9.96152939413e-06,-2872099.46953,2.02309141752e-05,0.0,5464509.19823,685.38915502,654.618597995,65962415.0837,1833.59421254,48165999.7589,67743160.8059,4815.18345311,4804.33523975,0.0
1.14839326178,0.900736891792,1.00767686701e-05,-7450840.92082,2.30737895092e-05,0.0,5570356.64925,684.543037544,653.84818234,66305453.767,1823.04461232,45809942.6277,68584191.6473,4766.98042965,4757.60702312,0.0
1.01660730712,0.786234523113,9.87228228297e-06,-77094958.0034,1.51429862367e-05,0.0,5940317.33856,677.882216404,645.402298208,67281740.3793,1650.89209583,54868994.2429,71317817.664,4219.93693186,4212.79313708,0.0
1.19706106861,1.08035751035,9.75420567234e-06,6858295.64315,2.15292991361e-05,0.0,8365245.77737,687.745924333,656.942471074,65524168.9615,1878.235799,53825628.2652,66668854.2095,4969.0004958,4957.35101196,0.0
1.13620996251,0.890836211098,1.01969077911e-05,-10722401.5309,2.22451666632e-05,0.0,5605991.86854,683.746389835,653.096548213,66401853.4822,1807.53524988,43901916.3899,67866108.5221,4716.40755438,4707.25340847,0.0
0.991866072695,0.871262857228,1.02246532078e-05,-95165286.5843,1.46739442948e-05,0.0,5914146.53562,679.013701552,643.805803198,67149723.7525,1614.35944421,70058064.3793,70305067.3833,4117.23606776,4109.13984263,0.0
1.01070154864,0.997561602841,1.00812314374e-05,-83587981.2507,1.37522774155e-05,0.0,5877855.5354,677.763785031,645.001727163,67063182.9936,1639.17579063,60014614.5946,70716639.5663,4195.4221284,4186.93911507,0.0
1.09215899562,0.765672019558,9.67159572412e-06,-25907472.7058,1.87775545299e-05,0.0,5719332.62819,681.578126063,650.270579842,66706020.2381,1749.18886193,36245837.9458,69139319.2358,4533.55199082,4524.394282,0.0
1.07085015935,1.02667310256,9.86234970851e-06,-34075021.1952,1.47009053039e-05,0.0,5814076.08823,679.967207694,648.841295863,66973823.806,1722.14925788,34794443.6393,70024406.6933,4445.09901146,4436.75759612,0.0
1.19698916228,0.902580105902,9.67927080881e-06,7203403.40377,2.45848811624e-05,0.0,8726952.7333,687.87675246,656.946928016,65557137.3347,1879.11457685,54147854.0224,66708752.0167,4968.70201262,4957.35988935,0.0
0.96387676118,0.966802048699,9.85087583401e-06,-94132120.7743,1.39408773353e-05,0.0,6032129.55355,684.195332723,642.017945727,67459179.1706,1612.23614461,69148044.8993,69375282.66,4001.05243566,3993.99273975,0.0
1.12673031526,0.875845868002,1.00332265057e-05,-13133351.478,2.13126353809e-05,0.0,5643726.26097,683.232352067,652.468694182,66517002.2968,1795.29176576,42534203.0301,68139203.639,4677.05753864,4668.05492477,0.0
1.10377064736,1.15592351162,1.00189866207e-05,-21411838.5862,1.53261876228e-05,0.0,5727015.52025,681.85749849,651.066443144,66741386.1337,1765.2638811,37798968.7275,68679059.0584,4581.75195719,4572.89682743,0.0
1.06878275996,0.822431228328,1.03256509173e-05,-33184770.4851,1.70915239698e-05,0.0,5782907.8102,679.569285641,648.679362225,66882511.2363,1719.24126741,34835903.4842,69627727.1924,4436.51723659,4428.1120359,0.0
1.04796674286,0.968392941634,9.72854143948e-06,-48578392.5243,1.43770514919e-05,0.0,5825009.2352,679.0245273,647.37736992,66979269.234,1689.71769794,37018448.4143,70747580.4729,4350.10994961,4341.26995422,0.0
1.21430480996,0.876028442781,9.93415671453e-06,11936889.676,2.69581256314e-05,0.0,13218437.3329,688.74062213,657.980393006,65285837.308,1899.65717879,57535194.9261,66342719.0864,5040.57926614,5029.05486981,0.0
1.17283334587,0.629065052091,1.04670742386e-05,1719330.94028,3.25299795351e-05,0.0,5398186.67483,686.098295315,655.407270092,65718048.6174,1852.36799771,50662449.7846,66774097.8378,4868.43121871,4858.34791327,0.0
1.16818666458,0.859234064956,1.01138587966e-05,1178210.30537,2.37545883217e-05,0.0,5402953.63809,685.857202583,655.116446321,65746698.9713,1843.22678921,50476494.5538,67455478.4345,4849.14284467,4838.12707347,0.0
1.10667655666,1.04251047086,1.02482427803e-05,-18093229.469,1.67331729181e-05,0.0,5648176.61253,681.887965711,651.19767324,66487622.7059,1766.26298446,39590737.3328,68866052.6916,4593.8143867,4584.04140435,0.0
1.03606990367,1.24772211266,1.04072010838e-05,-53067665.8489,1.18730032073e-05,0.0,5838928.68585,677.801699668,646.592537228,67013613.2764,1673.67276606,38859193.9457,70894774.1967,4300.72617013,4292.08034826,0.0
1.10152323158,1.03407888373,9.84077941828e-06,-22590165.8241,1.65002947147e-05,0.0,5733006.61812,681.893948822,650.922718888,66766498.3035,1762.45937874,37398205.0826,68813404.1138,4572.42293429,4563.60328275,0.0
1.12905841217,0.961996897141,9.92593679474e-06,-12270054.8094,1.9624646372e-05,0.0,5599050.94192,683.374264194,652.52677941,66365965.8612,1796.0077404,43044502.9817,67320672.1089,4686.72146892,4676.86227267,0.0
1.11007499606,1.07721465222,9.75148231816e-06,-20034426.6685,1.66721274661e-05,0.0,5721389.87295,682.425035548,651.452962267,66735975.4667,1773.96757215,38497812.6454,68953724.6026,4607.92130865,4599.06552195,0.0
1.01094058998,1.03646145746,9.7177066096e-06,-85565797.3901,1.30080263268e-05,0.0,5972363.60615,678.005494218,645.039932558,67356996.6618,1643.07307574,61795275.9949,71024968.491,4196.41438901,4189.35073576,0.0
1.07390726614,1.05584781968,9.65687898567e-06,-33415190.7999,1.42806839559e-05,0.0,5818269.62177,680.245483755,649.017273535,66994139.6304,1726.15721008,34914067.8418,70038853.3473,4457.78906175,4449.40069639,0.0
0.999999998324,0.894816505791,9.68730489372e-06,-95915464.9686,1.43288019298e-05,0.0,5988936.90541,678.884507094,644.352335716,67391759.511,1628.24115993,70718166.873,70985273.9505,4150.99999304,4144.09001764,0.0
1.140063948,1.17562827229,9.78957328907e-06,-9040451.19646,1.73848473325e-05,0.0,5610541.96816,684.091768325,653.329527467,66420461.9243,1810.8084433,45205311.4865,68203199.8177,4732.40544815,4722.74882607,0.0
1.11378760229,1.07607517036,9.60856142866e-06,-17455140.1112,1.63323243257e-05,0.0,5684488.46242,682.702026874,651.656010243,66615142.2931,1776.91244669,40079079.2653,69196040.5635,4623.33233711,4613.82837776,0.0
1.11069213387,0.959835703951,9.70497035436e-06,-18106131.2838,1.77904822303e-05,0.0,5653061.86661,682.546852692,651.459031286,66512123.3394,1771.72828927,39687852.0879,69015353.949,4610.48304769,4600.64084696,0.0
1.0252813411,1.08955380401,9.78014008785e-06,-67522379.5199,1.2708144496e-05,0.0,5936195.81665,678.017422771,645.95598415,67293897.7466,1662.28883137,47706024.881,71079397.0479,4255.94284691,4248.67563312,0.0
1.03727756012,0.966133038884,9.94472151107e-06,-55966007.2354,1.42117279285e-05,0.0,5846593.20045,678.392497241,646.701979598,67033302.7186,1676.03193674,40377226.3543,71076643.7772,4305.73915206,4297.24908893,0.0
0.995340403694,0.980388369947,1.00504084129e-05,-95396722.2195,1.3767709477e-05,0.0,5915955.08309,678.83275586,644.027244815,67155898.7103,1618.67581351,70261642.1886,70559400.9973,4131.65801573,4123.42530814,0.0
1.14041813357,0.938742786358,1.00017856908e-05,-8248007.73978,2.14535964786e-05,0.0,5588806.56958,684.03892062,653.32037994,66345354.5729,1811.73463665,45709549.4714,68301398.4219,4733.87567245,4724.41546678,0.0
1.0888880797,0.744218706181,9.63251921613e-06,-27131445.338,1.89955214678e-05,0.0,5750625.95348,681.430496976,650.09928573,66804612.8066,1745.86864938,36061106.2824,69380871.0448,4519.97441883,4511.25571342,0.0
1.13633886647,0.871134196503,1.04774833662e-05,-10034951.3094,2.28877149215e-05,0.0,5590344.13318,683.588951124,653.085326896,66361948.9116,1807.61140443,44153911.6012,67904191.6673,4716.94263472,4707.78644507,0.0
1.11229632559,0.900903685074,1.01250156621e-05,-16539973.4908,1.89983462119e-05,0.0,5648059.50799,682.309838568,651.52646796,66498377.0266,1774.65699247,40420113.4385,69218685.9614,4617.14204752,4607.66391385,0.0
1.16112292585,1.19579399803,9.97965146762e-06,-2641040.08182,1.76115472556e-05,0.0,5478273.42381,685.335056067,654.687224446,66007302.7944,1834.73084316,48294311.4236,67772329.1095,4819.8212652,4808.95312269,0.0
1.06784212893,0.71705245437,9.64326643245e-06,-36026663.4699,1.78013410141e-05,0.0,5812266.69245,680.089239798,648.653966398,66963030.4337,1718.45530447,34674424.0872,70309707.8421,4432.61267719,4424.31781793,0.0
0.930353526975,0.803282929403,1.03459775266e-05,-92331431.7313,1.46358165104e-05,0.0,6045914.12228,688.048399294,639.84547844,67457509.2942,1600.68997378,67563237.1006,67770934.5594,3861.89749047,3854.76164707,0.0
1.0112081308,1.0287727751,9.77002236427e-06,-84720359.207,1.30728236488e-05,0.0,5969154.52491,677.933352244,645.05806573,67347932.6427,1643.45346097,61086344.936,70929430.4753,4197.52495095,4190.45752271,0.0
0.895347493819,1.02027843071,9.90274120544e-06,-91038859.5915,1.25136645543e-05,0.0,6160287.73299,693.124551165,637.594315409,67751801.1529,1592.35783016,66425339.7056,67751801.1529,3716.58744684,3710.00490726,0.0
1.13336086368,0.822392829542,9.73867781435e-06,-11439055.2749,2.20474895075e-05,0.0,5597947.96695,683.934905508,652.899895666,66379199.8542,1802.57900974,43529962.2268,67537777.4131,4704.58094514,4694.92746413,0.0
1.15598549888,0.995025688541,9.99387673085e-06,-2281405.91615,2.03832591266e-05,0.0,5512068.72808,685.056385037,654.378241062,66098212.5807,1829.4501721,48863114.2132,68136275.9941,4798.49580585,4788.22627177,0.0
1.04951350228,1.00355018335,9.71141138901e-06,-45931338.1226,1.37757368626e-05,0.0,5835889.31316,679.026477017,647.467518713,67008673.5782,1692.0364489,36131591.0196,70590540.943,4356.53054796,4347.81068031,0.0
0.973749900107,1.03637659316,9.48856506962e-06,-94597602.1065,1.35424949344e-05,0.0,6030138.17769,683.788604222,642.656590776,67469950.7074,1618.28819618,69557852.5268,69792296.3951,4042.03583534,4034.85999722,0.0
1.06844021214,0.972035543407,1.00098968145e-05,-35027837.7271,1.50491003587e-05,0.0,5801701.61709,679.766334817,648.690082042,66929452.7559,1718.54196528,34714489.9965,69995783.4951,4435.09532059,4426.60109273,0.0
0.982013992847,0.822927972985,1.05447946867e-05,-94681499.1602,1.46188685603e-05,0.0,5925094.81011,679.577036025,643.171184625,67168828.8629,1606.56471534,69632025.6398,69871320.2373,4076.34008431,4068.40348899,0.0
1.19330805006,1.11851990507,1.01145765889e-05,6372442.14298,2.10908788495e-05,0.0,7845880.35328,687.287202352,656.695093911,65478527.6725,1873.12073731,53300929.2427,66595707.9716,4953.4217158,4941.74744295,0.0
1.07774550574,0.891860286948,1.03964451432e-05,-31088232.3894,1.71357950793e-05,0.0,5691194.52069,680.285582114,649.352759449,66601030.614,1728.47534552,34956149.7292,68902600.8805,4473.72159433,4464.05726212,0.0
1.07508723751,1.17686218249,9.72106397784e-06,-32714804.2795,1.31217348007e-05,0.0,5820396.6496,680.191456184,649.069228485,67003323.9257,1727.61094825,35001349.6893,69910505.9636,4462.6871229,4454.28051588,0.0
1.09621732142,0.912595526444,9.81953868897e-06,-24309114.9593,1.75325423092e-05,0.0,5740227.13718,681.593560641,650.526140974,66778900.9665,1755.64040747,36764471.1875,69182159.3101,4550.39810121,4541.66197932,0.0
1.12174368026,0.959273686457,9.68439948657e-06,-14661740.3127,1.87121939026e-05,0.0,5631947.39803,683.15840223,652.106261535,66459135.6346,1786.65063897,41568265.1408,68973607.7748,4656.35801676,4646.52257639,0.0
1.15129116058,1.00538115181,9.77611462062e-06,-6829189.91576,2.08136392963e-05,0.0,5542458.56032,684.913118911,654.0314571,66213411.2694,1824.9158701,46138651.592,68760074.0775,4779.00960757,4768.95159919,0.0
0.999691118415,0.758364540309,1.02252623425e-05,-95518053.2608,1.56392130198e-05,0.0,5888312.45457,678.249058955,644.303075475,67082246.5696,1624.84581104,70368526.8148,70578650.256,4149.71783254,4141.49553098,0.0
1.07776837706,0.891305217084,9.89331051505e-06,-30883049.3421,1.65120311661e-05,0.0,5788128.78725,680.332610483,649.239528028,66913032.9884,1731.35395191,35311580.732,69340930.3424,4473.81653318,4465.36841677,0.0
1.18653734548,0.571811263109,1.00904941893e-05,5498264.14602,3.34142783566e-05,0.0,7096957.74331,687.220616162,656.244834575,65518803.5846,1867.74469482,52944740.6283,66750222.3633,4925.31652109,4914.51675837,0.0
1.12314209023,1.11520988082,1.01104046387e-05,-13503831.8705,1.71014445139e-05,0.0,5622127.733,682.888304594,652.209663844,66430307.0976,1788.19899862,42274253.301,67998438.1457,4662.16281654,4652.40263023,0.0
1.18679831794,0.982029322419,9.80555857652e-06,4773400.98623,2.24042336459e-05,0.0,6384459.61411,687.060678035,656.253986603,65703037.0783,1866.75892099,52659168.6887,67017702.6922,4926.39981777,4915.25196006,0.0
1.11422953088,0.93026743058,1.00319544593e-05,-16250243.2888,1.8887424706e-05,0.0,5668314.2499,682.44971031,651.649044728,66563553.2383,1778.07872574,40646960.7992,69296492.2115,4625.16678268,4615.95441109,0.0
1.14886780763,0.93197107769,1.00834892032e-05,-7329162.22077,2.25919862022e-05,0.0,5571055.63659,684.556956635,653.884155344,66308736.3621,1823.61258559,45849128.194,68623617.9067,4768.95026947,4759.56925687,0.0
1.12323605381,1.05546316758,1.05980772298e-05,-12986986.981,1.83795798812e-05,0.0,5599241.11301,682.621400093,652.219234128,66358684.7434,1788.64390931,42445088.4536,67099500.2305,4662.55285937,4652.89066518,0.0
1.0137821879,1.00432581602,1.02470790286e-05,-78560184.4638,1.34677676944e-05,0.0,5938224.22176,677.419563966,645.219551892,67266449.1605,1646.86050131,56025913.1324,70780811.6637,4208.20986197,4201.10634598,0.0
0.988907421355,0.697134958414,9.90270453211e-06,-95335075.0335,1.55863547252e-05,0.0,5976629.46263,679.759466802,643.631277543,67326053.8194,1613.30343987,70207175.3465,70450741.761,4104.95470604,4097.77870722,0.0
1.1148750326,0.955833319853,1.06150387576e-05,-15413239.4526,1.89297157402e-05,0.0,5568516.96713,682.173592882,651.647000275,66242483.5006,1776.17915933,40895475.5966,68545996.7011,4627.84626032,4617.56449893,0.0
1.13877200441,1.02459864472,1.0016914808e-05,-10196505.567,2.00944846921e-05,0.0,5617466.13543,683.959660009,653.26195881,66434181.0125,1810.76579749,44238635.2983,68009526.0204,4727.04259031,4717.82119853,0.0
1.07484715527,0.799926591903,9.89167675224e-06,-32139565.1434,1.74151398299e-05,0.0,5789807.883,680.195617443,649.042983528,66912418.0101,1727.58200671,35069006.2411,69688430.3197,4461.69054153,4453.28764735,0.0
0.97847778189,0.979857540293,9.56171024591e-06,-94762452.3854,1.41086107681e-05,0.0,6012334.27156,682.953296776,642.96005231,67423727.1665,1618.69323096,69703016.2543,69939783.9347,4061.66127263,4054.4157212,0.0
1.13257851859,0.930355050075,9.79981311302e-06,-12669708.9021,2.06785011039e-05,0.0,5548898.48794,683.892050555,652.826631439,66209781.2806,1799.64854273,42752026.8764,67321547.3126,4701.33343067,4690.87857842,0.0
1.07477181715,0.959657551635,1.04618701654e-05,-32074616.1608,1.6189413498e-05,0.0,5703004.15756,680.014120951,649.147855157,66633636.5057,1724.54435329,34797688.554,68886596.073,4461.37781299,4451.76340385,0.0
1.06898011124,0.750702368128,1.0195078494e-05,-33234618.5024,1.77667110191e-05,0.0,5778703.92226,679.711746687,648.700166315,66862914.055,1719.22931017,34881156.1392,69664593.5368,4437.33644176,4428.83404239,0.0
1.06746794496,1.00842652236,1.01208679611e-05,-34242681.7396,1.47128433113e-05,0.0,5802359.99247,679.601040075,648.626046054,66931245.1665,1717.04512855,34770310.833,69921995.9338,4431.05943953,4422.58074028,0.0
1.0297770612,1.02363183501,1.00730808604e-05,-60687903.1733,1.34179603769e-05,0.0,5860146.68476,677.966776323,646.22179335,67062481.716,1665.8557409,43103678.494,70902924.2255,4274.60458104,4266.14698259,0.0
1.12308993676,0.876188395952,1.00313526021e-05,-13606123.0828,2.03265413915e-05,0.0,5605037.45915,683.061709865,652.205563823,66377362.2115,1788.40667141,42233366.7479,68079555.5666,4661.94632749,4652.18794002,0.0
1.21430263481,0.937477370534,1.00262180433e-05,11712268.4655,2.59180942029e-05,0.0,12972963.4654,688.68415735,657.975496081,65217431.3634,1898.99543941,57337143.8527,66271896.4534,5040.5702371,5028.80065853,0.0
1.11575975272,0.801187481838,1.02209757027e-05,-15402793.5786,2.07826263732e-05,0.0,5621929.72693,682.478937169,651.716130373,66427366.4986,1779.13780394,41026141.1652,69099900.094,4631.51873354,4621.98152511,0.0
0.962721190067,1.18821458227,9.98893985251e-06,-94067724.7438,1.21054328161e-05,0.0,6070928.1272,684.245649715,641.951265038,67600236.0772,1614.56614528,69091399.5587,69317338.9843,3996.25565997,3989.85280837,0.0
1.09906612661,0.874875679603,9.67645175433e-06,-23607426.9937,1.80278772266e-05,0.0,5729776.22484,681.900471098,650.730609631,66743075.738,1759.05597709,37010582.3279,69242299.2206,4562.22349156,4553.34366154,0.0
1.13733153289,0.826733796583,1.00500022364e-05,-8781270.47582,2.2784440722e-05,0.0,5573805.20272,683.915539563,653.144374719,66291356.2408,1807.26543516,45395867.8659,68102271.8184,4721.06319303,4711.44545552,0.0
1.11436522709,0.740948700376,9.90780900774e-06,-16281139.5255,2.14264469086e-05,0.0,5604338.3145,682.71769042,651.643371917,66367613.5115,1776.47047986,40658965.2914,69199999.7379,4625.73005765,4615.72797202,0.0
1.16106587258,0.979398872746,9.85953035602e-06,-2767357.02754,2.08032346916e-05,0.0,5459729.15155,685.546214155,654.685801005,65945492.7338,1834.9710582,48303336.6854,67777421.9918,4819.58443708,4808.69160672,0.0
1.00150560021,0.872031338423,9.99449367797e-06,-95853111.7849,1.47272736846e-05,0.0,5896419.12011,678.405466006,644.421535129,67104888.3146,1626.96980893,70662236.3496,70662236.3496,4157.24974647,4148.91685918,0.0
1.0565577604,1.14601331183,1.04019045795e-05,-39334476.7138,1.29272661745e-05,0.0,5829246.69213,678.75852908,647.918534102,67002807.2851,1703.0320336,34767116.8804,69685239.7135,4385.77126342,4377.5563204,0.0
1.12521115453,0.961285828857,9.84944531559e-06,-13298967.9865,1.92747692756e-05,0.0,5634067.50824,683.249203705,652.354757059,66465622.4716,1791.87561081,42262309.8184,68326313.8816,4670.75150245,4661.25865618,0.0
1.06031213696,0.922004847891,9.79740978812e-06,-38815395.6985,1.48493659796e-05,0.0,5794787.51442,679.526955748,648.142470714,66887703.896,1706.00987958,34702918.2607,69840361.6088,4401.35568052,4392.27772307,0.0
0.967645911203,1.00305808253,9.97052733751e-06,-94187225.4566,1.38164697483e-05,0.0,6003008.79484,683.475847488,642.255226182,67381752.4222,1611.92624389,69196670.5807,69426189.9707,4016.6981774,4009.29694813,0.0
1.08302160782,0.996642323748,9.74390192796e-06,-29353113.6997,1.56177078608e-05,0.0,5783107.48926,680.898230542,649.722951766,66903481.602,1738.16835124,35704866.6338,69399232.414,4495.62269406,4487.09300397,0.0
1.15082966576,1.03278279719,9.82369106738e-06,-6813542.63659,2.03570015987e-05,0.0,5544817.08047,684.834806289,654.000029181,66221513.4991,1824.27039614,46080444.1908,68749981.0988,4777.09394257,4767.04458119,0.0
1.16274566392,0.941463044345,9.91503222804e-06,-2252942.89705,2.3428143247e-05,0.0,5521003.84673,685.587532031,654.815042026,66156543.2111,1840.3743474,48776176.4072,68248933.149,4826.55725093,4816.83114772,0.0
1.02504726559,0.880482564165,1.04394704871e-05,-65198487.2179,1.47960883292e-05,0.0,5822502.09479,677.528532559,645.889049999,66946679.0124,1658.26289369,46021626.8089,70448336.105,4254.97119946,4246.16766966,0.0
1.06154016519,0.755530794271,9.72270369065e-06,-38492643.3651,1.66788377979e-05,0.0,5782400.88914,679.734618717,648.227950174,66850675.1457,1707.76347092,34668608.502,69864335.5946,4406.4532257,4397.35484387,0.0
0.928360272463,0.799134089396,1.03633580362e-05,-92250079.53,1.45801680492e-05,0.0,6050217.1511,688.213359271,639.717077277,67467272.0835,1599.71695861,67491610.4939,67698374.7381,3853.62349099,3846.51796906,0.0
1.19686855899,1.0386165501,9.93222833428e-06,7530956.65729,2.23369322727e-05,0.0,8997035.35113,687.612806466,656.933080829,65564643.4377,1878.51036844,54211012.1806,66663545.3729,4968.20138837,4956.88859231,0.0
1.12600662315,0.631411940753,9.9671154086e-06,-13321181.751,2.5667191977e-05,0.0,5623636.3793,683.383651038,652.420640872,66453334.7789,1794.6917028,42351667.5315,68257773.9448,4674.0534927,4665.06227095,0.0
1.01793261223,1.00108981806,9.818149095e-06,-76078863.4895,1.34136893649e-05,0.0,5948488.62537,677.907851678,645.49475846,67313902.0435,1652.55764913,54074089.5002,70882619.219,4225.43827337,4218.27567978,0.0
1.22042438709,0.897712757746,1.00255965415e-05,13129623.9509,2.72564678306e-05,0.0,14383437.0346,689.143804555,658.37973341,65070034.7259,1905.50608097,58464917.8044,66398054.551,5065.98163081,5053.90132727,0.0
0.985662737351,0.969513060721,9.84981600042e-06,-95037330.1548,1.38871422893e-05,0.0,5945362.2634,680.700500459,643.409012816,67230763.2111,1612.64754511,69945173.4654,70187745.3627,4091.48602274,4083.40977957,0.0
1.17950690998,1.20015610759,9.48789340473e-06,2290777.59698,1.82220739996e-05,0.0,5431603.40083,686.701531356,655.819767247,65873000.7747,1857.4109585,51364444.7369,67101236.0979,4896.13318333,4884.89607318,0.0
1.0548905865,1.19252499938,9.93276901889e-06,-42766984.4168,1.23687241383e-05,0.0,5832547.01393,679.042673517,647.802679845,67010626.0228,1699.60160851,35319384.9983,70590307.073,4378.85082456,4370.22340261,0.0
1.10505596484,0.907125609061,1.0182881098e-05,-20807960.0588,1.87864777525e-05,0.0,5694733.66755,681.917018887,651.130885669,66649858.1319,1766.98592444,38054135.3928,68680644.6681,4587.08731005,4578.21197764,0.0
1.08839924555,0.904461222851,1.01797212457e-05,-26064775.4185,1.73404311653e-05,0.0,5743523.21017,680.91067242,650.039653815,66785496.0702,1745.26208075,36165552.3738,69184212.4853,4517.94526828,4509.33174003,0.0
1.18777819784,0.830386175595,1.02014144283e-05,5837652.19736,2.63060852731e-05,0.0,7382628.33201,686.986611929,656.32934293,65601427.0013,1868.55893784,53115307.582,66697763.0503,4930.46729923,4919.63226744,0.0
1.07987860316,1.0804545385,9.75245235976e-06,-30551166.8216,1.44031516709e-05,0.0,5801019.90164,680.478801359,649.379637012,66953786.9059,1733.97630392,35459640.5627,69418477.6689,4482.57608172,4474.09523577,0.0
1.16814459377,0.862292801921,1.01479094634e-05,1398285.41275,2.34267008464e-05,0.0,5405211.23934,685.814844752,655.114090247,65752266.1906,1843.1052987,50551276.3648,67381677.9662,4848.96820874,4837.96672374,0.0
1.02144542985,0.796913261959,1.01695064442e-05,-68134009.0024,1.51880511202e-05,0.0,5910017.25963,677.627213324,645.704842789,67207043.8593,1656.99305432,48111786.7678,70790946.5098,4240.01997931,4232.71814407,0.0
0.931921650376,0.968541381016,1.04290180251e-05,-92399290.5639,1.35963948858e-05,0.0,6045703.73928,687.546174772,639.945915673,67460785.2479,1600.12313274,67622945.1185,67831481.4392,3868.40677071,3861.24703549,0.0
1.15543971442,0.946025830738,9.75485721589e-06,-4930230.32866,2.24356228935e-05,0.0,5559328.35609,685.172339537,654.325514264,66286833.6936,1831.56258157,47507799.4534,68727713.4314,4796.23025456,4786.65041908,0.0
1.25959367586,0.783153748993,9.81395969415e-06,21513404.3522,3.44820146695e-05,0.0,23382400.4288,691.809587645,660.821161511,64595556.8159,1952.08129597,65280785.095,66090989.3017,5228.57334849,5216.22373585,0.0
1.0390474113,0.816721977673,1.04450505241e-05,-50866772.7152,1.57969503342e-05,0.0,5804802.85509,678.049213764,646.768799637,66916466.7849,1677.92068974,37891938.9606,70713837.6474,4313.08580431,4304.39128517,0.0
1.14465541446,0.960648595911,1.02571697635e-05,-8080205.20605,2.19217462664e-05,0.0,5579710.06338,684.118800726,653.564237465,66332619.7541,1818.15231939,45306120.0951,68389155.1977,4751.46462542,4742.15084167,0.0
1.14970097355,1.0989017789,1.00542111453e-05,-5882137.38741,1.90899101127e-05,0.0,5507675.37746,684.490081327,653.840745514,66093175.6734,1820.88937347,46705587.5486,68237317.8905,4772.40874121,4761.78337827,0.0
1.06714031653,1.0257339668,1.0103477861e-05,-35253040.1653,1.44254493543e-05,0.0,5804847.46753,679.603676596,648.605856742,66938471.9208,1716.79871249,34686648.6006,70006564.6592,4429.69945392,4421.22559175,0.0
1.07595142079,0.928264179268,9.84147018064e-06,-31878583.7238,1.59374034925e-05,0.0,5797238.30967,680.245645287,649.117165637,66936462.4403,1728.93640663,35134774.3786,69691823.2547,4466.2743477,4457.85437057,0.0
1.16459141648,0.854816824267,9.95374484741e-06,-574540.783673,2.33717042087e-05,0.0,5425147.03778,685.761505186,654.896484851,65827594.7232,1839.16627316,49611822.4481,67683414.5704,4834.21896981,4823.26368753,0.0
1.06487435621,0.875904201661,1.00528225182e-05,-35660016.961,1.59738303084e-05,0.0,5803152.14795,679.560213043,648.458282191,66937755.7119,1713.74025255,34653276.8397,70127138.1964,4420.29345263,4411.85533956,0.0
1.15051520633,0.915499667728,1.03810856472e-05,-5666994.96268,2.28947795617e-05,0.0,5516149.80513,684.421471769,653.901727353,66111994.4298,1824.00757359,46348299.5897,68450351.4132,4775.78862148,4765.8483417,0.0
0.961800735635,0.709998672739,1.03353281352e-05,-93830529.962,1.58520599601e-05,0.0,6017352.24591,683.650113622,641.884240223,67428751.6723,1610.4599627,68882632.0217,69105943.7408,3992.43485362,3985.7227343,0.0
1.14891970314,1.26278064028,9.43076559282e-06,-7532044.40767,1.67843029618e-05,0.0,5623791.62171,684.745606555,653.852859219,66484147.1377,1823.06534076,46268742.6319,68727903.2203,4769.16568773,4759.66477138,0.0
1.05569411751,0.830191232725,1.02407244921e-05,-42307762.1233,1.6140993858e-05,0.0,5790678.52191,679.01606106,647.839246079,66886742.3777,1700.94647581,35153743.9409,70012455.7613,4382.18628178,4373.48769416,0.0
1.17907698208,0.682680246402,9.98610510498e-06,3222537.12068,2.86644113956e-05,0.0,5421256.24815,686.759830857,655.775437078,65590236.8133,1857.57287999,51597812.9322,66844169.8147,4894.34855261,4883.23773905,0.0
1.09870829703,0.910638294723,1.00256001942e-05,-23125401.4016,1.80269447819e-05,0.0,5720873.00371,681.650528496,650.73273618,66714680.3689,1758.73405901,37125030.7993,68941475.4589,4560.73814097,4551.96295623,0.0
1.01423397146,0.891574234354,9.92211632766e-06,-79490041.2922,1.42258665986e-05,0.0,5949220.47939,677.775753725,645.240772176,67292783.5746,1647.64980655,56780400.351,71211259.2654,4210.08521553,4202.97486622,0.0
1.08856205232,0.711120785593,9.93036632311e-06,-26696781.7971,1.98357926387e-05,0.0,5739618.41517,681.205128553,650.071561737,66769201.4288,1745.67017284,36070547.2885,69262218.5923,4518.62107918,4510.0040908,0.0
0.992418848831,0.939087012263,1.01874949174e-05,-95207958.2027,1.42078024272e-05,0.0,5917498.21422,679.009319406,643.841136658,67160643.2438,1615.0357248,70095635.2667,70334431.8532,4119.5306415,4111.42555027,0.0
1.07848535062,0.854597959155,1.00600573531e-05,-29892490.4977,1.71131836025e-05,0.0,5772821.45366,680.462325151,649.420294817,66858124.1005,1732.3232966,35468514.1066,69284182.5011,4476.79269042,4468.33345961,0.0
1.05168797635,1.22776297609,1.0122800783e-05,-45521315.4754,1.24249886019e-05,0.0,5806024.34569,678.773690805,647.598124302,66935842.282,1693.96168175,35921984.6849,70107407.6646,4365.55678983,4356.47904146,0.0
1.03772468578,1.01604590113,1.02222295789e-05,-53247709.0233,1.35682296167e-05,0.0,5845426.47274,678.115345095,646.707488097,67033418.1898,1676.96428724,38955488.4968,70969542.4982,4307.59517067,4299.18547933,0.0
1.13286278866,0.832136257356,9.56575476583e-06,-11922152.6615,2.16118066988e-05,0.0,5616787.69703,683.989464693,652.8646925,66438240.1305,1802.29721034,43156389.9683,67622009.5781,4702.51343573,4692.97229227,0.0
1.0074774519,0.891118845173,1.02586300535e-05,-85873935.9094,1.4761155069e-05,0.0,5874171.94131,677.685877812,644.795514056,67051563.8896,1635.15024498,62038240.2581,70661722.052,4182.03890284,4173.69077589,0.0
1.11901865285,1.19945919714,1.02853140827e-05,-14741820.8084,1.59511927302e-05,0.0,5640095.31537,682.478474005,651.939909606,66470802.0581,1783.23546433,41431037.188,68658982.6761,4645.04642798,4635.45463459,0.0
1.06079320714,1.11019904165,1.06090579839e-05,-35518154.691,1.3509032441e-05,0.0,5805268.67713,678.827256504,648.193887591,66936728.5925,1708.15862652,34617946.5743,69944801.5049,4403.35260284,4394.97964457,0.0
1.12760907031,0.802129851639,9.86688370283e-06,-12713399.6114,2.19206325141e-05,0.0,5555310.93008,683.569564858,652.496754968,66218007.4797,1793.20730834,42566079.8772,67694269.9713,4680.70525086,4670.37474675,0.0
1.12556748913,1.03747471353,1.00898494864e-05,-13380295.1008,1.88942413316e-05,0.0,5657497.49549,683.05396912,652.39352742,66558713.1901,1793.63619561,42384576.445,68268127.5998,4672.23064738,4663.24633546,0.0
1.05491452286,0.975899861815,1.00686131197e-05,-40455026.4322,1.45083089028e-05,0.0,5821799.42364,678.957840009,647.79003246,66977853.3507,1699.85259334,34904411.6247,69916616.0491,4378.95018439,4370.48578478,0.0
1.09897838527,0.801965389077,9.37079372258e-06,-23718466.5759,1.83241600349e-05,0.0,5696756.17438,682.161617678,650.687670775,66634658.1027,1757.1680465,37009323.0336,69471101.6387,4561.85927726,4552.20465659,0.0
1.0720584966,0.999948121223,9.66212095117e-06,-34172365.635,1.48338977372e-05,0.0,5819011.10923,680.188754501,648.919567796,66992381.4806,1723.78536488,34812157.888,70101243.7757,4450.11481939,4441.75500217,0.0
1.10995159025,0.929776909102,1.01570181515e-05,-17400812.8094,1.85934980989e-05,0.0,5660522.55725,682.157401248,651.404104862,66539914.0442,1771.7711819,40010525.8826,69048935.6681,4607.40905113,4598.06778218,0.0
1.07537983014,1.10317764562,9.81858551496e-06,-32239849.16,1.39306019183e-05,0.0,5811230.63045,680.156947663,649.079172691,66977646.657,1728.05275421,35097869.5232,69781894.0998,4463.90167491,4455.49054205,0.0
1.3143927221,0.772756334519,1.01714085612e-05,30056490.5333,4.25577877267e-05,0.0,31442963.3314,695.335282329,664.311393637,63424084.9132,2011.653759,69674518.7627,71109977.5508,5456.04418944,5442.18328023,0.0
1.08235055317,1.00411455429,9.93592728196e-06,-28969501.3842,1.55987282423e-05,0.0,5777455.04604,680.731775831,649.686774703,66876389.618,1737.28300002,35699462.9495,69342026.2989,4492.83714621,4484.31789436,0.0
1.0765737699,1.171565086,1.00761650719e-05,-30622136.2714,1.35106568915e-05,0.0,5786760.59936,680.208342308,649.285992476,66900700.4774,1728.89891328,35367801.8327,69353236.6615,4468.85771885,4460.23738306,0.0
1.11335499975,0.791015729,1.04287594118e-05,-15826752.3703,2.0964026182e-05,0.0,5620504.27809,682.215529419,651.562210392,66403755.7045,1776.37371008,40736876.0359,69204313.5782,4621.53660396,4612.04057521,0.0
1.08978793591,0.853324300452,1.01705617076e-05,-25597387.4326,1.80777014085e-05,0.0,5736382.71665,681.001785652,650.111970123,66765660.9881,1747.1181406,36256938.71,69136534.307,4523.70972196,4515.07448929,0.0
1.04493759275,1.0872405366,1.0182606902e-05,-48131314.0068,1.32307240128e-05,0.0,5826661.44425,678.464013049,647.181482371,66982978.0868,1685.93900296,36820417.2811,70620408.8439,4337.53594751,4328.83365066,0.0
1.12267900409,0.947071264045,9.78915188374e-06,-14173600.5007,1.92222336758e-05,0.0,5594947.85169,683.188982223,652.157581378,66346609.3935,1786.76089784,41703854.6792,68380452.8045,4660.24054598,4649.99663177,0.0
1.05240419664,0.927237349961,9.80009310649e-06,-42755140.9816,1.44706219335e-05,0.0,5839768.58882,679.097588442,647.661537768,67023755.7688,1696.80709223,35312980.35,70682914.5204,4368.52982025,4360.10294614,0.0
1.2254775152,0.747765914172,9.66977357267e-06,13836810.4889,3.0890514805e-05,0.0,15242352.8698,689.809831342,658.711067854,65020280.7835,1912.52229547,59075737.3872,66440287.2004,5086.9571656,5074.88653188,0.0
1.10145541008,1.18237737192,1.00671518967e-05,-22227179.0902,1.49620745245e-05,0.0,5730942.59267,681.676597133,650.919645856,66751384.1932,1762.08443783,37510710.0516,68551456.6172,4572.14140724,4563.32217494,0.0
0.949411796353,1.11269374567,1.03401581684e-05,-93409532.1055,1.22908198686e-05,0.0,6068111.41815,685.021929661,641.087036519,67561869.8396,1606.20034988,68511978.9305,68730108.7697,3941.00836666,3934.46977407,0.0
1.07923733745,0.853510232274,1.05105919036e-05,-28322956.3456,1.75811068606e-05,0.0,5756837.23492,680.202740515,649.487647854,66808395.2805,1733.61887219,35616744.8325,69110435.5072,4479.91418776,4471.53979021,0.0
1.10692516592,1.17116571949,9.61233672457e-06,-20075555.5853,1.50086982188e-05,0.0,5662790.94292,682.331999806,651.233669874,66531716.7389,1765.82456202,38880299.9849,68746100.2284,4594.84636373,4584.68814724,0.0
1.07415474905,0.767277554737,1.00742608327e-05,-31335573.7993,1.79157186475e-05,0.0,5770570.77859,680.044815683,648.992819625,66846627.1481,1726.02937785,35192082.5436,69463799.9222,4458.81636331,4450.23413916,0.0
1.18481839638,1.01112601056,1.01672758715e-05,5206156.21387,2.23460229271e-05,0.0,6796233.20531,686.725514412,656.116567729,65564437.5498,1862.88185838,52700732.7804,66821723.7585,4918.18116337,4906.75543585,0.0
1.05918950643,1.07755602925,9.64380746114e-06,-43136824.9005,1.36462625547e-05,0.0,5808735.10755,679.556907542,648.062281521,66945202.7563,1704.52826531,35374904.4583,70083502.1909,4396.69564119,4387.66848672,0.0
1.11790253661,0.931890915919,9.84574425675e-06,-15358922.8167,1.8872797948e-05,0.0,5615626.69263,682.839469603,651.848820159,66406875.2065,1780.87994507,41169849.5734,69215684.9537,4640.41342947,4630.34899879,0.0
1.04961220217,0.989494976329,9.78848933925e-06,-45593498.8216,1.39478831912e-05,0.0,5831618.24815,678.973693022,647.471523444,66997343.9672,1692.19591111,36024634.007,70623775.6448,4356.94025121,4348.21877718,0.0
1.14081767094,0.976485685136,9.52844623878e-06,-10062356.5001,2.01230432046e-05,0.0,5603382.17455,684.440577498,653.384953345,66393524.5723,1812.35975967,44508870.7887,68003844.1491,4735.53415207,4725.8619696,0.0
1.01016729672,1.11131270873,9.64084087101e-06,-87261402.9968,1.23622327743e-05,0.0,5981235.68532,678.113813338,644.998500756,67381142.2482,1641.96496895,63221509.64,71086262.3141,4193.20444868,4186.15170177,0.0
1.07004637843,0.879273536603,9.75138600442e-06,-34701964.3243,1.60687965628e-05,0.0,5812826.12618,680.068335414,648.797654818,66971571.152,1721.23538955,34738425.9627,70122178.2902,4441.76251686,4433.43372464,0.0
1.13877867877,1.00658465055,9.97230616986e-06,-8923551.90734,1.99902497913e-05,0.0,5583442.02254,683.982011941,653.23661543,66331283.7985,1808.96169508,45200165.3298,68134851.1081,4727.07029557,4717.33162926,0.0
1.18029025859,0.873986016019,9.91484617093e-06,3259983.91116,2.42279410644e-05,0.0,5402283.89701,686.703288713,655.85323101,65682338.5251,1858.74754399,51693402.6912,66933692.3971,4899.38486341,4888.25226769,0.0
1.07736350173,1.15589088438,1.01119037026e-05,-31427654.323,1.39271932707e-05,0.0,5799272.30097,680.243718585,649.347333965,66949888.3071,1731.23802006,35133938.0526,69294432.2056,4472.13589568,4463.88706785,0.0
1.07431360677,0.998674838481,1.02375977763e-05,-31067460.9963,1.5174773555e-05,0.0,5755988.00631,680.041199819,649.128939573,66799682.628,1725.09824441,35089840.4353,69289405.3038,4459.4757817,4450.51403927,0.0
1.20815519992,0.72819941474,9.68971763832e-06,10172500.9521,2.98952219131e-05,0.0,11600515.7551,688.653484149,657.571149783,65286006.124,1892.51686667,56192270.4591,67003254.2843,5015.05223487,5003.41600901,0.0
1.10032591056,1.16867231436,9.82861824327e-06,-23011982.1246,1.47932761291e-05,0.0,5746192.29898,681.763057816,650.834674053,66804281.2816,1760.78895599,37218487.2682,69116915.334,4567.45285473,4558.65208067,0.0
0.989663808682,1.1177031106,1.00755706741e-05,-95380032.6271,1.23553902637e-05,0.0,5991222.70992,679.228659072,643.679766673,67377685.1107,1613.73606178,70246726.7094,70489806.4715,4108.09446984,4100.99127028,0.0
1.11758203186,0.946287819199,1.01632468994e-05,-15007858.9412,1.89964461072e-05,0.0,5632005.16414,682.560597619,651.835475746,66459445.6819,1781.40534457,41247836.5061,68945789.9931,4639.08301425,4629.51553967,0.0
0.996566235043,0.76063107368,9.91098380136e-06,-95663761.9553,1.51415665498e-05,0.0,5962547.19153,678.769290638,644.120543357,67293092.2113,1622.57794867,70496700.9868,70813033.1682,4136.74644166,4129.45864505,0.0
1.0818625012,0.845103151702,1.00200214595e-05,-28804667.0803,1.74542880966e-05,0.0,5764627.80854,680.71104443,649.656927826,66837378.3695,1736.76403539,35707045.259,69280605.6198,4490.81124248,4482.29957898,0.0
1.05566338814,1.24150683743,1.03016639726e-05,-39101950.9196,1.18681305059e-05,0.0,5808142.7103,678.870665976,647.910281734,66921416.4488,1699.94324104,34694781.5974,69675245.3497,4382.05872417,4373.14844885,0.0
1.09658525974,1.02872315656,9.89990787637e-06,-23964727.5319,1.62139515094e-05,0.0,5744358.16611,681.524651895,650.569372643,66793269.3137,1756.00542984,36830970.8976,69730046.6208,4551.92541318,4543.1835094,0.0
1.11719321505,0.649632381747,9.63462217683e-06,-15939953.5966,2.30716324919e-05,0.0,5617714.27717,683.112179361,651.82716001,66405952.9678,1781.20537387,40759729.4891,69329645.6404,4637.46903567,4627.71073419,0.0
1.05252199374,1.15749945112,1.03230720261e-05,-43032589.094,1.28484557999e-05,0.0,5855015.81317,678.57119417,647.654873648,67095245.9102,1698.45237637,35400829.229,70273077.0471,4369.01879601,4361.26547968,0.0
1.06999386204,1.10937923896,1.01807776994e-05,-32911705.6403,1.38012373403e-05,0.0,5800008.42686,679.621385321,648.753735331,66930056.2498,1720.29481672,34977767.4665,69683836.9838,4441.54452133,4433.0260417,0.0
1.07865013906,0.881452985911,9.85200414052e-06,-30653522.6496,1.66598851705e-05,0.0,5786871.97262,680.420027916,649.298170152,66910052.2063,1732.5198082,35396035.0747,69349236.493,4477.47672724,4469.01494105,0.0
0.961674928392,0.804458083009,1.01088818296e-05,-93848426.6951,1.52256366214e-05,0.0,6035416.76523,684.372830119,641.878286434,67484677.8665,1613.34571605,68898440.9409,69123382.5668,3991.91262776,3985.23205429,0.0
1.15585240342,0.937847061432,9.89556088945e-06,-4229695.65633,2.24722285285e-05,0.0,5521258.0574,685.150366024,654.333187513,66144023.7567,1830.75707985,47679364.1667,68484606.2399,4797.9433266,4787.92794067,0.0
1.08546636615,1.02904737225,9.56556034089e-06,-28617169.6333,1.51015670952e-05,0.0,5788434.08849,680.96750723,649.755407045,66914616.7498,1741.12574305,35858115.7607,69482511.6204,4505.77088589,4497.10607791,0.0
1.10989729178,1.02222801991,1.00571931708e-05,-17489798.4353,1.7227307799e-05,0.0,5644734.92468,682.22314718,651.396072557,66478327.6476,1770.55160994,39916635.5071,69013549.0604,4607.18365818,4597.35417285,0.0
1.17207035937,0.873703599512,9.85309592974e-06,1318761.38672,2.34990620894e-05,0.0,5445066.46922,686.187852745,655.373959384,65887503.6348,1849.79051544,50771814.7959,66766327.1824,4865.26406174,4854.7024243,0.0
1.03052477456,0.773307440774,1.05633835985e-05,-58555321.9583,1.59173146165e-05,0.0,5831429.78832,677.649750125,646.257971654,66985578.733,1667.69551276,41777104.237,70704077.7975,4277.7083392,4269.49948976,0.0
0.900914260626,0.919515308774,9.73822921578e-06,-91365906.6455,1.37581885647e-05,0.0,6191119.74088,693.23593296,637.964398931,67854091.4268,1599.87953956,66713157.113,67854091.4268,3739.69509586,3733.81591313,0.0
0.980066701962,0.982795224299,1.02437911119e-05,-94692595.0763,1.37100078552e-05,0.0,5948875.98809,680.637050882,643.048740288,67232945.5555,1609.07826013,69641610.5943,69879566.8679,4068.25687984,4060.35123102,0.0
1.13384988674,0.953015682803,1.04600669412e-05,-10761442.8077,2.13338564044e-05,0.0,5606567.94267,683.403708105,652.944232014,66404294.5778,1804.36006932,43766347.5912,67798877.3065,4706.61087986,4697.4941194,0.0
1.07038736821,0.989021785446,9.95025081419e-06,-33580385.8176,1.50039386787e-05,0.0,5800398.73616,679.882428106,648.800809521,66928187.1988,1720.89516002,34878066.9608,69866358.7945,4443.17796544,4434.65495899,0.0
1.08310218933,0.806921674652,1.03924938699e-05,-27347328.086,1.84154484762e-05,0.0,5748050.72364,680.521866605,649.726318357,66785587.8559,1738.74006539,35831772.6837,69141385.6956,4495.95718791,4487.52330134,0.0
1.05652990307,0.907164953224,9.65881575169e-06,-44437604.8279,1.53382303894e-05,0.0,5802337.48704,679.509442414,647.908912632,66920846.9616,1701.1250685,35684596.9067,70418293.6651,4385.65562764,4376.67263917,0.0
1.02343920603,0.795388932997,1.00136849887e-05,-67446582.7628,1.52039281737e-05,0.0,5917350.96114,677.830699215,645.8362017,67235484.7336,1660.02012649,47633453.3521,70930404.9539,4248.29614423,4241.05521672,0.0
1.05628713502,0.881394714279,9.85691407823e-06,-42235111.5927,1.54282696006e-05,0.0,5812611.06233,679.286751019,647.883160735,66950941.2893,1701.64896361,35204439.9902,70391612.1535,4384.64789747,4375.99677332,0.0
1.06415206785,0.852847567394,9.99295379593e-06,-36298215.1199,1.58500765817e-05,0.0,5771951.66428,679.622056891,648.393803049,66828102.5436,1711.19817463,34560383.3002,70065212.9085,4417.29523365,4408.15335041,0.0
1.09592681996,0.893462194725,9.88328559443e-06,-24220901.0484,1.77921836502e-05,0.0,5736904.13008,681.552215576,650.52153701,66768943.5585,1755.27625087,36796003.1419,69867010.2892,4549.19222965,4540.46003842,0.0
1.14037642168,0.848980633023,1.05721851436e-05,-6613090.55464,2.18930963143e-05,0.0,5532471.3665,683.568015443,653.187798595,66121898.7142,1810.17449029,46058458.6348,68491303.1174,4733.70252639,4723.72023175,0.0
1.03675471642,0.93263605816,9.93059904951e-06,-56485508.2727,1.44895177534e-05,0.0,5846538.12556,678.393537737,646.666606107,67031161.6231,1675.36186212,40650557.0998,71022630.8231,4303.56882786,4295.08580239,0.0
1.07402347448,1.01829359112,1.03157150994e-05,-30880298.0444,1.52285855826e-05,0.0,5778100.97087,679.948362765,649.119694493,66865265.349,1725.99581384,35209353.0972,69275682.7767,4458.27144257,4449.78465326,0.0
1.03433401478,1.12710465669,1.01598985258e-05,-55938967.6445,1.25585266338e-05,0.0,5853936.95919,678.004951652,646.506883451,67051638.7768,1671.83095602,40342842.2502,70926324.4425,4293.52049535,4284.98927952,0.0
1.20722520287,0.946592464285,9.97819789551e-06,10251667.3431,2.52373919332e-05,0.0,11602135.439,688.257228787,657.494230036,65244450.8383,1889.7576538,56200830.2821,66960127.9358,5011.19181711,4999.22600337,0.0
1.25167751024,0.965412676274,9.77580048174e-06,20068529.7226,2.87415780208e-05,0.0,21776128.6251,691.085157219,660.322420772,64914548.4094,1943.29443505,64163606.2756,65129583.9317,5195.71334501,5183.79702683,0.0
1.04425455269,0.737754046281,1.01135567744e-05,-48903329.2305,1.66545340239e-05,0.0,5810477.78344,678.633454511,647.142120912,66935076.691,1685.47012735,37092232.0301,70975593.2852,4334.70064822,4326.09807208,0.0
1.10992720134,1.03931913703,9.81824141006e-06,-19740057.8284,1.70049282291e-05,0.0,5705106.60997,682.383706083,651.434737057,66690273.2216,1773.0795291,38749657.4316,68917420.8301,4607.30781276,4598.25397079,0.0
1.0278479176,1.03326869166,9.78530015384e-06,-64285059.5646,1.32698717435e-05,0.0,5926344.1473,678.089870356,646.112141265,67269762.9362,1665.74368901,45485707.7973,70964140.5879,4266.59670596,4259.29404899,0.0
1.08371403758,0.809084467642,9.89103618983e-06,-28568683.7636,1.79710162174e-05,0.0,5762303.74185,680.929844334,649.779774197,66831296.37,1739.21998884,35750638.7875,69306032.4069,4498.49696999,4489.95650368,0.0
1.12840415635,0.899387887931,9.8319964375e-06,-12602406.4591,2.04903848438e-05,0.0,5564286.14389,683.581581421,652.549708836,66246699.1973,1794.11345954,42646224.4058,67690061.0994,4684.00565301,4673.66115759,0.0
1.05556440291,0.891671149301,1.03211732946e-05,-40870742.4225,1.55057894095e-05,0.0,5800666.007,678.873462846,647.82676192,66913711.0637,1701.00871651,34930895.8747,69543119.3189,4381.64783648,4373.10058502,0.0
1.18440873415,1.0734148192,1.03141565858e-05,5109902.37862,2.14410990471e-05,0.0,6660766.52406,686.524020985,656.10685136,65717251.8075,1863.98829121,52665137.0225,66945815.2844,4916.48065546,4905.70444771,0.0
1.08905367203,0.851352096543,9.85537536258e-06,-26822378.764,1.7799458671e-05,0.0,5751800.15434,681.224734754,650.104562881,66806517.5895,1746.18131408,36105776.6146,69321807.4168,4520.6617926,4512.03803883,0.0
1.16381688119,1.30862327946,9.92464095109e-06,-1015574.22601,1.64213104889e-05,0.0,5478600.08606,685.453194789,654.849904871,65991188.3232,1837.6442591,49419694.1159,67856633.2787,4831.00387382,4820.06246825,0.0
1.17516879072,1.09276714426,9.68183131958e-06,1533498.80789,1.97444058401e-05,0.0,5420594.1128,686.396540599,655.550903634,65816395.1119,1851.81227588,50829189.1483,67060752.8009,4878.12565028,4866.8888589,0.0
1.16874300184,0.996335834825,1.02001564173e-05,760483.951146,2.1636068184e-05,0.0,5396794.09194,685.781116742,655.146136995,65720208.305,1843.40252846,50132163.3999,67361396.1651,4851.45220064,4840.21633521,0.0
1.09306940565,0.928870707401,1.0253312013e-05,-24243435.3475,1.7491199606e-05,0.0,5728876.04344,681.108230274,650.32624908,66733334.602,1751.33651135,36621800.6974,68932237.6546,4537.33110285,4528.64449396,0.0
1.26675673349,1.16823352037,1.0310239182e-05,22781785.7506,2.77363868733e-05,0.0,24644044.0304,691.770615638,661.284793419,64490679.0903,1957.97710462,66117825.6445,67063938.0651,5258.30720072,5245.53203388,0.0
1.09441641461,1.13786070285,1.04499520896e-05,-22974217.0508,1.51143717336e-05,0.0,5716028.0836,681.006717735,650.447531185,66698206.1377,1752.01571195,37063417.3453,68972485.7362,4542.92253705,4533.92155795,0.0
1.02249578149,1.13815574454,9.59847838454e-06,-72768162.5896,1.22644222592e-05,0.0,5953392.47738,678.133641599,645.784471159,67336356.0758,1658.53127577,51537449.194,71143351.0734,4244.37998896,4237.15250791,0.0
1.07735768656,1.02648603184,9.99467457058e-06,-30766950.7932,1.50808606132e-05,0.0,5797297.2574,680.185874614,649.213283291,66931166.1179,1730.95334597,35324252.723,69345624.2725,4472.11175691,4463.717993,0.0
1.04405073871,1.13180257112,9.63712384293e-06,-51094546.8881,1.26243263483e-05,0.0,5846011.57749,678.930340996,647.180188699,67038442.6191,1684.38788341,38068038.1624,71113241.5255,4333.85461639,4325.07907289,0.0
0.974608369484,1.03922202753,9.80528285221e-06,-94777503.3544,1.32388471048e-05,0.0,6044021.05807,682.407524184,642.717762774,67518561.8387,1614.49949452,69716082.3476,69951328.4838,4045.59934173,4038.95790775,0.0
1.18873249583,0.974012759076,9.47383133822e-06,4889030.42317,2.24371300954e-05,0.0,6593968.20699,687.3623656,656.39078508,65790043.4097,1869.97617554,52950592.7628,67125960.8572,4934.42859019,4923.47494666,0.0
1.15298347223,0.777466759851,1.01670744127e-05,-5910019.00904,2.60461725399e-05,0.0,5540279.12058,684.743747529,654.073165828,66220521.3461,1828.95261409,46591264.4154,68520693.9648,4786.03439323,4776.58730926,0.0
1.09540946366,0.825098719359,1.02000614276e-05,-23626936.2804,1.89603605743e-05,0.0,5716903.47061,681.353486668,650.4999961,66699070.7187,1754.49128983,36832573.4817,68918684.6522,4547.04468365,4538.32136163,0.0
1.18711766284,0.789219941637,9.97526820699e-06,5351745.84549,2.67804860895e-05,0.0,6990325.2486,687.112479933,656.282354385,65640440.7457,1867.79657182,52993622.6514,66894043.7937,4927.72541845,4916.80698794,0.0
0.991158163509,0.997422248435,1.02550336255e-05,-95153350.1751,1.37091116417e-05,0.0,5921269.24103,678.975169273,643.759264677,67170610.4977,1613.38345344,70047419.7989,70296722.815,4114.29753673,4106.21266018,0.0
1.17019182608,1.23466220558,9.59896947444e-06,-1008519.80932,1.86363844592e-05,0.0,5532512.37282,686.079463912,655.282981205,66206000.2833,1849.3825564,49581948.9751,68039309.6547,4857.46627006,4847.506498,0.0
1.11393733062,1.34480658107,1.00907801026e-05,-16355069.5271,1.40096487229e-05,0.0,5653680.11692,682.255273508,651.613762978,66513799.9955,1775.46317952,40604725.8813,69358763.1989,4623.9538594,4614.05513553,0.0
1.19454167375,0.958005969204,9.55769716887e-06,5928825.43819,2.34099260197e-05,0.0,7564115.12919,687.776845181,656.747407687,65526027.533,1875.48469625,53405719.194,66852397.5567,4958.54248774,4946.81214635,0.0
1.19748516152,1.10399738738,1.00517780118e-05,7496255.07659,2.15540475278e-05,0.0,8954062.74323,687.584156161,656.9557952,65427986.2455,1878.06113968,54111113.3562,66554260.3964,4970.76090547,4958.99083815,0.0
1.10311501008,0.915988039661,9.98290857191e-06,-21652932.6179,1.82451498803e-05,0.0,5713086.57674,681.951260906,651.027398025,66696284.4231,1764.62354541,37720472.5222,68579790.3621,4579.03040684,4570.18563312,0.0
1.15983344766,1.09855641203,1.02778850585e-05,-1462515.79784,1.91878426468e-05,0.0,5464097.4068,685.100540642,654.601322591,65917390.04,1833.17190806,48925406.3753,67732334.1639,4814.46864124,4803.71433664,0.0
0.946705705171,0.957389965255,1.00106865497e-05,-93377780.9924,1.37674218148e-05,0.0,6097332.97005,686.331224262,640.919889324,67651623.4561,1609.63443766,68483929.219,68701597.065,3929.77538216,3923.59001409,0.0
1.13922272781,1.14510297871,1.00349693703e-05,-8978360.6753,1.81677325339e-05,0.0,5619112.96447,683.87147179,653.269969891,66434104.45,1810.56673266,45177895.3504,68182606.5244,4728.91354314,4719.58233178,0.0
1.05255568372,0.8283936457,1.02805335062e-05,-42482333.7254,1.59495470133e-05,0.0,5805863.84923,678.79008656,647.649348393,66933331.347,1697.04244237,35182171.8688,70395449.717,4369.15864312,4360.65929368,0.0
1.09643693048,0.754165573615,1.00300953232e-05,-23792943.7688,1.99683167887e-05,0.0,5715217.55191,681.562522514,650.562735124,66708232.4046,1755.91185439,36850841.3155,68988703.1301,4551.30969842,4542.57023651,0.0
1.1594851502,0.946611684742,1.00023981685e-05,-2896624.07436,2.13067547987e-05,0.0,5456633.80202,685.375684077,654.585075146,65938704.784,1833.01111563,48153415.5674,67950190.2609,4813.02285848,4802.18392455,0.0
1.0446908855,0.834894126468,9.92971440566e-06,-51012205.1117,1.56978751216e-05,0.0,5869597.38721,678.671428572,647.192527086,67122999.3265,1688.37653992,38028903.4369,70957462.3462,4336.51186571,4328.96668854,0.0
1.2545981718,1.0162764071,1.02038591705e-05,20777150.7944,2.90694292251e-05,0.0,22633946.744,691.055519212,660.497801368,64753067.0566,1945.47730307,64756898.485,65580263.3295,5207.83701114,5195.69750742,0.0
1.05092725412,0.966488666053,9.66081504915e-06,-45432414.5507,1.41760352355e-05,0.0,5832248.85618,679.152798568,647.561333688,66999105.8701,1693.9475873,36040226.5651,70682423.4161,4362.39903185,4353.65474822,0.0
1.0052499912,1.03331761464,1.02732756721e-05,-88965011.5577,1.30470574067e-05,0.0,5958918.01988,677.419818746,644.673513627,67319066.6342,1635.35773744,64706040.4728,70773036.6891,4172.79271347,4165.81078481,0.0
1.09527293746,1.04641459089,9.60395066813e-06,-25118825.5965,1.56425106543e-05,0.0,5756415.76344,681.614718997,650.451806299,66831517.0074,1753.95906739,36588409.4313,69333396.3914,4546.4779634,4537.65832226,0.0
1.05019767366,0.960655549931,1.03626852529e-05,-44625279.0058,1.47733571711e-05,0.0,5798184.69095,678.619429919,647.509165883,66910124.3956,1693.05415974,35657408.1774,70363518.9801,4359.37054336,4350.58243875,0.0
1.09914641443,0.944733814751,1.02265685996e-05,-22456379.5145,1.78258957104e-05,0.0,5713294.21899,681.532653492,650.767681386,66696999.0706,1759.24800073,37316474.2559,68443125.7361,4562.5567663,4553.77468424,0.0
1.24280167526,1.04254348579,9.54265349774e-06,17583590.7085,2.57492769201e-05,0.0,19061471.7406,690.615109978,659.730835379,64947158.3202,1932.02490948,62154564.8335,67052553.5851,5158.869754,5146.47106262,0.0
1.1237538748,0.902978423311,9.88639437567e-06,-13956555.1402,2.00508600089e-05,0.0,5641520.11595,683.144098851,652.250696069,66493764.7552,1790.4320487,41941634.6918,68588974.1916,4664.70233429,4655.33526303,0.0
1.09343031001,0.837987858861,1.00436598752e-05,-24754430.7867,1.84831079037e-05,0.0,5730589.29805,681.299310638,650.336440819,66749481.7142,1751.91165009,36551358.2271,69073125.6808,4538.82921685,4530.13619579,0.0
1.10687076061,0.922703098847,1.00580923248e-05,-20377965.3475,1.85783613948e-05,0.0,5699075.5201,682.097285356,651.244374151,66660718.7945,1769.47472692,38280936.6659,68765876.6008,4594.62052729,4585.71636321,0.0
1.11554669063,1.05538445419,9.48544759767e-06,-16866964.871,1.66853059789e-05,0.0,5670799.85149,682.903152459,651.758113858,66577251.9423,1778.6776748,40347780.3113,69320093.8886,4630.63431281,4620.90386354,0.0
1.09267870085,0.78903712088,9.89780042981e-06,-25460339.6191,1.89839409586e-05,0.0,5734641.30022,681.379381948,650.287488533,66760842.423,1750.97811525,36408231.8531,69209755.9674,4535.70928723,4527.02906326,0.0
1.12060504937,1.03321383541,9.96413904613e-06,-14566764.5868,1.79766202618e-05,0.0,5607752.66059,682.888998528,652.023481141,66375535.3596,1784.15366709,41522774.5491,68435131.2615,4651.63155993,4641.52038644,0.0
0.974668492207,1.00499834042,1.00098950283e-05,-94593769.6765,1.34848611901e-05,0.0,6021177.01106,682.122288078,642.716416316,67453338.5657,1613.47669977,69554406.1372,69788561.9892,4045.84891115,4038.95644674,0.0
1.17516741156,1.01623861822,1.00749274906e-05,2736546.73223,2.14066428689e-05,0.0,5413488.80559,686.167656824,655.540667137,65781355.3983,1852.14542767,51376908.3585,67036843.3066,4878.11992539,4867.18058625,0.0
1.11569597692,0.835910908523,9.83595730833e-06,-14962036.4817,1.89386986019e-05,0.0,5626597.11134,682.727328412,651.723321207,66423870.1704,1778.11154764,41325871.3186,69447868.6648,4631.25400019,4621.26978357,0.0
1.15491348775,0.900682260366,9.5688282567e-06,-7299233.08152,2.30279124524e-05,0.0,5465366.72021,685.452796414,654.249764355,65972274.2143,1827.89568459,45796975.9777,68315995.9206,4794.04588765,4783.07765954,0.0
1.02445917868,0.825345414989,9.84844173173e-06,-67799514.2457,1.50164252994e-05,0.0,5922653.38491,678.01808429,645.90728271,67251175.9936,1661.35200709,47894392.3712,71016883.8483,4252.5300507,4245.27457374,0.0
1.11032522578,0.946205118525,9.84856866113e-06,-17646458.2983,1.80897739024e-05,0.0,5641166.33997,682.437905705,651.425811087,66472305.9742,1771.01702848,39860841.4954,69003177.4058,4608.96001221,4599.02684207,0.0
1.11099973375,1.17018870118,9.77491209088e-06,-19569337.7824,1.54565165535e-05,0.0,5713074.31527,682.419079113,651.500496132,66715081.878,1774.36355028,38882824.6453,68990973.9973,4611.7598948,4602.68787879,0.0
1.12080086488,0.997980354885,9.99034192324e-06,-14535124.4587,1.86089547723e-05,0.0,5653717.9786,682.844533074,652.056043878,66528208.335,1786.51222664,41579624.6728,68898566.5585,4652.44439012,4643.12539456,0.0
1.07227513153,0.730705360524,1.01268312245e-05,-31943597.6629,1.82535178067e-05,0.0,5771146.46648,679.912387692,648.870099434,66845202.0373,1723.59023221,35078397.6805,69512942.0117,4451.01407098,4442.45993532,0.0
1.21926590582,0.906944838751,1.03377089651e-05,13129623.2679,2.75433972491e-05,0.0,14331872.0788,688.892584118,658.305700926,65040900.8295,1904.11903499,58432129.0334,66370384.8929,5061.17277506,5049.20124927,0.0
1.21623852155,0.822296996026,1.02736380963e-05,12942215.7966,2.91487987164e-05,0.0,14144830.9423,688.7270386,658.132362028,65221030.089,1902.10823133,58295691.9151,66417390.7389,5048.60610295,5037.27889814,0.0
1.159010084,0.944051262923,9.79707671682e-06,-2893876.92398,2.11762146393e-05,0.0,5497994.43283,685.434425281,654.569102442,66045943.5525,1833.45509059,48465863.4433,68231208.7222,4811.05085868,4800.60761163,0.0
1.1773228097,1.02884006944,1.01290496235e-05,1860026.24347,2.2905918415e-05,0.0,5443590.31657,686.297053634,655.689398923,65896573.1242,1857.30363531,50875707.2342,66972807.2842,4887.06698306,4876.76938889,0.0
1.02036527152,0.985246626421,1.02038769952e-05,-69617834.4724,1.38058672525e-05,0.0,5869105.85083,677.622782726,645.616262005,67073614.5198,1653.1482418,49166672.6124,70861936.2733,4235.53624208,4227.23017876,0.0
1.16508070072,1.15844916738,1.00230093343e-05,-184900.006114,1.84443685276e-05,0.0,5455243.76599,685.531786392,654.925341202,65903886.9145,1839.15525587,49865672.01,67753441.8718,4836.24998869,4825.28749651,0.0
1.27516847402,1.0391661526,1.01910347728e-05,24065726.7901,3.13897765149e-05,0.0,25865918.9235,692.482329403,661.779909553,64222468.3687,1967.22923241,66929993.682,67915616.3028,5293.22433566,5280.00102881,0.0
1.10691364964,0.702745780285,1.03968566664e-05,-17383011.3524,2.18366339952e-05,0.0,5632690.64535,681.956168014,651.209454428,66448260.9321,1767.86819969,39896438.7354,68860578.8754,4594.79855966,4585.40961376,0.0
1.11632173656,0.688300068896,9.76581388907e-06,-15774584.4908,2.2483213309e-05,0.0,5603631.54388,682.948141043,651.758490948,66363526.6403,1779.22441911,40968774.8351,69339508.2681,4633.85152846,4623.9083482,0.0
0.98115807577,1.20938974806,1.04884582849e-05,-94731800.2671,1.16292299144e-05,0.0,5950175.72085,679.70271561,643.117151349,67243416.582,1606.72631273,69676275.7116,69915383.9236,4072.78717252,4064.86418556,0.0
1.25307511416,0.910820187817,9.77421256417e-06,19942124.4026,3.01289935434e-05,0.0,21648519.1287,691.33547385,660.386190562,64630779.0974,1943.1604365,63997880.4488,64939897.8638,5201.51479888,5188.75320159,0.0
1.17612745928,0.934787781129,1.02191623031e-05,3107419.24538,2.32272505252e-05,0.0,5407644.12059,686.179971261,655.598944571,65759711.7921,1853.92493429,51486989.8111,67028252.6096,4882.10508347,4871.366121,0.0
1.22225326302,1.10612188396,1.02506230898e-05,13511672.9183,2.37837171575e-05,0.0,14810925.9673,688.984140983,658.495946169,65099958.8249,1907.09503557,58854494.2572,66492489.1583,5073.5732948,5061.45197624,0.0
0.996455698841,1.08357022949,1.00482985375e-05,-95465082.2554,1.27526743267e-05,0.0,5920371.46128,678.667041736,644.098733365,67171238.2001,1620.10234147,70321900.9527,70705148.793,4136.28760589,4128.0368118,0.0
1.15256953895,0.891212333401,9.68419418219e-06,-5546011.32118,2.26361033824e-05,0.0,5539753.32504,685.096235065,654.132100081,66212513.0284,1826.77918571,47241401.6289,68779663.7615,4784.31615618,4774.35827172,0.0
1.0877252267,1.20208506916,9.6940787371e-06,-27470805.7409,1.35368496786e-05,0.0,5783223.79375,681.126905966,650.028217047,66904490.7368,1743.97176385,36023323.2426,69467190.6464,4515.14741603,4506.4470427,0.0
1.02623270763,1.09431995733,9.84205658879e-06,-65736072.2211,1.26827705491e-05,0.0,5931493.21302,677.969946586,646.008053198,67282646.8215,1663.56983198,46463764.3856,71039101.5678,4259.89196937,4252.61116421,0.0
1.0201310516,0.739134636669,1.00693785823e-05,-70854711.0085,1.58787199583e-05,0.0,5860987.60832,677.86211359,645.609399363,67045482.4993,1652.95348508,50072053.6116,70917113.4417,4234.56399519,4226.26168094,0.0
1.10101564463,1.01848610696,9.5481663679e-06,-20846133.7199,1.62335290173e-05,0.0,5756817.99265,681.982941624,650.89356371,66830493.423,1761.63536316,38595865.6034,69085864.2762,4570.31594086,4561.63158843,0.0
1.10331502808,0.862923840993,1.00794650755e-05,-21580600.5458,1.90833222215e-05,0.0,5701169.59398,681.918439215,651.033896941,66664081.0195,1764.76966801,37709956.6895,68592167.3458,4579.86068156,4571.01286216,0.0
1.12738549131,1.00370406156,1.00039498005e-05,-12572086.4736,1.89643920306e-05,0.0,5602324.79023,683.296288982,652.491738969,66374794.9962,1793.80157634,42846127.3476,67260405.3085,4679.77717443,4669.94627572,0.0
1.10397223779,0.916982118213,9.99776203832e-06,-21367527.8281,1.83249125867e-05,0.0,5709902.64625,681.986581866,651.077057287,66688265.2852,1765.73533427,37816642.1181,68631295.5594,4582.58875907,4573.73044411,0.0
1.18692520032,1.0161924504,9.94943690939e-06,5163146.119,2.21204966786e-05,0.0,6813717.63146,686.94216236,656.268997017,65739897.3751,1867.22411979,52911967.096,67010706.3607,4926.92650653,4916.01146218,0.0
1.07537123292,0.917936135361,9.71044198759e-06,-32576583.6528,1.59343739226e-05,0.0,5803645.7346,680.314196018,649.083694617,66951913.7696,1728.17970851,35032709.5386,69843211.2573,4463.86598785,4455.45498799,0.0
1.10405822601,0.907091283285,1.01136842206e-05,-21279933.0604,1.86353261217e-05,0.0,5701391.1856,681.912712994,651.075704086,66666415.7348,1765.69280821,37822433.7455,68632382.4338,4582.94569617,4574.08613584,0.0
1.13248476877,0.979995428509,1.01061627825e-05,-11340110.9834,1.98718217406e-05,0.0,5580592.19882,683.483791775,652.75944654,66300233.0306,1800.48669702,43505355.6914,67564260.9423,4700.94427516,4691.02660975,0.0
1.02177379367,1.16014028218,9.77859011651e-06,-71947778.2784,1.20737292767e-05,0.0,5948837.72592,677.923053062,645.730352501,67323475.9554,1657.59565621,50913953.0958,71967175.7625,4241.38301752,4234.16581962,0.0
1.18561402078,0.820674940268,9.86518109297e-06,4831174.01393,2.5745391581e-05,0.0,6487731.38318,687.047596503,656.18289037,65679756.3085,1866.04107878,52715951.143,66989047.8616,4921.48380026,4910.59158704,0.0
0.986858725292,0.995133446257,1.0162143773e-05,-94993846.9056,1.37347649282e-05,0.0,5936039.95514,679.837701473,643.485033374,67204278.2909,1611.07605889,69906941.7311,70149201.5907,4096.45056869,4088.43447821,0.0
1.03155137055,0.798730474807,9.79922349943e-06,-60223672.1841,1.54758007882e-05,0.0,5905112.02049,678.27598937,646.358876804,67210783.7914,1670.82064999,42935081.3635,70996451.9767,4281.96973915,4274.61275171,0.0
1.14323652132,0.8521634323,9.95185053686e-06,-8735199.16394,2.26399546596e-05,0.0,5536490.75231,684.263267542,653.391421384,66175536.3931,1814.38557269,45024552.9189,68242111.2729,4745.5748,4735.44904382,0.0
1.04364144819,0.976189464353,9.79181069778e-06,-50613626.5372,1.416318593e-05,0.0,5833480.35898,678.738587854,647.072747349,67001856.2089,1683.9827347,37836432.146,71049856.7697,4332.15565144,4323.38683336,0.0
1.02225524183,0.88207323889,9.96690653352e-06,-69386388.2999,1.44531471462e-05,0.0,5926132.7267,677.824361218,645.759220976,67258498.3009,1658.39444105,49017203.5516,70855517.8963,4243.38150884,4236.15728579,0.0
1.02983576746,0.815136707618,9.953383659e-06,-60414725.9311,1.52494405158e-05,0.0,5904256.63958,678.065389744,646.245731631,67207653.4488,1668.55063784,42946775.2542,70947724.4235,4274.84827073,4267.51589371,0.0
1.10754441874,0.939121129594,1.04279050984e-05,-17475693.9088,1.83076533793e-05,0.0,5653572.14392,681.851075238,651.250094668,66495931.109,1768.68501107,39837333.1689,68900540.2913,4597.41688219,4588.01711681,0.0
1.07536683527,0.976136580556,1.00741506372e-05,-31001193.5514,1.55131386867e-05,0.0,5781486.53783,680.030525975,649.076080206,66882763.341,1727.45715698,35314895.2854,69414464.5918,4463.84773321,4455.24642126,0.0
1.06524450281,0.852211511104,9.71834451044e-06,-37603221.9978,1.60314880269e-05,0.0,5813287.24576,679.855287879,648.48142471,66964629.0779,1714.42045118,34692637.3921,70152638.3117,4421.82993116,4413.38573521,0.0
1.08910189148,0.690212360222,1.00892892704e-05,-26035758.5247,2.03427317779e-05,0.0,5729646.3213,681.113042339,650.084285299,66741442.5088,1746.38030566,36166046.5036,69167649.2006,4520.86195153,4512.23744414,0.0
1.10470765646,0.913013903033,1.03144907672e-05,-18554365.7959,1.85567001203e-05,0.0,5614210.91396,681.829703366,651.063855668,66379309.4883,1762.84748311,39356680.9014,68717816.5278,4585.64148197,4575.5228965,0.0
1.15056354661,0.910166733398,9.51608333628e-06,-6390222.20992,2.19592684344e-05,0.0,5555828.8534,685.032678892,653.977467641,66253202.1775,1824.25069363,46821566.6552,68796885.9779,4775.98928198,4766.03881372,0.0
1.04891131497,0.827904688324,9.87599723807e-06,-46151060.7032,1.57547966565e-05,0.0,5815657.77042,678.951079657,647.428272668,66949117.2621,1691.27731023,36070474.0539,70477182.4913,4354.03086844,4345.32108286,0.0
1.12364787582,0.777008876928,1.00723535938e-05,-13341139.4695,2.18999655533e-05,0.0,5591386.39488,683.130523578,652.242990771,66335628.6172,1789.23628512,42364476.1977,67837749.392,4664.26233253,4654.49453882,0.0
1.10760245665,0.9494725087,1.0372634906e-05,-17643690.8815,1.80935614765e-05,0.0,5607744.20737,681.928558936,651.235349201,66364297.3363,1766.61394439,39762932.5189,68833518.0716,4597.65779755,4587.50419589,0.0
1.21299560988,1.03311333684,9.86767137353e-06,11154966.6776,2.38233096103e-05,0.0,12442904.489,688.61359567,657.870847918,65263119.648,1896.98191582,56955974.6225,66434756.1536,5035.14477661,5023.20039066,0.0
1.01262488639,0.974821786923,1.0375639878e-05,-78595638.3855,1.36605101364e-05,0.0,5934681.76736,677.259803296,645.144330663,67254769.7755,1645.35306055,56050066.3338,70713170.6883,4203.4059034,4196.31874547,0.0
1.00870458666,1.17501265959,1.01822832869e-05,-85584229.862,1.19897031314e-05,0.0,5890879.26813,677.577820638,644.87639335,67101670.28,1636.40232378,61799520.3152,70718583.3125,4187.13273923,4178.68246259,0.0
1.08376127226,1.02447603806,9.73529867506e-06,-29120667.7727,1.53105593512e-05,0.0,5783597.77994,680.937098046,649.773472945,66905938.3381,1739.10827567,35764673.5132,69407576.8103,4498.69304115,4490.15183952,0.0
1.32279099922,1.19394899532,9.82552783845e-06,30469291.0879,3.15201916753e-05,0.0,31865279.4984,695.575688391,664.83743343,63639978.962,2021.04131847,69979112.1681,71562365.4901,5490.90543776,5476.92901071,0.0
1.12051718983,0.761650531169,1.0587642037e-05,-13585318.3539,2.24077496431e-05,0.0,5581714.52033,682.609767024,652.038172951,66299900.4444,1785.50088306,41991993.178,67635351.1957,4651.26685498,4641.65099134,0.0
0.992380385809,0.801400869246,1.01161406036e-05,-95197440.7061,1.52707292133e-05,0.0,5913260.05535,679.248685728,643.838752029,67145784.2014,1615.08473845,70086263.3733,70336328.5962,4119.37098149,4111.26650731,0.0
1.16500174985,0.931299602649,9.74266094848e-06,-912321.067845,2.18004215976e-05,0.0,5444425.19397,685.863447608,654.927452412,65882826.0278,1839.7242857,49587721.0371,67849846.1165,4835.92226363,4824.95943339,0.0
1.09146647268,1.14214901146,9.97272214518e-06,-25732948.5151,1.46072315744e-05,0.0,5760728.3505,681.111497647,650.220281302,66839253.0321,1749.09048822,36341995.0168,69286463.5784,4530.67732809,4522.01583104,0.0
1.17608022472,1.01372371438,1.00921757999e-05,2516286.31463,2.15578187222e-05,0.0,5400830.64563,686.237891142,655.592794337,65737337.521,1853.22480623,51186928.3723,66953383.2671,4881.90901281,4870.8519293,0.0
0.997007278883,0.79576993649,9.74628309069e-06,-95769034.6108,1.50685302692e-05,0.0,5989469.73225,679.09912963,644.156808669,67390195.9559,1624.2693182,70589385.177,70864774.7828,4138.57721464,4131.71170591,0.0
1.10191064502,0.947100751305,9.88740056626e-06,-22296780.5657,1.76863239411e-05,0.0,5723220.73276,681.926551548,650.946833996,66738354.567,1763.03138845,37458255.4583,68618820.1525,4574.03108748,4565.20532429,0.0
1.10671874755,0.887089070362,1.01199717337e-05,-20470973.5264,1.91424945039e-05,0.0,5690915.00143,682.062811865,651.23228897,66639271.8583,1769.1584307,38200925.1084,68746364.6763,4593.98952108,4585.08787829,0.0
1.1416664451,1.05777321486,1.00368674128e-05,-8252045.61846,1.86073730545e-05,0.0,5568834.99527,683.945449846,653.299522837,66264379.7102,1812.00928273,45359435.8034,68361194.715,4739.05741361,4728.99734014,0.0
1.1883893567,0.980201659234,9.57775048684e-06,4963104.21675,2.24391501115e-05,0.0,6655708.5373,687.271583748,656.362986187,65780738.2012,1869.4359062,52953424.1029,67104258.2377,4933.00421966,4922.05662222,0.0
0.991466087894,0.876503334008,9.80205002377e-06,-95307432.3979,1.48451872057e-05,0.0,5981658.41068,680.315208355,643.796577104,67357852.4312,1619.14577559,70182828.5254,70426741.1192,4115.57573085,4108.4395998,0.0
1.16611412799,1.16492361665,9.70841437305e-06,-641221.809611,1.80431278987e-05,0.0,5491840.41192,685.773936954,655.006842751,66045075.2937,1841.6273775,49762634.7043,67866770.1989,4840.53974529,4829.86888278,0.0
1.00159996899,1.06542183271,1.03180394425e-05,-94822777.7878,1.31239165469e-05,0.0,5897085.12041,677.792442928,644.42159592,67113773.0299,1627.2217675,69767574.6034,70593405.1969,4157.64147128,4149.38854812,0.0
1.04167790251,1.07948661817,1.02450744958e-05,-49578157.255,1.32059977312e-05,0.0,5831064.45388,678.243652046,646.955061768,66991097.1025,1681.61521173,37367825.164,70940343.2766,4324.00497332,4315.3559493,0.0
1.14567814506,1.11755435983,1.02633575171e-05,-7367444.04458,1.89856789406e-05,0.0,5538961.89034,684.063257497,653.5600047,66195577.9314,1816.97597198,45585060.5955,68550799.5101,4755.70998014,4745.54245826,0.0
1.03447011918,1.00476100852,1.01167702486e-05,-56105884.6911,1.37289144141e-05,0.0,5847208.0512,678.099623124,646.515563183,67030749.4192,1672.10031404,40460771.8354,70903070.4704,4294.08546472,4285.55204616,0.0
0.986305938952,0.904209518862,1.03163700185e-05,-94923826.5444,1.43000149383e-05,0.0,5925902.5822,679.523839218,643.447684769,67178140.488,1609.50277092,69845335.6108,70086159.0863,4094.15595259,4086.14848992,0.0
1.21404668879,0.953792247337,1.00813110267e-05,11703435.2916,2.56683615766e-05,0.0,12982984.4313,688.626880535,657.960589497,65218857.7142,1898.58645755,57336279.0756,66268925.375,5039.50780517,5027.74292767,0.0
1.13957326725,0.996420500882,1.01356811301e-05,-9798467.73424,2.01046002642e-05,0.0,5519594.45993,684.024094312,653.260032377,66128029.9331,1808.31205356,44448456.1021,67947101.6601,4730.36863235,4719.81869496,0.0
1.0724083856,0.983411911505,9.62558715778e-06,-34138161.4801,1.50121523199e-05,0.0,5818345.22575,680.239687288,648.941640648,66990788.2614,1724.25876293,34814868.6664,70122356.4895,4451.56720863,4443.2019916,0.0
1.07246480107,1.09413460465,9.89804288392e-06,-32876388.308,1.39369810355e-05,0.0,5804249.69249,679.967710699,648.911715059,66942992.0265,1723.54463196,35022656.0156,69792652.367,4451.80138924,4443.2457493,0.0
1.18206809414,0.746405470184,1.04637101652e-05,5108779.61983,2.80043058518e-05,0.0,6649557.46021,686.571934727,655.953152094,65483784.1548,1860.63475956,52488733.3451,66683426.4328,4906.76465878,4895.71039961,0.0
1.02045705142,0.882807319231,9.89279123126e-06,-72385663.5998,1.44202807162e-05,0.0,5933898.0443,677.876090506,645.6484271,67275978.8579,1656.00813297,51233795.3063,70962159.8898,4235.91722044,4228.71876061,0.0
1.28042071802,0.845046556843,9.6824460502e-06,24750450.5454,3.38750867228e-05,0.0,26424327.2543,693.113563843,662.121591733,64273421.7526,1974.84854326,67402199.0375,68333858.7277,5315.0264005,5302.09043144,0.0
1.15520624086,0.986939551003,9.73710079178e-06,-4977790.87967,2.17293452684e-05,0.0,5564122.4302,685.146239422,654.308140427,66298784.5242,1831.19602579,47442048.8167,68752178.2991,4795.26110581,4785.67159448,0.0
1.06857663899,1.06453064332,1.04330286426e-05,-32369122.5986,1.45794169541e-05,0.0,5795866.26001,679.347988594,648.646347545,66913945.4213,1718.70395781,34982117.4006,69572006.2906,4435.66162845,4427.30124213,0.0
1.21414054229,1.01215089465,9.88458438884e-06,11416021.5207,2.43674928832e-05,0.0,12696823.8023,688.703039224,657.949595158,65234654.1901,1898.35849553,57154012.1884,66288653.147,5039.89739105,5027.93169237,0.0
1.08630948559,1.20550836759,1.03832334101e-05,-26382675.9596,1.40064612109e-05,0.0,5765523.07937,680.538592118,649.916476123,66844086.6027,1742.64237541,36079995.4345,69199543.9267,4509.27067468,4500.78728887,0.0
1.0059040541,0.800313339888,1.01353270097e-05,-88884262.3327,1.52873719318e-05,0.0,5876417.26826,677.889216435,644.696610281,67052143.3395,1632.91123869,64596945.8507,70754794.6168,4175.50772857,4167.1032761,0.0
1.1398097329,0.936617973747,1.02498604365e-05,-9369306.21963,2.17539193737e-05,0.0,5589157.26438,683.879617767,653.286611753,66349007.8424,1811.72744904,44628065.968,68086737.2297,4731.35020127,4722.03301463,0.0
1.00468661545,1.00009639809,1.00582721579e-05,-90783388.8683,1.36682380679e-05,0.0,5893696.9949,677.998905589,644.622035041,67102100.7869,1631.14425943,66215035.4204,70731242.063,4170.45414073,4162.06957755,0.0
1.07702090564,0.901883798213,9.6594439315e-06,-32053325.6062,1.61848751468e-05,0.0,5800270.02363,680.447545156,649.18793567,66944238.4265,1730.35618942,35129073.4232,69778556.6434,4470.71377931,4462.27724369,0.0
1.0598350203,0.875619783643,1.01997319754e-05,-38165078.5217,1.5667760733e-05,0.0,5809653.10591,679.186511325,648.129619256,66952482.5612,1707.28981238,34644841.7969,69883821.4308,4399.37516927,4391.01538823,0.0
1.02049630357,0.883945521841,1.02045352912e-05,-67782647.9837,1.44195168052e-05,0.0,5880459.11807,677.611387254,645.631444861,67104410.1507,1654.06622321,47854606.4281,70646810.7578,4236.08015612,4228.08314993,0.0
1.10525966158,0.65751804647,1.0113536126e-05,-20828984.744,2.26836881924e-05,0.0,5674826.61956,682.112256694,651.145795058,66586822.8946,1767.51731407,37991525.4843,68619264.0818,4587.93285522,4579.0543014,0.0
1.07401902566,0.857412291382,1.00227928224e-05,-31622429.1277,1.67575177096e-05,0.0,5779497.68553,680.034569243,648.983261259,66871890.3369,1725.77609833,35151383.4818,69533480.8332,4458.25297551,4449.67288764,0.0
1.08567618952,0.833203625716,1.03419173964e-05,-26622526.5888,1.82468859842e-05,0.0,5744792.3266,680.689138355,649.884531751,66778825.9676,1742.10218215,36021909.1006,69150477.0776,4506.6418627,4498.16826019,0.0
1.22926456496,0.794519413592,9.82218928856e-06,15272326.2022,3.03195845293e-05,0.0,16646524.8487,689.82657258,658.967904244,65123093.8904,1917.65310324,60305799.113,66723834.3588,5102.67720915,5091.10252817,0.0
1.05322011328,0.855794249729,1.01457342352e-05,-41315781.4987,1.57837854304e-05,0.0,5831712.86181,678.82400689,647.691848246,67015489.8155,1698.44387868,35170207.9406,70139673.7609,4371.91669023,4363.87389998,0.0
1.06993213396,0.949840302038,1.01991624869e-05,-32827758.9343,1.55466659686e-05,0.0,5788891.65289,679.669794847,648.747876488,66896235.6205,1720.33458809,34959667.8232,69635257.8192,4441.28828807,4432.77095383,0.0
1.0609045582,0.9367399358,1.01961318441e-05,-37716489.6824,1.50972216093e-05,0.0,5810882.31677,679.225789407,648.199398853,66957281.1057,1708.67924334,34642457.4215,69948292.4269,4403.81482109,4395.43837746,0.0
1.20066156016,1.14068628711,9.71835875608e-06,8355152.45032,2.06917332598e-05,0.0,9781032.47337,687.894621947,657.166998622,65587488.5211,1883.01519683,54988276.7574,66827957.0944,4983.94613622,4972.53491213,0.0
1.16859417431,0.874232331703,1.01857475358e-05,937440.067395,2.36739600442e-05,0.0,5432134.25434,685.800545586,655.15423132,65843423.389,1844.98119327,50292952.704,67448065.1928,4850.83441756,4840.2254328,0.0
1.00167599335,1.01630951475,1.01671570042e-05,-95095079.7528,1.34363763782e-05,0.0,5897789.72825,677.999649423,644.426378299,67112348.1957,1627.13720224,70006822.6779,70635844.0536,4157.9570484,4149.62392217,0.0
1.08490932391,0.65523456691,1.00850574184e-05,-27468332.7939,2.04721823426e-05,0.0,5739181.4311,680.918745063,649.844326482,66765127.5916,1740.91959617,35847128.4737,69212966.6933,4503.45860355,4494.89952197,0.0
1.03363607465,0.827546884057,9.8677536202e-06,-58430064.1478,1.52783738099e-05,0.0,5898439.11772,678.262573304,646.478115516,67194752.3296,1673.59883296,41828923.6986,71036048.5294,4290.62334587,4283.23640605,0.0
1.07352840174,0.914578429819,9.45957125449e-06,-34225655.4097,1.5706600901e-05,0.0,5817902.3256,680.446505704,649.012842495,66988127.6945,1725.77665842,34822675.1365,70176631.845,4456.21639562,4447.83388384,0.0
1.00318567646,0.822705666213,1.0567041207e-05,-87210768.5478,1.50101883629e-05,0.0,5870237.73777,677.337917315,644.52038736,67037579.0714,1629.53696518,63148265.5694,70563616.821,4164.22374299,4155.94517787,0.0
1.07347121771,0.864546293356,9.98028341073e-06,-32037624.4858,1.66114119615e-05,0.0,5782873.49221,680.032252634,648.949583865,66880993.2702,1725.0493089,35127519.1961,69612462.1801,4455.97902471,4447.4075571,0.0
0.969405478306,0.675780508453,9.49887630615e-06,-94350851.7522,1.64629249645e-05,0.0,6021122.45237,684.550411404,642.376846861,67435463.8722,1617.54630736,69340670.9452,69572579.6864,4024.00214045,4016.89025087,0.0
1.22961221606,0.781407288619,9.9900800791e-06,15227214.0579,3.10642657755e-05,0.0,16651542.5116,689.663853301,658.90069688,65090816.8657,1918.16150748,60263801.1441,66668901.3464,5104.12030887,5092.51818664,0.0
1.16878947247,0.894388748482,1.00678330849e-05,1228019.91873,2.30960897367e-05,0.0,5407653.10234,685.89628965,655.155140772,65760940.884,1843.95103114,50522253.6069,67483039.4298,4851.64510022,4840.61850184,0.0
1.08620544463,0.888651897905,1.00813594904e-05,-27106302.7488,1.72851847723e-05,0.0,5752835.10565,680.886321254,649.923282917,66809581.156,1742.41351669,35940255.6094,69256720.9652,4508.83880066,4500.25951466,0.0
